44
Properties=species:S:1:pos:R:3:energies:R:1:forces:R:3:charge:R:1 product=T mapped+aligned=T onto=T reactant=T energy=-2153.2700735542326 free_energy=-2153.2700735542326 dipole="-0.19341925269730653 0.5522916266582871 0.0821026508372905" pbc="F F F"
O       -3.22093330      -0.11583514      -0.90753785    -113.28955443      -0.06442531       0.01371898       0.00818211      -0.47052509
O       -2.04390656       1.70334191       1.98832648    -113.47362736      -0.00615991      -0.01079024       0.00368684      -0.46689408
O       -1.53785230      -2.02947961       1.07576473    -112.95119257      -0.03123228       0.01791295       0.08226316      -0.44375677
O       -4.36863731       3.11097216       1.62414903    -113.08712600       0.00818285       0.01282980       0.00029105      -0.43913363
O       -1.14583343      -1.74576916      -1.45107864    -113.45404942       0.06503392       0.21955551       0.16194235      -0.48719500
O        0.78915455       1.35986580      -1.26557423    -113.28512701      -0.03077041      -0.01999467       0.06510382      -0.46985492
C       -2.74276375      -0.04962036       0.41399032     -59.12066264      -0.02219524       0.00242651      -0.00443790       0.08699983
C       -2.80910918       1.43355715       0.82977343     -58.99867586      -0.00545058       0.00106097       0.00093897       0.09169826
C       -1.35859856      -0.70747543       0.63101763     -59.08731150      -0.01535269      -0.00662472      -0.04950900       0.08205161
C       -4.27381899       1.81651946       1.07666150     -59.25036369      -0.00219774       0.01038658       0.00388854       0.06039207
C       -0.43752911      -0.78449018      -0.62587101     -58.80835114      -0.10776969      -0.15382158      -0.18116754       0.17731515
C       -0.29781368       0.50896355      -1.47641961     -59.29994014      -0.01971693      -0.02080005      -0.05931414       0.06038348
H       -3.42051121      -0.61460058       1.07682464     -12.99026901      -0.00644966       0.00494724       0.01485469       0.04459801
H       -2.41820842       2.04858265       0.00408778     -13.13428314       0.00034817      -0.00046407       0.00220248       0.03521116
H       -0.86281790      -0.19771697       1.45936311     -12.88348471       0.07495988       0.06528317      -0.11581122       0.06819116
H       -4.83865099       1.71143376       0.14596324     -13.15690480      -0.00672250       0.00995737       0.00700643       0.04707117
H       -4.69922180       1.14705608       1.82880798     -12.99929107      -0.00080674       0.01466976       0.00836353       0.06110608
H       -2.80314544      -0.88192019      -1.33275859     -11.32442447      -0.04571165       0.03426916      -0.01531245       0.32719779
H       -2.59402110       2.26381187       2.55743095     -11.22503445       0.00677145       0.01502893      -0.00855711       0.32429001
H       -1.24010871       1.05959039      -1.40573447     -13.14974754      -0.02782015      -0.03306515      -0.05455772       0.04163149
H       -0.19553320       0.15909951      -2.50787683     -13.04247947       0.03490978       0.06655312      -0.10080650       0.05293203
H       -1.66292338      -2.56419325       0.27766942     -11.41964003      -0.06831382      -0.04713580       0.11902843       0.31308354
H        0.71491983       1.81169132      -0.40007539     -11.38031044      -0.08113931      -0.04619673       0.08081154       0.32482506
H       -4.14693271       3.75846321       0.94562179     -11.53961826       0.00210119       0.00933627      -0.00479289       0.29556059
O        3.46554432      -0.68803283      -2.42100010    -112.40685421       0.04499567       0.01048637      -0.02344971      -0.35308948
O        1.59746563      -1.89366087      -2.58773751    -112.55646829       0.06408570      -0.01972909      -0.11790747      -0.43761450
O        5.38975757      -1.93480505      -0.36832171    -112.24552737      -0.02718364      -0.00290961      -0.02590548      -0.41750037
N        0.78487400      -1.40518611      -0.13026158     -80.76777213      -0.06118059      -0.19820550      -0.16620836      -0.28300771
N        4.89887673      -0.06204019       0.76620774     -80.83333719      -0.03409183      -0.01048480      -0.01870840      -0.26716655
C        2.11990294      -0.93785278      -0.46218149     -59.01316380      -0.04413053      -0.07692934      -0.06760061       0.02342444
C        3.13178271      -1.68949743       0.42925397     -59.31993700      -0.03041405      -0.02236582      -0.03046268      -0.10236303
C        2.36730432      -1.22854608      -1.93393058     -58.84549538       0.03735346      -0.02719105      -0.07307305       0.36183812
C        4.57779039      -1.25338855       0.21198979     -59.15105474      -0.03205784      -0.00685084      -0.02695850       0.28860998
H        2.23547158       0.13602072      -0.30067763     -12.75517919      -0.13082084      -0.06243369      -0.02005474       0.09021383
H        2.85443294      -1.52800241       1.47201846     -12.99431541      -0.03988465       0.00288333      -0.03565474       0.07004055
H        3.07122917      -2.75738177       0.21798512     -13.00680894      -0.00240352      -0.03264222      -0.00054198       0.07316329
H        0.69697059      -2.35915203      -0.48798566     -12.18615474       0.35029493      -0.01848228       0.50051310       0.18093510
H       -0.60758101      -2.09691064      -2.17754675     -11.44746299       0.31914298       0.32509448       0.13223795       0.31724116
H        4.22542788       0.53362499       1.21224352     -12.25781031      -0.03561357      -0.00511858      -0.02750161       0.18516683
H        5.83261491       0.29088792       0.63275049     -12.14592930      -0.03380718      -0.01031636      -0.01929099       0.19761797
H        3.58169711      -0.93349685      -3.35295343     -10.87127373       0.07349407       0.03770715      -0.02940925       0.34142728
O        0.66622735       2.12423825       1.35997156    -114.76156380      -0.03016665      -0.01084386       0.02493556      -0.59133314
H        0.99701120       1.31317305       1.75286477     -11.79107134      -0.00436802       0.00704264       0.03869242       0.28759761
H       -0.27200168       2.16815874       1.60478766     -11.56142449      -0.03331655      -0.03775421       0.02205108       0.31761962
44
Properties=species:S:1:pos:R:3:energies:R:1:forces:R:3:charge:R:1 product=T mapped+aligned=T onto=T reactant=T energy=-2153.510465335246 free_energy=-2153.510465335246 dipole="-0.2190914573836756 0.5210739502854105 0.1606725762645231" pbc="F F F"
O       -3.23857660      -0.11899297      -0.92144803    -113.26970027      -0.01001803      -0.00073512      -0.00552598      -0.46628825
O       -2.06528386       1.68373110       1.99056149    -113.47206502      -0.00961178      -0.00976515       0.00178472      -0.46603928
O       -1.53288439      -2.00703604       1.10171450    -112.97359897       0.00418754       0.01341193       0.01673289      -0.44296985
O       -4.35964828       3.12210489       1.61448413    -113.09548677       0.00562020       0.00626145      -0.00441630      -0.43930746
O       -1.07010620      -1.74893942      -1.47608790    -113.51448109       0.03586712      -0.00200202      -0.01377923      -0.48921095
O        0.75470340       1.39287699      -1.18170989    -113.28675834      -0.01647415       0.01454165       0.04174319      -0.47066979
C       -2.75310758      -0.05106742       0.39779952     -59.11884620      -0.00424631      -0.00021861      -0.00745223       0.08776650
C       -2.81983970       1.43044112       0.82074400     -58.99545093      -0.00417048      -0.00103371      -0.00400037       0.09159516
C       -1.36329385      -0.69870473       0.61022231     -59.08324622      -0.00103351       0.00503884      -0.01087171       0.07973667
C       -4.28128530       1.82501132       1.06917584     -59.24551323      -0.00258015       0.00515414      -0.00385046       0.06034428
C       -0.42766687      -0.78776670      -0.63442612     -58.93816971       0.00458172      -0.00394997      -0.00572005       0.17769838
C       -0.28464894       0.51090918      -1.47664847     -59.31349351       0.00707351      -0.00075956      -0.00060386       0.06044800
H       -3.42563280      -0.61665038       1.06609621     -12.98654926      -0.00039790      -0.00054611      -0.00348721       0.04499413
H       -2.41839845       2.04920049       0.00291992     -13.13134302       0.00146396       0.00072068       0.00001883       0.03592141
H       -0.85293842      -0.16107768       1.41090227     -12.85437027       0.00769409       0.02111738      -0.02703401       0.06987527
H       -4.85266480       1.72383985       0.14253940     -13.15919377      -0.00522956       0.00766934      -0.00225942       0.04716254
H       -4.70784056       1.16236251       1.82676845     -12.99041324      -0.00392925       0.00833026      -0.00176565       0.06194517
H       -2.81668886      -0.87530718      -1.35749245     -11.32689393      -0.01003937       0.00348981      -0.01170469       0.32573691
H       -2.59869050       2.28333644       2.53619798     -11.20597619      -0.00125813       0.00951760      -0.00964243       0.32545914
H       -1.25228049       1.02391000      -1.46018976     -13.15874283      -0.00569887      -0.01970780      -0.02639529       0.04003267
H       -0.10922083       0.18792627      -2.50908677     -13.07608666       0.04319479       0.01365373      -0.00155989       0.05029897
H       -1.72368561      -2.56998109       0.33766083     -11.44757094      -0.03130639      -0.00297634       0.03609582       0.30994997
H        0.63820402       1.78607344      -0.29159838     -11.37631509      -0.03749096      -0.01450367       0.05408691       0.32577078
H       -4.14101129       3.76679541       0.93223036     -11.53370637       0.00287311       0.00528792      -0.00625292       0.29586469
O        3.47777554      -0.72061267      -2.44674790    -112.41390093       0.00839728      -0.01401315      -0.01192467      -0.35525629
O        1.59842678      -1.90985518      -2.65099561    -112.54188577       0.00486957      -0.00699676      -0.03491199      -0.43412072
O        5.39098902      -1.94499082      -0.40225185    -112.24512422      -0.00022124      -0.00230005      -0.01567065      -0.41737132
N        0.80071449      -1.34563957      -0.09122970     -80.70765681       0.00725966       0.02480954       0.01623279      -0.27982440
N        4.88022012      -0.07212685       0.72811725     -80.84268977      -0.01270840      -0.00301676      -0.01783016      -0.26762481
C        2.12679044      -0.95386476      -0.50859301     -59.05211466       0.00248411      -0.01035941      -0.02436562       0.02282411
C        3.13074105      -1.70573046       0.38651550     -59.31914927      -0.00165015      -0.00828241      -0.02069425      -0.10161245
C        2.36707367      -1.26137112      -1.97990010     -58.84122088       0.00137502      -0.01685842      -0.02494335       0.36016371
C        4.57370899      -1.26668733       0.17370636     -59.14833362      -0.00363497      -0.00517278      -0.01812507       0.28919657
H        2.24972467       0.12434406      -0.37640326     -12.69561832       0.00262905      -0.00803398      -0.03770621       0.09358012
H        2.84323496      -1.53682052       1.42558967     -12.99087407      -0.00820755      -0.00337219      -0.02315246       0.06985773
H        3.07133584      -2.77562261       0.18050680     -13.03287505       0.00041223      -0.00964000      -0.01659824       0.07058285
H        0.71606192      -2.35549129      -0.14289066     -12.33191436       0.00984415      -0.00434474       0.16803417       0.17228465
H       -0.43600650      -2.02481913      -2.15831079     -11.39204378       0.08386623       0.03743504       0.00731327       0.32369167
H        4.19174623       0.52188669       1.15341166     -12.24393862      -0.02124312      -0.00437184      -0.02915364       0.18623382
H        5.80822031       0.29356522       0.59248884     -12.14792945      -0.01614697       0.00461534      -0.01930322       0.19745424
H        3.61827084      -0.94689326      -3.38020392     -10.89530060       0.02149479      -0.00306773      -0.01288812       0.34009448
O        0.62395021       2.11884035       1.43793077    -114.76691876      -0.02062089      -0.00494809       0.03799938      -0.59240521
H        0.98991171       1.32806090       1.84015449     -11.79088245      -0.00389249       0.00420181       0.04156373       0.28759499
H       -0.32040154       2.12083097       1.66777807     -11.55612209      -0.02337752      -0.02428009       0.03198365       0.31854118
44
Properties=species:S:1:pos:R:3:energies:R:1:forces:R:3:charge:R:1 product=T mapped+aligned=T onto=T reactant=T energy=-2153.5190597308692 free_energy=-2153.5190597308692 dipole="-0.24197413335756388 0.5138568023394132 0.14376272390966835" pbc="F F F"
O       -3.20056098      -0.16250220      -0.94004759    -113.27618534      -0.06013479       0.01659526       0.01887620      -0.46781488
O       -2.10803016       1.70523418       1.95892596    -113.47387626      -0.00608842       0.00018740       0.00805359      -0.46683288
O       -1.48821894      -1.95965410       1.18086077    -112.96677104       0.00204236       0.00543650      -0.00851533      -0.44105416
O       -4.38736971       3.11546490       1.58556388    -113.09900288      -0.00836422       0.00287380      -0.00963453      -0.43922059
O       -1.04000600      -1.73974719      -1.43147692    -113.51668159      -0.06891384       0.12238616      -0.07488493      -0.49064045
O        0.74791655       1.44063623      -1.11620493    -113.28114907       0.00331446      -0.04589761       0.05177878      -0.47041153
C       -2.75543557      -0.05946716       0.39012646     -59.12449759      -0.00825538       0.00254982       0.00362982       0.08865111
C       -2.85549422       1.42651688       0.79022000     -58.99556285      -0.00045986       0.00141433       0.00511743       0.09201034
C       -1.35237250      -0.66559278       0.64551533     -59.08417423      -0.00032916      -0.00278358      -0.03721257       0.07976026
C       -4.31801179       1.81616862       1.04172668     -59.23759273      -0.00243046       0.00141004      -0.00560860       0.06027163
C       -0.41408346      -0.75546188      -0.59773038     -58.92432205      -0.02631950      -0.04889824      -0.05685408       0.17768501
C       -0.27192577       0.54315133      -1.43639906     -59.32545304       0.01204401      -0.02343879      -0.02228580       0.06039809
H       -3.43361156      -0.62948448       1.04839304     -13.00433574       0.00847578       0.00154344       0.02118914       0.04356092
H       -2.46287104       2.04058744      -0.03571399     -13.13068235       0.00482788      -0.00293818       0.00405323       0.03586548
H       -0.87256618      -0.09064665       1.43887701     -12.83084310       0.05353476       0.00825847      -0.07825553       0.07220526
H       -4.89751553       1.71726010       0.12019080     -13.17183809       0.00400706      -0.00244588      -0.00932583       0.04617677
H       -4.74000853       1.15747010       1.80497842     -12.98316844      -0.00653512       0.00199173      -0.00733516       0.06297233
H       -2.77671220      -0.94277266      -1.33310157     -11.31919988      -0.02282562       0.05968341      -0.02910658       0.32689431
H       -2.63499463       2.34052208       2.47105640     -11.19438736      -0.00655857       0.00492450       0.00125153       0.32640809
H       -1.24772317       1.04091514      -1.45045479     -13.15491262       0.00957220      -0.02624827      -0.02624334       0.04094298
H       -0.05898880       0.21742225      -2.46030986     -13.08474373       0.02774746       0.03268630      -0.04142299       0.04929200
H       -1.66446368      -2.55747272       0.44147989     -11.45630654      -0.04447483      -0.00455833       0.00927152       0.30857368
H        0.62134944       1.82180799      -0.22193340     -11.38482281      -0.04998281      -0.05570721       0.04862845       0.32570242
H       -4.16034125       3.75792014       0.90362390     -11.52906256      -0.00552309       0.00027234      -0.01106156       0.29603452
O        3.49830279      -0.72812684      -2.44314644    -112.42320336      -0.00149484      -0.02041743      -0.01610257      -0.35662365
O        1.61087669      -1.90255095      -2.67871974    -112.54099088      -0.02297518       0.00651534      -0.00605499      -0.43290056
O        5.39825824      -1.98973033      -0.44728832    -112.25164769       0.00180797      -0.00212528      -0.00607997      -0.41772660
N        0.81506219      -1.32322928      -0.07453464     -80.73679020       0.00231240       0.00229803      -0.00876763      -0.28063430
N        4.87978154      -0.11363656       0.67826915     -80.84583248      -0.00256074       0.00319042      -0.01621191      -0.26794631
C        2.13731602      -0.95604593      -0.52291082     -59.04472050      -0.00106485      -0.00724446      -0.01188413       0.02362647
C        3.13757591      -1.74620656       0.34323282     -59.31189599       0.00149699      -0.00146887      -0.01141205      -0.10187090
C        2.37414187      -1.26049122      -1.99607705     -58.84073848      -0.00706842      -0.00826024      -0.01452034       0.35937212
C        4.58040987      -1.31181980       0.12821546     -59.14736832       0.00192747       0.00105565      -0.01226350       0.28953517
H        2.28922648       0.11860725      -0.38849497     -12.71516018      -0.03619976      -0.00627964      -0.00386981       0.09212755
H        2.85846869      -1.60207385       1.38796526     -12.96859522       0.00252757      -0.00311613      -0.01048751       0.07204075
H        3.06002619      -2.80886793       0.10771869     -13.03986794       0.01507939      -0.00406498      -0.01087467       0.07016378
H        0.68573506      -2.32567542      -0.17032891     -12.27839351       0.21802322      -0.07684150       0.27684099       0.17491961
H       -0.42269713      -1.98063525      -2.14326052     -11.40613396       0.07258615       0.05534706       0.05469969       0.32235788
H        4.18176773       0.47471254       1.09605149     -12.23751191      -0.00622820       0.00368486      -0.02332744       0.18670771
H        5.80045806       0.26568075       0.53301562     -12.15299750      -0.00207473       0.00274923      -0.01326868       0.19713637
H        3.66701497      -0.96311184      -3.36956167     -10.90096014      -0.00672489      -0.00660086      -0.02070325       0.33989673
O        0.59430875       2.12490729       1.51195019    -114.76437471      -0.01131401       0.00786814       0.03929690      -0.59354234
H        0.98190007       1.35448789       1.93276961     -11.79755416      -0.01224081       0.00464510       0.03419368       0.28746943
H       -0.35589233       2.09552849       1.71697081     -11.56475074      -0.01418502      -0.00023185       0.02669434       0.31846037
44
Properties=species:S:1:pos:R:3:energies:R:1:forces:R:3:charge:R:1 product=T mapped+aligned=T onto=T reactant=T energy=-2152.9574179583215 free_energy=-2152.9574179583215 dipole="-0.3373904305169284 0.6020687196989337 0.09758203008732096" pbc="F F F"
O       -3.14614240      -0.18263890      -0.95633323    -113.27933865      -0.09200262       0.02474649       0.03239436      -0.46701984
O       -2.11049264       1.70885740       1.94822080    -113.47956653      -0.00692466       0.01007278       0.00369806      -0.46739769
O       -1.48333030      -1.95673620       1.19683185    -112.94638919      -0.03294057       0.00344800       0.03480136      -0.44004274
O       -4.38809169       3.11093015       1.58406626    -113.09822566      -0.01787601       0.00381931      -0.01034547      -0.43878669
O       -0.98977307      -1.84122263      -1.35415360    -113.56729107      -0.58704542       1.42050031      -0.03731229      -0.51510892
O        0.74957502       1.48383263      -1.14100638    -113.26156639      -0.02675799      -0.24479306       0.11606777      -0.46858086
C       -2.74734737      -0.06176076       0.38683379     -59.11873490      -0.03477845       0.00459532       0.01788262       0.08809098
C       -2.85912278       1.42555104       0.78071169     -59.00281913      -0.00510026       0.00217425       0.00776919       0.09168465
C       -1.34902301      -0.65597098       0.68450395     -59.11432420      -0.02759536      -0.02105229      -0.08079024       0.08255637
C       -4.32116540       1.81282802       1.03710346     -59.23962908      -0.00638191       0.00134540      -0.00643475       0.06018395
C       -0.38956371      -0.70889560      -0.54201694     -58.63016230      -0.60379515      -0.73187248      -0.74985856       0.17151460
C       -0.27459109       0.56741162      -1.40979763     -59.36518641      -0.05191794      -0.14158888      -0.12219183       0.06118372
H       -3.43902934      -0.63261957       1.02906322     -13.00819046      -0.01828534       0.00384511       0.02875626       0.04330736
H       -2.46992314       2.04207982      -0.04477083     -13.12428378      -0.00144515      -0.01143118      -0.00287193       0.03656032
H       -0.91998777      -0.08628511       1.51274265     -12.79397912       0.15722981      -0.00295420      -0.20297384       0.07571659
H       -4.90402043       1.71646605       0.11745735     -13.17890018       0.00041187      -0.00396912      -0.01059771       0.04537377
H       -4.74008442       1.15290925       1.80096626     -12.97782760      -0.00941628      -0.00035882      -0.00989125       0.06345640
H       -2.74555980      -0.99597654      -1.30696641     -11.33111803       0.00236171       0.07148878      -0.01693891       0.32458010
H       -2.63940215       2.34112979       2.46223741     -11.18785768      -0.01187533       0.00978698      -0.00289899       0.32670697
H       -1.24800240       1.06685587      -1.42728090     -13.12752959      -0.00554572      -0.04343009      -0.04453477       0.04448794
H       -0.06658633       0.19995192      -2.41747234     -13.04417944      -0.00007864       0.08803835      -0.18672722       0.05319107
H       -1.62074858      -2.54583456       0.44207013     -11.41058406      -0.03440104      -0.01775546       0.05251076       0.31357332
H        0.65951175       1.87407605      -0.24589384     -11.39275232      -0.09999538      -0.10139074       0.05117498       0.32545591
H       -4.16457558       3.75579952       0.90317942     -11.52262755      -0.00560928      -0.00234653      -0.01178582       0.29628655
O        3.50118183      -0.71326585      -2.43231025    -112.43443236       0.00314786      -0.01953056      -0.02377157      -0.35857941
O        1.62850914      -1.90607544      -2.67694514    -112.52334336      -0.03844482       0.00274441       0.00471399      -0.43210988
O        5.40011066      -1.99533086      -0.44635055    -112.25414628       0.00141177      -0.00411382      -0.00781894      -0.41839091
N        0.81576702      -1.32398822      -0.06874810     -80.81142889      -0.06360785      -0.47241192      -0.20721482      -0.29023759
N        4.88166848      -0.12033760       0.68013316     -80.84078036      -0.00491190       0.00080537      -0.02125116      -0.26854463
C        2.14011764      -0.95067220      -0.51788583     -59.02653448      -0.04164780      -0.11173431      -0.01699556       0.02596958
C        3.13818328      -1.75089175       0.34282301     -59.31285244       0.00283246      -0.01821501      -0.00332331      -0.10245215
C        2.37864398      -1.25498641      -1.98963996     -58.85735806       0.01193809      -0.01694351      -0.02707003       0.35930615
C        4.58118686      -1.31915089       0.12990541     -59.15027304       0.00343369      -0.00023744      -0.01385621       0.28945457
H        2.32646401       0.12260216      -0.39174014     -12.77027500      -0.22136833      -0.09248710       0.07045031       0.08708746
H        2.85835464      -1.61051553       1.38746003     -12.95146637       0.00016857      -0.01002583      -0.00589383       0.07364000
H        3.04833096      -2.80988012       0.10036228     -13.01549121       0.03063257      -0.02273034       0.00052530       0.07297924
H        0.50157408      -2.25803796      -0.40469056     -11.78460320       1.68973809      -0.01343017       1.00616801       0.20849589
H       -0.49556527      -2.04095107      -2.17138723     -11.56083526       0.17428644       0.44081298       0.37497516       0.31295445
H        4.18469117       0.46862695       1.09887800     -12.25162630      -0.00562989      -0.00301004      -0.01875146       0.18566996
H        5.80175568       0.25969614       0.53288485     -12.16453711      -0.00128046      -0.00277254      -0.01062954       0.19637657
H        3.67808822      -0.95930355      -3.35413390     -10.91213321       0.00659965       0.00393199      -0.02791460       0.33945893
O        0.60068901       2.12124149       1.50219843    -114.76858292      -0.00240587       0.02025734       0.04341870      -0.59382670
H        0.98664276       1.35373968       1.92994329     -11.79466871      -0.01556958       0.00129989       0.02225851       0.28787630
H       -0.34891553       2.09674079       1.70894913     -11.56898611      -0.00955758      -0.00312763       0.01307925       0.31789833
44
Properties=species:S:1:pos:R:3:energies:R:1:forces:R:3:charge:R:1 product=T mapped+aligned=T onto=T reactant=T energy=-2150.95870069155 free_energy=-2150.95870069155 dipole="-0.5018654705149778 0.7676177965623745 0.16858055795035312" pbc="F F F"
O       -3.12615152      -0.18762216      -0.96221450    -113.26007611       0.01278320      -0.00461306      -0.00210806      -0.45912132
O       -2.11099232       1.70896395       1.94696736    -113.51304296      -0.00928810       0.00873004      -0.00278284      -0.46818274
O       -1.47608208      -1.95482886       1.19503983    -112.94053564       0.00638486       0.00969603       0.01737152      -0.43616681
O       -4.38706308       3.10986945       1.58365836    -113.10717639      -0.01152508      -0.00254319      -0.01187903      -0.43822101
O       -0.87619241      -2.11547409      -1.34656094    -114.20819125       0.01085560      -0.00746470       0.00196469      -0.61710422
O        0.75522025       1.53043425      -1.15851285    -113.18634970       0.00505386       0.00032375       0.02622879      -0.46490086
C       -2.73984701      -0.06218943       0.38411049     -59.10077115       0.00311381       0.00116753       0.00031658       0.08790424
C       -2.85896623       1.42573135       0.77846400     -58.99249146      -0.00378054       0.00215543      -0.00467817       0.09147306
C       -1.34282262      -0.65054861       0.70242566     -59.19076158       0.00296066       0.00500138       0.00466955       0.08792706
C       -4.32129820       1.81219901       1.03618852     -59.24329914      -0.00623497      -0.00255618      -0.01084516       0.05998222
C       -0.27388427      -0.56928373      -0.39697966     -57.79146802       0.00266179       0.00659868       0.00597562       0.13243941
C       -0.26340045       0.59403731      -1.38475031     -59.36251809       0.00630720       0.00301944       0.00589291       0.06585752
H       -3.43463138      -0.63318600       1.02402735     -12.98930261       0.00358380       0.00034426       0.00033048       0.04559735
H       -2.47049318       2.04399748      -0.04566835     -13.11089365      -0.00358030      -0.00031673      -0.00657774       0.03795037
H       -0.95022114      -0.08294915       1.55381944     -12.58167835       0.00604938       0.01337896      -0.00365692       0.08885734
H       -4.90484566       1.71651420       0.11696118     -13.17493738      -0.00327623      -0.00409203      -0.01240923       0.04563823
H       -4.73988995       1.15239519       1.80040105     -12.96948250      -0.00792371      -0.00309288      -0.01229364       0.06414140
H       -2.74236122      -1.00931765      -1.30344553     -11.31520204       0.02140480      -0.00333907       0.00378701       0.32278491
H       -2.63989080       2.34104714       2.46154060     -11.16644990      -0.01391311       0.00838910      -0.00697586       0.32764299
H       -1.24517692       1.07534981      -1.41852161     -13.12384593       0.00568510       0.00088571       0.00246035       0.04582459
H       -0.06324811       0.18263993      -2.37978872     -12.95242111       0.01925455       0.00099195       0.00814595       0.06476741
H       -1.61321965      -2.53978037       0.43703300     -11.31340954       0.00593587       0.00475904       0.02191768       0.32239466
H        0.67697687       1.89316145      -0.25110158     -11.39331983      -0.00647355       0.00047098       0.02589153       0.32519112
H       -4.16525236       3.75584354       0.90317917     -11.50764145      -0.00935998      -0.00227691      -0.01093751       0.29679487
O        3.50060211      -0.71016337      -2.42936003    -112.42807832      -0.00084765      -0.00520241      -0.00797519      -0.36092241
O        1.63373927      -1.90571404      -2.67672321    -112.44904066      -0.02039593      -0.00703890      -0.01697023      -0.42713979
O        5.40067940      -1.99567788      -0.44567339    -112.26010282       0.00736188      -0.00850243      -0.00667366      -0.41990341
N        0.82845220      -1.23497648      -0.03069438     -80.53418861       0.00059008       0.01093942       0.00221007      -0.31512079
N        4.88256137      -0.12104798       0.68120441     -80.83068407      -0.00003825      -0.00396201      -0.01568821      -0.26940514
C        2.14831769      -0.92937346      -0.51564230     -59.02730999      -0.00025004      -0.00449565      -0.00660506       0.02938383
C        3.13773716      -1.74841258       0.34149750     -59.29115196      -0.00016734      -0.00746478      -0.01101053      -0.10115288
C        2.37532172      -1.25203739      -1.98570605     -58.89048803       0.01065970       0.00975703       0.00596140       0.35954651
C        4.58093068      -1.32035710       0.13059387     -59.16087667      -0.00148470      -0.00314546      -0.00857735       0.28922356
H        2.36921679       0.13992428      -0.40576341     -12.87168675      -0.00320208      -0.00701358      -0.00261698       0.07246385
H        2.85808234      -1.61059446       1.38682976     -12.97876261       0.00169958      -0.01142812      -0.00910104       0.07110730
H        3.04245313      -2.80612543       0.09637937     -13.01426645       0.00134019      -0.00589236      -0.01938406       0.07374688
H        0.17813328      -2.25542753      -0.60264816     -10.19747241      -0.00066368      -0.00508614       0.02183055       0.35138266
H       -0.52771134      -2.12415598      -2.24404253     -11.98714381      -0.01324893       0.01549585      -0.00740179       0.28891479
H        4.18524406       0.46841468       1.09872601     -12.27756007      -0.00248341      -0.00351868      -0.01969179       0.18398813
H        5.80213507       0.25954347       0.53286823     -12.18813610       0.00075858      -0.00270845      -0.01172946       0.19488572
H        3.67803847      -0.96122232      -3.34994203     -10.94476163       0.00329756      -0.00664308      -0.00718324       0.33786348
O        0.60015708       2.11808170       1.49950675    -114.77298077      -0.00530192       0.00251763       0.02755336      -0.59365779
H        0.98815656       1.35448886       1.93225163     -11.79581451      -0.00724703       0.00499284       0.03383261       0.28784505
H       -0.34851155       2.09782699       1.71006802     -11.56292866      -0.00705553       0.00278177       0.01941212       0.31747866
44
Properties=species:S:1:pos:R:3:energies:R:1:forces:R:3:charge:R:1 product=T mapped+aligned=T onto=T reactant=T energy=-2151.7338899153515 free_energy=-2151.7338899153515 dipole="-0.47847193950515027 0.7443254285200815 0.128260318191646" pbc="F F F"
O       -3.12385950      -0.18732384      -0.96306021    -113.26445655       0.04617389      -0.00189991      -0.01333929      -0.45791160
O       -2.11111262       1.70963784       1.94716149    -113.50186077      -0.01077474       0.01629801      -0.00109484      -0.46806913
O       -1.47168907      -1.95383972       1.19193296    -112.94058867       0.05536132       0.01939109      -0.01325287      -0.43651020
O       -4.38718861       3.10977167       1.58358809    -113.10708113      -0.01269617      -0.00408407      -0.01318086      -0.43854176
O       -0.83183366      -2.22621062      -1.34339799    -114.55598194       0.46277870      -1.19376603       0.02865469      -0.60428658
O        0.75776050       1.54145130      -1.16534329    -113.19297174       0.03101535       0.12855431      -0.04902417      -0.46877264
C       -2.73572590      -0.06182165       0.38372447     -59.09598076       0.04880558       0.00495298      -0.00437226       0.08786496
C       -2.85859967       1.42595596       0.77833731     -58.98631680       0.00036116       0.00486773      -0.00687979       0.09210818
C       -1.33794195      -0.64511074       0.70944439     -59.21251145       0.05549133       0.06193425       0.08291925       0.08557394
C       -4.32106459       1.81194950       1.03607566     -59.24320840      -0.00371708      -0.00558381      -0.01271793       0.06000374
C       -0.21711782      -0.50070471      -0.32753136     -57.79863176       0.59731856       0.72968359       0.73697985       0.10844200
C       -0.26033726       0.59676623      -1.38101198     -59.34024619       0.04023851       0.03834116       0.05176890       0.06297801
H       -3.43180932      -0.63306569       1.02315653     -13.00161835       0.03565511       0.00111694      -0.00988182       0.04461629
H       -2.47041214       2.04440278      -0.04566558     -13.10888128      -0.00314088       0.00537092      -0.00699884       0.03821708
H       -0.96059898      -0.08276489       1.56925348     -12.55940022      -0.11370016       0.01498188       0.16980531       0.08944057
H       -4.90479639       1.71645448       0.11692508     -13.17964831      -0.00321186      -0.00482423      -0.01302596       0.04515118
H       -4.73974267       1.15229939       1.80040093     -12.97383256      -0.00652940      -0.00418619      -0.01290371       0.06378878
H       -2.74490966      -1.00953963      -1.30364817     -11.30649713      -0.00533458      -0.01230430       0.00239255       0.32144382
H       -2.64012474       2.34144927       2.46165027     -11.17849955      -0.01680290       0.01279559      -0.00595572       0.32707295
H       -1.24376923       1.07423226      -1.41728715     -13.16679190       0.01989138      -0.00887585       0.02053799       0.04304567
H       -0.06365395       0.17648636      -2.37373912     -13.03841972       0.01843444      -0.07145578       0.08458796       0.05855320
H       -1.61473199      -2.54006135       0.43664609     -11.33639193      -0.00686515       0.00589347       0.01602820       0.31990820
H        0.67901878       1.89503849      -0.25452753     -11.44400383       0.02345225       0.02986978      -0.01177391       0.32252166
H       -4.16508450       3.75575303       0.90321261     -11.51250710      -0.00814463      -0.00322417      -0.01087980       0.29661882
O        3.49790228      -0.71121377      -2.42695145    -112.41269251      -0.02724399      -0.01235008       0.01737074      -0.35932798
O        1.63107148      -1.90511596      -2.67456565    -112.45703872      -0.04191986       0.00831263       0.01606578      -0.42627793
O        5.40074451      -1.99593110      -0.44593390    -112.26280821       0.00790250      -0.00921604      -0.00742197      -0.42031370
N        0.84588637      -1.14249972       0.01908471     -80.33517632       0.18156630       0.96356618       0.50552070      -0.30149202
N        4.88254318      -0.12114799       0.68103343     -80.82917787       0.00152444      -0.00403992      -0.01660706      -0.26947966
C        2.15510986      -0.91619221      -0.51293565     -58.97938350       0.07138595       0.13327770       0.02105734       0.03351829
C        3.13798127      -1.74779517       0.34110184     -59.27173063       0.00237479       0.00018985      -0.01442692      -0.10047749
C        2.37047117      -1.24905044      -1.98351888     -58.88678520      -0.04418314       0.03618356       0.02357028       0.36255956
C        4.58127567      -1.32075369       0.13104517     -59.16909405       0.00563436      -0.00891213      -0.00421233       0.28863516
H        2.38807470       0.14926925      -0.41239817     -12.82333900       0.20316323       0.08999084      -0.07372121       0.07494976
H        2.85773978      -1.61081513       1.38645150     -12.96715253      -0.00077448      -0.01298722      -0.01186127       0.07252074
H        3.04166451      -2.80544925       0.09529145     -13.02613769      -0.01019104       0.00390781      -0.03383936       0.07305224
H        0.01850495      -2.32738383      -0.74263989     -10.98967658      -1.69619535      -0.73604086      -1.45777950       0.34629095
H       -0.51401993      -2.14293667      -2.24800378     -11.73793187       0.12833777      -0.19753885      -0.04857969       0.30415104
H        4.18534319       0.46824269       1.09896894     -12.28223435      -0.00067503      -0.00560029      -0.01683584       0.18392839
H        5.80212802       0.25942445       0.53291297     -12.18872915       0.00224012      -0.00241414      -0.01082316       0.19495284
H        3.67701864      -0.96209887      -3.34773985     -10.92942580      -0.00825854      -0.01804715       0.01737389       0.33873016
O        0.60042962       2.11810431       1.49991218    -114.74927979      -0.00302064       0.00059310       0.02908688      -0.59375264
H        0.98792803       1.35436557       1.93269616     -11.82142062      -0.00912780       0.00426782       0.03932874       0.28683706
H       -0.34847038       2.09776985       1.70989393     -11.56834749      -0.00659962       0.00300986       0.01834106       0.31773806
44
Properties=species:S:1:pos:R:3:energies:R:1:forces:R:3:charge:R:1 product=T mapped+aligned=T onto=T reactant=T energy=-2152.4434462965073 free_energy=-2152.4434462965073 dipole="-0.3893656907625651 0.7825124103263195 0.18097164755360964" pbc="F F F"
O       -3.09876826      -0.18525955      -0.96171210    -113.26295268       0.06039998      -0.00132526       0.00080661      -0.45792688
O       -2.11196849       1.71884354       1.94949991    -113.50389187      -0.01121105       0.02348033       0.00086631      -0.46849576
O       -1.44769679      -1.95583992       1.17640614    -112.95446585       0.05572819       0.00834851      -0.01571596      -0.43793437
O       -4.38954527       3.10941401       1.58271722    -113.10769985      -0.01487623      -0.00372588      -0.01305256      -0.43865898
O       -0.89610360      -2.38723748      -1.45091027    -114.75188090      -0.12853949      -0.33441815      -0.20147575      -0.60811345
O        0.76073441       1.57709360      -1.19668167    -113.21455857       0.01216818       0.08148114      -0.03596118      -0.46998682
C       -2.72365504      -0.05822590       0.38862406     -59.09811058       0.02802959       0.00824735       0.00885174       0.08860720
C       -2.85664293       1.42974824       0.77987249     -58.98261780      -0.00059316       0.00841718      -0.00268062       0.09229393
C       -1.32788011      -0.62816330       0.74030712     -59.24302301       0.02513993       0.04311503       0.06851970       0.08421578
C       -4.32048919       1.81142324       1.03560302     -59.24371375      -0.00532618      -0.00408736      -0.01199701       0.05996628
C       -0.17751978      -0.41912394      -0.24846592     -57.99585038       0.08189993       0.16572552       0.16060524       0.09276866
C       -0.25248303       0.61212563      -1.36056619     -59.32650768       0.02674537       0.03879085       0.04865165       0.06119034
H       -3.42337982      -0.63225571       1.02147873     -13.01852545       0.02158189       0.00018464      -0.00640025       0.04282321
H       -2.47004275       2.04799140      -0.04486554     -13.10103947      -0.00310449       0.00628844      -0.00500912       0.03910164
H       -1.00367063      -0.09247168       1.63878364     -12.54246098      -0.08463887      -0.00395545       0.14360404       0.09126548
H       -4.90347293       1.71496698       0.11611239     -13.18036787      -0.00107019      -0.00668324      -0.01449706       0.04512806
H       -4.73888928       1.15151560       1.79985961     -12.97611658      -0.00538488      -0.00583260      -0.01340763       0.06360215
H       -2.74476347      -1.02101900      -1.29750571     -11.30338039       0.02073007      -0.02527113       0.01308388       0.32241996
H       -2.64402096       2.34944970       2.46213433     -11.18277065      -0.02045262       0.02142092      -0.00674044       0.32682636
H       -1.23989049       1.07844771      -1.40959534     -13.16355172       0.02094496       0.01736721       0.01517792       0.04417128
H       -0.06438404       0.14114101      -2.33203268     -13.05444447       0.01791332      -0.05156087       0.08747492       0.05796340
H       -1.61839861      -2.52445256       0.41356220     -11.35864939      -0.00336748       0.04175770      -0.02857797       0.31867892
H        0.70215376       1.92710179      -0.28373263     -11.45892779       0.03977730       0.06800200      -0.03019359       0.32115955
H       -4.16532304       3.75536034       0.90295845     -11.51225577      -0.00994120      -0.00366089      -0.01150963       0.29667294
O        3.48634510      -0.70868882      -2.41997178    -112.40411679      -0.02614030       0.00128956       0.00982010      -0.35819174
O        1.61020484      -1.89155354      -2.64330950    -112.42636173      -0.04982985       0.02822393       0.06248836      -0.42193816
O        5.40532876      -1.99718294      -0.44423012    -112.26159225       0.01279877      -0.00936904      -0.00175288      -0.41924029
N        0.87429920      -1.04361849       0.08596528     -80.14919541       0.05947299       0.19592944       0.13008894      -0.25888246
N        4.88975858      -0.11947120       0.68127021     -80.83559200       0.01298910      -0.00033611      -0.01406813      -0.26973120
C        2.17162970      -0.87571178      -0.49412375     -58.96767199       0.03350226       0.07924667       0.03086062       0.03267025
C        3.14332634      -1.73837475       0.34307498     -59.26388461       0.01195395       0.01317478      -0.00829596      -0.10088580
C        2.35546758      -1.22970861      -1.96577990     -58.87080924      -0.03758595       0.03437951       0.02711132       0.36486760
C        4.58878742      -1.32031738       0.13432064     -59.16337078       0.01735784      -0.00586088      -0.00445962       0.28855581
H        2.45132676       0.18162105      -0.41909351     -12.77383618       0.13259217       0.06153343      -0.02359971       0.07956191
H        2.86475563      -1.61310338       1.39024185     -12.93518927       0.01331769      -0.01520184      -0.00438673       0.07536138
H        3.03437668      -2.79185085       0.08350549     -13.02572772      -0.01330250       0.02338772      -0.04301433       0.07351776
H       -0.12200230      -2.49762166      -0.87464985     -11.57106047      -0.27431563      -0.34246577      -0.25168933       0.31400938
H       -0.50928591      -2.19988738      -2.31178792     -11.73175338      -0.01168177      -0.13335595      -0.12513796       0.30457253
H        4.19282613       0.46643137       1.10472651     -12.27376274       0.01128575      -0.00638964      -0.00855451       0.18427189
H        5.80918377       0.26146355       0.53498774     -12.18218535       0.01307320      -0.00036057      -0.00806985       0.19536830
H        3.66444346      -0.97264224      -3.33736863     -10.90663724      -0.01931637      -0.02440450       0.01860291       0.33993898
O        0.60338640       2.11494171       1.49250026    -114.75436491       0.00156943      -0.00065760       0.01940065      -0.59483493
H        0.98721312       1.35443544       1.93403272     -11.83619284      -0.00911992       0.00402057       0.03672131       0.28577569
H       -0.34526892       2.10026417       1.70384007     -11.57237796      -0.00117373       0.00511028       0.00751157       0.31749421
44
Properties=species:S:1:pos:R:3:energies:R:1:forces:R:3:charge:R:1 product=T mapped+aligned=T onto=T reactant=T energy=-2152.667873204655 free_energy=-2152.667873204655 dipole="-0.36270047069956957 0.7698255055168267 0.1592369577536565" pbc="F F F"
O       -3.05896401      -0.18625245      -0.95130142    -113.26449545       0.02509000      -0.00601287       0.00341295      -0.45869665
O       -2.10964844       1.73895105       1.95460391    -113.49858223      -0.00759144       0.01395751      -0.00041436      -0.46851690
O       -1.43783332      -1.97832659       1.12222555    -112.96592541       0.01185643      -0.00269877      -0.01324042      -0.43976279
O       -4.39667484       3.10998634       1.58034228    -113.10514302      -0.01318028      -0.00252323      -0.01268342      -0.43852779
O       -0.99495168      -2.51080679      -1.58563997    -114.77322137      -0.05079273      -0.05917276      -0.04927610      -0.60318077
O        0.77744229       1.58913536      -1.24585388    -113.21306301       0.01086860       0.01828684      -0.00139269      -0.46866054
C       -2.70857184      -0.05167656       0.40522695     -59.09886443       0.00987220       0.00293464       0.00656899       0.08886507
C       -2.85137324       1.43732322       0.78669891     -58.98907210      -0.00080750       0.00387994      -0.00195427       0.09258277
C       -1.32022990      -0.62309817       0.77661315     -59.25995912       0.00759699       0.00791728       0.02024585       0.08432476
C       -4.31850096       1.81079160       1.03748657     -59.24258132      -0.00426152      -0.00319656      -0.00993049       0.05990798
C       -0.15542716      -0.37026869      -0.18477741     -58.09175544       0.01429797       0.02523998       0.03195746       0.08640976
C       -0.24469296       0.62169859      -1.33027912     -59.32282335       0.01163032       0.01333002       0.02137875       0.06056826
H       -3.41736893      -0.62580073       1.02751549     -13.03399292       0.00631816       0.00234820       0.00198865       0.04114894
H       -2.46925191       2.05313479      -0.04198697     -13.09834277      -0.00171460       0.00236210      -0.00350433       0.03924885
H       -1.04105520      -0.14126584       1.72121215     -12.58535363      -0.01498390      -0.01092650       0.03874637       0.08917877
H       -4.89827463       1.70863328       0.11642564     -13.18366009       0.00058160      -0.00736289      -0.01257751       0.04471684
H       -4.73569931       1.15072477       1.80219955     -12.97904688      -0.00494311      -0.00373537      -0.01081245       0.06339021
H       -2.72761977      -1.03782266      -1.27199131     -11.30608708       0.02170245      -0.01170172       0.01293235       0.32235350
H       -2.64430842       2.37367298       2.45975426     -11.18824722      -0.01162113       0.01750216      -0.00889080       0.32656431
H       -1.22755970       1.09562688      -1.38080147     -13.15625421       0.01183640       0.01217130       0.01490054       0.04493691
H       -0.08527608       0.09289691      -2.27621592     -13.03686936       0.00883267      -0.00716084       0.03162794       0.05931598
H       -1.60989808      -2.49108004       0.32085806     -11.37491887       0.00422312       0.01897499      -0.02674537       0.31771350
H        0.74673091       1.97929484      -0.34965572     -11.47085897       0.01639738       0.03061319      -0.00671409       0.31987102
H       -4.16987630       3.75461945       0.90015315     -11.51306095      -0.01196205      -0.00267080      -0.01244942       0.29663190
O        3.45000017      -0.69112840      -2.40999066    -112.40366579      -0.01508383       0.00212154       0.00170694      -0.35794593
O        1.57074669      -1.88290798      -2.55126478    -112.43997731      -0.02793506       0.01377671       0.03290399      -0.42328959
O        5.41565976      -1.99307390      -0.44020097    -112.26594202       0.00906483      -0.00535398      -0.00424990      -0.41937390
N        0.90003885      -0.97705516       0.15455220     -80.04623115       0.01411101       0.02707756       0.02937973      -0.24111738
N        4.92155034      -0.11130837       0.68955749     -80.83417021       0.01562138      -0.00043966      -0.00852759      -0.26971104
C        2.19037954      -0.82219536      -0.44560800     -58.96932322       0.00940089       0.02154817       0.01776051       0.03271892
C        3.16099838      -1.71341279       0.36280426     -59.25756474       0.01073981       0.00489699      -0.00188521      -0.10114880
C        2.33118472      -1.19896946      -1.91441077     -58.85951217      -0.01318029       0.01644539       0.01861601       0.36655983
C        4.60911048      -1.31023663       0.14530367     -59.16418539       0.01173630      -0.00084088      -0.00454631       0.28839751
H        2.50608928       0.22688202      -0.38517774     -12.78458323       0.02668680       0.01758654       0.01297780       0.07933495
H        2.89507565      -1.60900945       1.41528623     -12.91937506       0.01797964      -0.01099668       0.00154356       0.07692869
H        3.03214062      -2.75826866       0.07899382     -13.02788552       0.00206140       0.01031181      -0.01876541       0.07314917
H       -0.21325966      -2.70698056      -1.05449254     -11.65995210      -0.05019257      -0.09567479      -0.06479247       0.30668327
H       -0.62466518      -2.29057173      -2.44622262     -11.72484408      -0.05554904      -0.05347104      -0.05029156       0.30383632
H        4.23219954       0.47112900       1.12978565     -12.26964292       0.01795208      -0.00072590      -0.00423913       0.18454037
H        5.84304256       0.26408217       0.54301937     -12.18313275       0.01694522      -0.00339855      -0.00746912       0.19533188
H        3.61059835      -0.98658702      -3.32077389     -10.90723878      -0.02359872      -0.00944077       0.00376446       0.33970873
O        0.61295621       2.12049970       1.46598698    -114.75029370       0.00033398       0.00357160       0.01092337      -0.59605044
H        0.99072775       1.36093011       1.91445374     -11.85490142      -0.00494178       0.00607172       0.01964725       0.28484661
H       -0.33568855       2.10808895       1.67558823     -11.59327245      -0.00139807       0.00457836       0.00236901       0.31621694
44
Properties=species:S:1:pos:R:3:energies:R:1:forces:R:3:charge:R:1 product=T mapped+aligned=T onto=T reactant=T energy=-2152.740417351613 free_energy=-2152.740417351613 dipole="-0.3601033535015609 0.773038290741897 0.05836358448982159" pbc="F F F"
O       -3.04158106      -0.19111269      -0.94046321    -113.27533204       0.01155436      -0.00573348       0.00268246      -0.45992531
O       -2.10135316       1.74789294       1.95718234    -113.49092614      -0.00470152       0.00803127      -0.00161696      -0.46820488
O       -1.44215415      -2.00494910       1.06335988    -112.95754914       0.00362347      -0.00325123      -0.00968115      -0.44116064
O       -4.39632175       3.11128965       1.57732404    -113.10217721      -0.00904422      -0.00167393      -0.01189317      -0.43850260
O       -1.07630193      -2.55737373      -1.66258851    -114.76862503      -0.02959299      -0.01797017      -0.01773350      -0.59967892
O        0.79437576       1.57282625      -1.28003811    -113.21206489       0.00719364       0.00518747       0.00594428      -0.46810249
C       -2.70019643      -0.05022158       0.41816617     -59.09416698       0.00504221       0.00070879       0.00373748       0.08885903
C       -2.84384838       1.43962139       0.79198685     -58.99625574      -0.00030773       0.00148567      -0.00252699       0.09282687
C       -1.31765966      -0.63271128       0.79335753     -59.26964052       0.00374423       0.00121173       0.00909827       0.08481943
C       -4.31253528       1.81010462       1.04026442     -59.24129886      -0.00255118      -0.00278645      -0.00823819       0.05987202
C       -0.14002164      -0.34951125      -0.14272674     -58.11433327       0.00810012       0.00907277       0.01692590       0.08476159
C       -0.23773669       0.61277876      -1.31250354     -59.32053906       0.00790807       0.00368675       0.01228910       0.06071920
H       -3.41361443      -0.62143146       1.03756006     -13.03529862       0.00365056       0.00146691       0.00283677       0.04100667
H       -2.46472922       2.05294481      -0.04009784     -13.10256272      -0.00048903      -0.00003073      -0.00377957       0.03861737
H       -1.05898271      -0.19638174       1.76580799     -12.62277794      -0.00446219      -0.00923107       0.01648549       0.08667735
H       -4.89050030       1.70218782       0.11856276     -13.18694735       0.00092940      -0.00721307      -0.00993575       0.04427813
H       -4.72905304       1.15170761       1.80671206     -12.98063202      -0.00288164      -0.00226041      -0.00800066       0.06332398
H       -2.72790844      -1.05532110      -1.24503247     -11.30649543       0.01192348      -0.00839440       0.00963874       0.32212426
H       -2.63390212       2.38883062       2.45677950     -11.19393997      -0.00621557       0.01213998      -0.00837854       0.32629285
H       -1.21540210       1.09744543      -1.35739075     -13.14933334       0.00781988       0.00303258       0.00958612       0.04542095
H       -0.10427304       0.05220480      -2.24386824     -13.03285817       0.00784248      -0.00253007       0.01580491       0.05950419
H       -1.55665380      -2.47741470       0.22659582     -11.38472866       0.01635686       0.00685459      -0.01852760       0.31938227
H        0.77753132       1.99648047      -0.39945738     -11.47416119       0.00710772       0.01030193       0.00359149       0.31940868
H       -4.17254477       3.75389917       0.89426901     -11.51684574      -0.01021378      -0.00244259      -0.01299419       0.29641868
O        3.40478217      -0.67474675      -2.40083729    -112.39597507      -0.01435193       0.00193205       0.00033141      -0.35678750
O        1.55067151      -1.91429905      -2.44481652    -112.46310198      -0.01479894      -0.00139857       0.02805167      -0.42528713
O        5.42291328      -1.98213606      -0.43622363    -112.26947068       0.00466484      -0.00300580      -0.00678132      -0.41977927
N        0.92089252      -0.93235102       0.21805200     -80.00759993       0.00879982       0.01252830       0.02046237      -0.23603695
N        4.95739805      -0.09938687       0.70373914     -80.83204899       0.01435477      -0.00114854      -0.00592895      -0.26962487
C        2.20735687      -0.78805305      -0.39280326     -58.96949238       0.00623258       0.00924867       0.01452305       0.03301706
C        3.18175987      -1.68934537       0.39981437     -59.25618969       0.00905406       0.00246356       0.00334429      -0.10134654
C        2.31436902      -1.19156972      -1.85592883     -58.85652598      -0.00788787       0.00506628       0.01538252       0.36730476
C        4.62947413      -1.29572961       0.16309228     -59.16680024       0.00894810      -0.00071638      -0.00350091       0.28806219
H        2.53736935       0.25695679      -0.34536211     -12.79920415       0.01175501       0.00768327       0.01252628       0.07858444
H        2.93062715      -1.59077020       1.45621445     -12.91324643       0.01624978      -0.00456276       0.00567203       0.07768750
H        3.04046350      -2.73087183       0.10960581     -13.02282707       0.00443244       0.00483107      -0.00324428       0.07365468
H       -0.20598026      -2.73154553      -1.28218997     -11.63122487      -0.00566173      -0.01273460      -0.05814902       0.31090646
H       -0.88221699      -2.36497751      -2.58372521     -11.75016880      -0.07695069      -0.02621068      -0.03464398       0.29813325
H        4.27956774       0.48334072       1.16102346     -12.26890243       0.01817091      -0.00012839      -0.00147074       0.18462699
H        5.88075425       0.26840529       0.54978982     -12.18344230       0.01509339      -0.00410878      -0.00877335       0.19532291
H        3.54467463      -0.99472067      -3.30674205     -10.90772228      -0.02304768      -0.00444523       0.00105410       0.33944947
O        0.61966832       2.13176483       1.43487901    -114.74567296      -0.00175967       0.00461869       0.00848307      -0.59676648
H        0.99903466       1.37191169       1.88173856     -11.86473593      -0.00281065       0.00715318       0.01366903       0.28458050
H       -0.32821075       2.11433625       1.64692037     -11.60657513      -0.00282319       0.00327181       0.00367797       0.31555981
44
Properties=species:S:1:pos:R:3:energies:R:1:forces:R:3:charge:R:1 product=T mapped+aligned=T onto=T reactant=T energy=-2152.7944635779986 free_energy=-2152.7944635779986 dipole="-0.3558002526659496 0.7786585525950734 -0.02482373621045362" pbc="F F F"
O       -3.03407980      -0.19767229      -0.93355993    -113.28411971       0.00762926      -0.00706332       0.00290134      -0.46116631
O       -2.09401672       1.74896731       1.95867529    -113.48557491      -0.00350303       0.00553021      -0.00197835      -0.46802080
O       -1.44392320      -2.02324350       1.02610703    -112.94151475       0.00361351      -0.00371626      -0.00863771      -0.44153514
O       -4.39248768       3.11130412       1.57527998    -113.10020532      -0.00664413      -0.00155274      -0.01149378      -0.43857932
O       -1.11821984      -2.55229530      -1.70941297    -114.79297879      -0.02056970      -0.00088131      -0.01430240      -0.60208665
O        0.80336929       1.55449559      -1.30072368    -113.21529858       0.00542158       0.00225021       0.00686945      -0.46812846
C       -2.69561360      -0.05266553       0.42556802     -59.09235962       0.00382002      -0.00094772       0.00322923       0.08889539
C       -2.83774781       1.43790364       0.79519064     -59.00025343      -0.00000453      -0.00007664      -0.00261128       0.09285837
C       -1.31640478      -0.64266268       0.80160620     -59.27615815       0.00304936      -0.00067429       0.00686782       0.08521731
C       -4.30674405       1.80843833       1.04257770     -59.24029451      -0.00169110      -0.00294865      -0.00739650       0.05988438
C       -0.13096143      -0.34098936      -0.11733251     -58.12238049       0.00675703       0.00586980       0.01419904       0.08433257
C       -0.23394959       0.59950718      -1.30423253     -59.32096041       0.00668449       0.00062494       0.00980863       0.06056238
H       -3.41147414      -0.62147365       1.04416334     -13.03441870       0.00321608       0.00016860       0.00354052       0.04107994
H       -2.45974262       2.04949532      -0.03882431     -13.10660088       0.00003899      -0.00176159      -0.00388663       0.03809622
H       -1.06898220      -0.23371312       1.78883345     -12.64179062      -0.00338458      -0.00914143       0.01219470       0.08530464
H       -4.88430526       1.69688056       0.12098206     -13.18904158       0.00098578      -0.00722263      -0.00857224       0.04402019
H       -4.72292347       1.15197691       1.81082050     -12.98184712      -0.00197095      -0.00178618      -0.00658977       0.06326488
H       -2.71828555      -1.06385183      -1.23113888     -11.30517097       0.01164329      -0.00774487       0.00837700       0.32249262
H       -2.62450402       2.39358855       2.45567688     -11.19872885      -0.00424378       0.00970850      -0.00811468       0.32606575
H       -1.20866821       1.09018640      -1.34646739     -13.14133154       0.00619846      -0.00068233       0.00702624       0.04607928
H       -0.11573358       0.02126730      -2.22668551     -13.02832738       0.00771373      -0.00314968       0.01222921       0.05999747
H       -1.50759106      -2.47464736       0.17163328     -11.39371821       0.02305732       0.00319477      -0.01485085       0.32089962
H        0.79307693       1.99690755      -0.42952854     -11.47473459       0.00435173       0.00496372       0.00556938       0.31924739
H       -4.17152335       3.75209411       0.88964523     -11.52052772      -0.00818307      -0.00279512      -0.01314056       0.29623744
O        3.37280452      -0.67038318      -2.39250452    -112.37737614      -0.01520007       0.00033356       0.00067443      -0.35422069
O        1.54083338      -1.94272235      -2.36912966    -112.49894606      -0.00977106      -0.00852906       0.02903681      -0.42745734
O        5.42549040      -1.97466650      -0.43227445    -112.27170604       0.00200991      -0.00213522      -0.00776903      -0.41993106
N        0.93454381      -0.90292641       0.26229363     -79.98755139       0.00760090       0.01092847       0.01924694      -0.23398231
N        4.98089255      -0.09060725       0.71362966     -80.83188351       0.01370060      -0.00131194      -0.00479605      -0.26959234
C        2.21837691      -0.76823870      -0.35592218     -58.96936747       0.00551263       0.00682991       0.01401834       0.03341834
C        3.19523114      -1.67307696       0.43000083     -59.25579454       0.00799614       0.00265055       0.00627092      -0.10159234
C        2.30463732      -1.19267815      -1.81330592     -58.84089490      -0.00626802       0.00062957       0.01588386       0.36831540
C        4.64203267      -1.28589366       0.17748777     -59.16803909       0.00748773      -0.00058830      -0.00250268       0.28775521
H        2.55682643       0.27425807      -0.31977397     -12.80456398       0.00987083       0.00554589       0.01046393       0.07834444
H        2.95420489      -1.57319657       1.48843623     -12.90675292       0.01501178      -0.00028769       0.00808231       0.07842203
H        3.04563878      -2.71381135       0.14098812     -13.01294853       0.00350404       0.00391157       0.00379756       0.07475751
H       -0.18270486      -2.63856298      -1.47538754     -11.61185844       0.00515873       0.03268318      -0.07305204       0.31578622
H       -1.10646325      -2.45602820      -2.66451135     -11.79547479      -0.09313205      -0.03598047      -0.02738168       0.29242394
H        4.31176271       0.49264326       1.18284647     -12.26731741       0.01839421      -0.00034672       0.00074828       0.18472798
H        5.90500270       0.27214103       0.55233693     -12.18241203       0.01417224      -0.00434536      -0.00909599       0.19537371
H        3.49832819      -1.00563675      -3.29510871     -10.89563928      -0.02287319      -0.00569505       0.00168942       0.33995233
O        0.62262485       2.14018049       1.41308468    -114.74466382      -0.00218514       0.00509515       0.00766549      -0.59732360
H        1.00567964       1.38158158       1.85910337     -11.86938733      -0.00191992       0.00771018       0.01189045       0.28451953
H       -0.32430505       2.11782435       1.62885934     -11.61354910      -0.00305603       0.00273580       0.00389094       0.31528388
44
Properties=species:S:1:pos:R:3:energies:R:1:forces:R:3:charge:R:1 product=T mapped+aligned=T onto=T reactant=T energy=-2152.84463189345 free_energy=-2152.84463189345 dipole="-0.3422704216082811 0.7590435124272193 -0.08225827325417048" pbc="F F F"
O       -3.02909819      -0.20387918      -0.92910631    -113.28854492       0.00598547      -0.00773088       0.00272118      -0.46251807
O       -2.08707327       1.74667077       1.96004132    -113.48144704      -0.00290241       0.00382086      -0.00201553      -0.46797346
O       -1.44377236      -2.03850065       0.99500195    -112.92781630       0.00442883      -0.00382830      -0.00786451      -0.44177737
O       -4.38771623       3.11011818       1.57460905    -113.09847186      -0.00520917      -0.00175439      -0.01107601      -0.43874826
O       -1.14972249      -2.52236820      -1.75149281    -114.83274837      -0.01714048       0.01174967      -0.01544327      -0.60647561
O        0.81128381       1.53679716      -1.31773877    -113.22015004       0.00479542       0.00177925       0.00747037      -0.46836071
C       -2.69238088      -0.05680667       0.43020344     -59.09569530       0.00323936      -0.00215754       0.00271518       0.08898307
C       -2.83273301       1.43426720       0.79816139     -59.00162768       0.00003149      -0.00126880      -0.00248742       0.09275255
C       -1.31573802      -0.65209580       0.80660454     -59.28146406       0.00277620      -0.00142074       0.00572305       0.08553679
C       -4.30148482       1.80553703       1.04596926     -59.23951297      -0.00130525      -0.00335276      -0.00669279       0.05991351
C       -0.12468308      -0.33523277      -0.09856538     -58.12522245       0.00563966       0.00455547       0.01216340       0.08435774
C       -0.23201198       0.58844460      -1.29823868     -59.32384199       0.00574327       0.00057688       0.00894663       0.06000900
H       -3.41028918      -0.62405658       1.04785942     -13.03379070       0.00291656      -0.00108652       0.00336572       0.04105533
H       -2.45592312       2.04496596      -0.03717917     -13.11076404       0.00006630      -0.00288325      -0.00370744       0.03758077
H       -1.07683016      -0.26512011       1.80471686     -12.65592039      -0.00278592      -0.00875640       0.01000511       0.08428842
H       -4.87953116       1.69087166       0.12502338     -13.19015154       0.00090144      -0.00747784      -0.00756549       0.04390448
H       -4.71697931       1.15120434       1.81634510     -12.98371027      -0.00160178      -0.00176140      -0.00554099       0.06314628
H       -2.69238867      -1.06189145      -1.22938555     -11.30396464       0.01598632      -0.00519680       0.00514268       0.32348989
H       -2.61530171       2.39420909       2.45557717     -11.20431646      -0.00319543       0.00813674      -0.00790748       0.32579914
H       -1.20339057       1.08585935      -1.33626963     -13.13242939       0.00528383      -0.00060027       0.00696471       0.04683496
H       -0.12929075      -0.00184915      -2.21466140     -13.01659666       0.00640409      -0.00145279       0.01035720       0.06130176
H       -1.47065590      -2.47197263       0.12871202     -11.40314611       0.02309666       0.00252001      -0.01234465       0.32167423
H        0.80605208       1.99452130      -0.45462002     -11.47528621       0.00341338       0.00361144       0.00658381       0.31910399
H       -4.16909910       3.74888095       0.88636143     -11.52475022      -0.00663763      -0.00337742      -0.01302791       0.29605740
O        3.35308679      -0.67208804      -2.38122484    -112.35644028      -0.01219172      -0.00221757       0.00185910      -0.35151309
O        1.52692047      -1.94919190      -2.31821423    -112.53787104      -0.01002873      -0.00380255       0.02271330      -0.42973393
O        5.42554677      -1.97096484      -0.42827980    -112.27281193       0.00042792      -0.00233325      -0.00818061      -0.41993270
N        0.94436718      -0.87941962       0.29670322     -79.97396959       0.00647932       0.00899585       0.01665673      -0.23266915
N        4.99960064      -0.08499101       0.72125924     -80.83218070       0.01278271      -0.00184399      -0.00433030      -0.26957860
C        2.22620912      -0.75290020      -0.32691761     -58.96985885       0.00442442       0.00528156       0.01207065       0.03395703
C        3.20453556      -1.66012231       0.45487533     -59.25578684       0.00671596       0.00281524       0.00656650      -0.10175824
C        2.29638933      -1.18975804      -1.78053427     -58.81681957      -0.00582996       0.00037211       0.01364649       0.36970438
C        4.65080744      -1.27934499       0.18940379     -59.16820957       0.00600308      -0.00059095      -0.00226073       0.28754852
H        2.57179659       0.28739835      -0.29852312     -12.80453846       0.00808580       0.00422333       0.00845439       0.07834730
H        2.97172048      -1.55699452       1.51474175     -12.90185786       0.01330735       0.00261117       0.00800569       0.07895823
H        3.04772805      -2.70063821       0.16900273     -13.00388246       0.00234305       0.00339211       0.00673859       0.07576832
H       -0.18520441      -2.52461824      -1.63804822     -11.60581035      -0.00409899       0.04658012      -0.07346592       0.31943480
H       -1.27678533      -2.58542454      -2.70054222     -11.82883246      -0.08296924      -0.04996492      -0.01217089       0.28895938
H        4.33856280       0.49939846       1.20038526     -12.26639071       0.01793038      -0.00086689       0.00169847       0.18475941
H        5.92446124       0.27283603       0.55328954     -12.18119790       0.01324262      -0.00500681      -0.00882346       0.19542686
H        3.46458717      -1.01507507      -3.28291016     -10.88018880      -0.01997243      -0.00624067       0.00229479       0.34068956
O        0.62428451       2.14912043       1.39401703    -114.74395110      -0.00220383       0.00542189       0.00727826      -0.59782338
H        1.01189602       1.39296084       1.84037340     -11.87368824      -0.00132113       0.00816120       0.01116260       0.28441469
H       -0.32175035       2.12124106       1.61321663     -11.61897560      -0.00305679       0.00236881       0.00360079       0.31510480
44
Properties=species:S:1:pos:R:3:energies:R:1:forces:R:3:charge:R:1 product=T mapped+aligned=T onto=T reactant=T energy=-2152.886834437437 free_energy=-2152.886834437437 dipole="-0.3193626428721257 0.7066593049049671 -0.11375814632311566" pbc="F F F"
O       -3.02549842      -0.20648104      -0.92760771    -113.28920762       0.00478208      -0.00589746       0.00122699      -0.46405225
O       -2.07781627       1.73996552       1.96193994    -113.47738642      -0.00251980       0.00208886      -0.00187393      -0.46794917
O       -1.44330268      -2.05605446       0.95512170    -112.92208169       0.00485305      -0.00316356      -0.00695194      -0.44262247
O       -4.38098794       3.10727492       1.57667428    -113.09661800      -0.00431947      -0.00204883      -0.01008832      -0.43901456
O       -1.19206276      -2.47955221      -1.80427156    -114.86620883      -0.01831418       0.01460748      -0.01445129      -0.60905180
O        0.82274282       1.51499977      -1.33951631    -113.22468635       0.00435897       0.00336360       0.00835703      -0.46858925
C       -2.69002325      -0.06271745       0.43217218     -59.10415996       0.00261268      -0.00260453       0.00126108       0.08908227
C       -2.82766544       1.42816017       0.80256772     -59.00052357      -0.00022253      -0.00199568      -0.00223395       0.09257925
C       -1.31627011      -0.66400513       0.80777703     -59.28645829       0.00246087      -0.00140785       0.00367516       0.08575333
C       -4.29550891       1.80036983       1.05335745     -59.23928663      -0.00126239      -0.00374366      -0.00560458       0.05994105
C       -0.11932052      -0.32885454      -0.08173051     -58.12712337       0.00441921       0.00378673       0.00887847       0.08436670
C       -0.23177079       0.58016341      -1.29198092     -59.32961072       0.00481239       0.00255967       0.00808310       0.05911274
H       -3.41049458      -0.62969694       1.04723724     -13.03446654       0.00234912      -0.00218005       0.00142795       0.04085660
H       -2.45357381       2.03936685      -0.03376990     -13.11494892      -0.00042470      -0.00309461      -0.00317834       0.03699949
H       -1.08599572      -0.30292601       1.81747942     -12.67064234      -0.00206985      -0.00731224       0.00692983       0.08333534
H       -4.87555418       1.68175052       0.13412958     -13.19021416       0.00043266      -0.00771381      -0.00615796       0.04390697
H       -4.70901775       1.14898362       1.82722320     -12.98679114      -0.00135663      -0.00193079      -0.00416863       0.06292543
H       -2.65828116      -1.04819411      -1.24072038     -11.30329891       0.01631346      -0.00112309       0.00004369       0.32505737
H       -2.60216181       2.39072120       2.45724512     -11.21126145      -0.00223359       0.00654194      -0.00734406       0.32544731
H       -1.19665814       1.09039859      -1.31930489     -13.12211367       0.00449090       0.00186972       0.00725365       0.04763992
H       -0.15442468      -0.02056010      -2.20372512     -12.99356639       0.00513601       0.00260611       0.00807419       0.06376146
H       -1.44525066      -2.46545947       0.07588380     -11.41567186       0.01540622       0.00299724      -0.01029269       0.32141894
H        0.82514369       1.99157777      -0.48692457     -11.47597145       0.00296327       0.00381433       0.00820964       0.31892330
H       -4.16524589       3.74298918       0.88471831     -11.52984811      -0.00558298      -0.00396821      -0.01224113       0.29586145
O        3.34292350      -0.67471584      -2.36348162    -112.33954764      -0.00643089      -0.00316880       0.00235336      -0.34955090
O        1.50335326      -1.92812732      -2.28101678    -112.57089158      -0.01072667       0.00486026       0.01211774      -0.43195888
O        5.42241493      -1.97185924      -0.42367791    -112.27265656      -0.00082098      -0.00330526      -0.00801698      -0.41986526
N        0.95282572      -0.85513598       0.32930548     -79.96721063       0.00475247       0.00595548       0.01143367      -0.23199231
N        5.02078722      -0.08319264       0.72970724     -80.83182702       0.01124440      -0.00294509      -0.00427407      -0.26957986
C        2.23347571      -0.73588283      -0.29775981     -58.96970081       0.00335485       0.00374602       0.00811960       0.03465784
C        3.21190557      -1.64615606       0.48067102     -59.25670075       0.00497394       0.00247627       0.00467697      -0.10179139
C        2.28732461      -1.17705821      -1.75033579     -58.79373270      -0.00502603       0.00185163       0.00843270       0.37120077
C        4.65838695      -1.27533246       0.20181052     -59.16782049       0.00447863      -0.00134050      -0.00291818       0.28746902
H        2.58682391       0.30187025      -0.27334911     -12.80438723       0.00573887       0.00300566       0.00585600       0.07818138
H        2.98814394      -1.53729851       1.54191447     -12.90179294       0.01056437       0.00420268       0.00567834       0.07900037
H        3.04610268      -2.68664616       0.20013851     -12.99890351       0.00101941       0.00259041       0.00661435       0.07633476
H       -0.22105949      -2.41685543      -1.78546984     -11.59666941      -0.01631083       0.03255428      -0.05110676       0.32225503
H       -1.40597117      -2.76267566      -2.69555129     -11.83877324      -0.05264408      -0.05022156       0.00546413       0.28791341
H        4.37031555       0.50403812       1.21965144     -12.26785656       0.01623935      -0.00169628       0.00096525       0.18459983
H        5.94715639       0.26713795       0.55421113     -12.18074972       0.01172512      -0.00617781      -0.00841267       0.19543001
H        3.43675315      -1.01849718      -3.26696662     -10.86924031      -0.01346082      -0.00414637       0.00193967       0.34122957
O        0.62549405       2.16386950       1.36795668    -114.74145833      -0.00211954       0.00549378       0.00746972      -0.59828979
H        1.02114112       1.41339485       1.81693746     -11.87967406      -0.00065985       0.00845344       0.01116473       0.28417958
H       -0.31929662       2.12690101       1.59133176     -11.62509454      -0.00297649       0.00176045       0.00360847       0.31488737
44
Properties=species:S:1:pos:R:3:energies:R:1:forces:R:3:charge:R:1 product=T mapped+aligned=T onto=T reactant=T energy=-2152.9150738099065 free_energy=-2152.9150738099065 dipole="-0.29023846759539107 0.6381989721622242 -0.10735280751862362" pbc="F F F"
O       -3.02656039      -0.19611581      -0.93044240    -113.28297846       0.00301469      -0.00176823      -0.00123399      -0.46486313
O       -2.06265278       1.72532750       1.96700476    -113.47217719      -0.00216093       0.00068265      -0.00175624      -0.46764333
O       -1.44871843      -2.08079735       0.88508386    -112.93310254       0.00321124      -0.00119415      -0.00486252      -0.44513030
O       -4.37061639       3.10302207       1.58462211    -113.09468613      -0.00361822      -0.00159179      -0.00760998      -0.43932219
O       -1.24994031      -2.44823784      -1.88029467    -114.87408508      -0.01238060       0.00491921      -0.00742620      -0.60778514
O        0.84091974       1.48124016      -1.37569235    -113.22719478       0.00263713       0.00555931       0.00846772      -0.46852126
C       -2.68953900      -0.06892518       0.43048034     -59.11317412       0.00127450      -0.00155410      -0.00089503       0.08911841
C       -2.82089544       1.41961646       0.81165270     -58.99811512      -0.00092797      -0.00152582      -0.00195086       0.09255847
C       -1.32031978      -0.68297606       0.80001034     -59.29030119       0.00127935      -0.00049620       0.00082280       0.08591714
C       -4.28689747       1.79274485       1.06950978     -59.24070520      -0.00155764      -0.00313161      -0.00346967       0.05992892
C       -0.11453479      -0.32058330      -0.06535118     -58.13077522       0.00252905       0.00275788       0.00428134       0.08424039
C       -0.23420761       0.57374826      -1.28527194     -59.33699730       0.00352266       0.00406158       0.00531467       0.05819409
H       -3.41364300      -0.63800160       1.03951695     -13.03770403       0.00100187      -0.00210434      -0.00168217       0.04037781
H       -2.45184704       2.03424196      -0.02461026     -13.11687705      -0.00151181      -0.00176159      -0.00241065       0.03648422
H       -1.09998071      -0.36348556       1.82562476     -12.68889788      -0.00159075      -0.00373148       0.00248878       0.08230907
H       -4.87102213       1.66784922       0.15358227     -13.18840885      -0.00104273      -0.00679447      -0.00329360       0.04403922
H       -4.69607194       1.14561467       1.84916242     -12.99113020      -0.00075954      -0.00137731      -0.00162735       0.06257704
H       -2.64595349      -1.02416764      -1.26417452     -11.30302697       0.00755538       0.00076324      -0.00283060       0.32642702
H       -2.57912456       2.38024634       2.46476308     -11.21812185      -0.00117777       0.00440802      -0.00573338       0.32501645
H       -1.18534948       1.10941632      -1.28966777     -13.10936828       0.00288101       0.00287973       0.00428030       0.04847453
H       -0.20273329      -0.03804530      -2.19190531     -12.95854713       0.00564499       0.00554565       0.00438219       0.06747439
H       -1.43788342      -2.44975333      -0.01356140     -11.43134280       0.00576205       0.00293019      -0.00679850       0.32033993
H        0.85836726       1.98592487      -0.54010444     -11.47539767       0.00085708       0.00400119       0.00951660       0.31869273
H       -4.16002315       3.73378016       0.88657919     -11.53468883      -0.00472195      -0.00357567      -0.00972277       0.29569493
O        3.33652539      -0.67055141      -2.33783096    -112.33061824      -0.00192041      -0.00080137       0.00172944      -0.34876449
O        1.47031913      -1.88046294      -2.24387531    -112.59354249      -0.00643669       0.00677296       0.00415859      -0.43401650
O        5.41316343      -1.97960179      -0.41804645    -112.27092111      -0.00289305      -0.00464734      -0.00780840      -0.41976482
N        0.96077611      -0.82404355       0.36595938     -79.96798325       0.00227250       0.00283221       0.00506936      -0.23203922
N        5.05153923      -0.08743520       0.74193051     -80.83009223       0.00842400      -0.00450693      -0.00472406      -0.26960571
C        2.24182849      -0.71117971      -0.26176914     -58.96608109       0.00177277       0.00234059       0.00375985       0.03558215
C        3.21808521      -1.62645899       0.51362170     -59.25927139       0.00234329       0.00147219       0.00197843      -0.10172144
C        2.27626283      -1.15028164      -1.71584056     -58.77850893      -0.00269913       0.00252535       0.00333306       0.37269485
C        4.66595853      -1.27406518       0.21759814     -59.16753469       0.00224277      -0.00288101      -0.00408381       0.28748675
H        2.60503261       0.32305927      -0.23767113     -12.81113168       0.00275909       0.00199909       0.00326209       0.07726306
H        3.00674627      -1.50730633       1.57636671     -12.90897280       0.00661143       0.00393359       0.00253747       0.07831239
H        3.03806707      -2.66688988       0.24229176     -12.99752664      -0.00128227       0.00147733       0.00444849       0.07651503
H       -0.28361629      -2.33817548      -1.92490952     -11.57571341      -0.01351738       0.00999829      -0.02218608       0.32461321
H       -1.48730988      -2.98148857      -2.64146212     -11.82899996      -0.01949607      -0.03078557       0.01713279       0.28857357
H        4.41796819       0.50607009       1.24615378     -12.27343227       0.01272362      -0.00284188      -0.00129373       0.18409941
H        5.98134197       0.24881171       0.55694089     -12.18154798       0.00878797      -0.00759309      -0.00849992       0.19534901
H        3.40718436      -1.00875258      -3.24552700     -10.86758818      -0.00522499      -0.00017517       0.00126045       0.34133123
O        0.62601267       2.19228278       1.32326323    -114.73622928      -0.00183638       0.00450796       0.00781995      -0.59868715
H        1.03928532       1.45703245       1.78146894     -11.88818746       0.00018247       0.00814663       0.01170275       0.28372575
H       -0.31594103       2.13775114       1.55482285     -11.63338686      -0.00253466       0.00032429       0.00415239       0.31445349
44
Properties=species:S:1:pos:R:3:energies:R:1:forces:R:3:charge:R:1 product=T mapped+aligned=T onto=T reactant=T energy=-2152.907928779516 free_energy=-2152.907928779516 dipole="-0.34135992831596285 0.5646680608825974 -0.11110658646832003" pbc="F F F"
O       -3.02376133      -0.16952716      -0.92612265    -113.28612491       0.00151818       0.00074907      -0.00332424      -0.46553037
O       -2.03735411       1.71454786       1.98873943    -113.46408443      -0.00739596      -0.00621843       0.00101178      -0.46795711
O       -1.44428278      -2.09600415       0.82122847    -112.95474343      -0.00081866       0.00117737      -0.00136875      -0.44793841
O       -4.36492970       3.08611839       1.61550478    -113.08646619       0.00308925       0.00208911      -0.00265378      -0.43906254
O       -1.34418367      -2.44082523      -1.94619179    -114.86197797       0.00431534      -0.00249115       0.00049160      -0.60348212
O        0.86814465       1.42373574      -1.44895968    -113.22166403      -0.00045175       0.00937213       0.01140894      -0.46674026
C       -2.67522337      -0.06542610       0.43364242     -59.11361114      -0.00143757      -0.00053677      -0.00278863       0.08848127
C       -2.79436096       1.42043582       0.83022846     -59.00602317      -0.00446004      -0.00200763      -0.00159474       0.09245428
C       -1.31081468      -0.69590887       0.78831224     -59.29089296      -0.00102469       0.00072219      -0.00106540       0.08597268
C       -4.26384665       1.78967122       1.07193464     -59.25017757      -0.00290592      -0.00021331       0.00153333       0.06012936
C       -0.10178672      -0.31495910      -0.06253061     -58.12706105       0.00008823       0.00108437       0.00069000       0.08437844
C       -0.23526227       0.56024579      -1.29373561     -59.33846594       0.00258582       0.00435134       0.00346421       0.05775016
H       -3.40041358      -0.63618915       1.04018731     -13.04803871      -0.00139859      -0.00189494      -0.00455604       0.03902089
H       -2.41658682       2.03954532       0.00154349     -13.11461273      -0.00481841      -0.00064838      -0.00077893       0.03668171
H       -1.09120669      -0.41356122       1.82475696     -12.70557587      -0.00271582       0.00028418      -0.00106613       0.08130727
H       -4.82700137       1.68304832       0.14022057     -13.18068369      -0.00736260      -0.00202592       0.00485226       0.04438866
H       -4.68902552       1.12246419       1.82582810     -13.00338818       0.00078102       0.00374435       0.00665583       0.06110120
H       -2.66357175      -0.99924644      -1.27731258     -11.30149211       0.00154036       0.00068553      -0.00295142       0.32699303
H       -2.58720371       2.29590711       2.53745298     -11.24103364       0.00521957       0.02258623      -0.01632981       0.32345802
H       -1.16286601       1.13476108      -1.26304513     -13.09170106       0.00032843      -0.00009075       0.00074701       0.04975002
H       -0.27280580      -0.06525103      -2.19036813     -12.91789091       0.00998178       0.00753940       0.00159411       0.07172676
H       -1.45265743      -2.42749972      -0.09350010     -11.44225313       0.00272465       0.00136262      -0.00126301       0.31901980
H        0.92189718       1.96164172      -0.63718056     -11.47199558      -0.00736333       0.00577240       0.01361485       0.31758993
H       -4.13572741       3.73356149       0.93904216     -11.53789102      -0.00156900      -0.00085754      -0.00693494       0.29564828
O        3.31877925      -0.69714271      -2.34501001    -112.33040736       0.00040946       0.00157281       0.00095266      -0.34886871
O        1.41374752      -1.84127264      -2.21498556    -112.61309823       0.00295398      -0.00143482      -0.00115569      -0.43605144
O        5.45950030      -1.93401944      -0.33648883    -112.26082742      -0.00534644      -0.00426682      -0.01221012      -0.41899033
N        0.97778672      -0.79382186       0.38682378     -79.99407692      -0.00122465      -0.00200435      -0.00100262      -0.23459303
N        5.03470191      -0.04327623       0.80344111     -80.83029700       0.00577297      -0.00621516      -0.00562340      -0.27004450
C        2.25660744      -0.69552238      -0.24912297     -58.96441917      -0.00064855      -0.00049797      -0.00006215       0.03583410
C        3.23157188      -1.61183039       0.52619637     -59.26393731      -0.00006611      -0.00010345      -0.00027799      -0.10179403
C        2.25462999      -1.13979826      -1.70255022     -58.77136300       0.00126422      -0.00025059       0.00003191       0.37385507
C        4.68213568      -1.23720097       0.27179363     -59.16809562      -0.00072197      -0.00332243      -0.00624844       0.28747910
H        2.63286475       0.33404514      -0.23512518     -12.81301762      -0.00182277      -0.00016931       0.00037688       0.07675027
H        2.99795678      -1.51413280       1.58676456     -12.89753056       0.00364237       0.00298924       0.00014437       0.07926673
H        3.07345768      -2.65034923       0.23508117     -13.00987127      -0.00306036      -0.00037019       0.00271890       0.07536884
H       -0.38356521      -2.31632483      -2.03369827     -11.54480055       0.00366239      -0.00013554      -0.00105758       0.32620106
H       -1.58532507      -3.13234934      -2.56565905     -11.80528019       0.00727057      -0.01315350       0.01127271       0.28999430
H        4.38207714       0.53843321       1.29707759     -12.27440781       0.00994302      -0.00561813      -0.00128699       0.18424362
H        5.96792786       0.30096606       0.65355113     -12.18495301       0.00581813      -0.00834760      -0.00978285       0.19516708
H        3.35124953      -1.02736227      -3.25769286     -10.87543534       0.00200188       0.00142246       0.00112148       0.34065421
O        0.67320865       2.19955561       1.26500678    -114.71955999      -0.01407929      -0.00071759       0.00131378      -0.59677218
H        1.02710164       1.40520042       1.67323180     -11.87903525       0.00538644       0.02206851       0.01709287       0.28501323
H       -0.26158193       2.21491506       1.52169190     -11.64966575      -0.00960559      -0.02598104       0.00429417       0.31214567
