44
Properties=species:S:1:pos:R:3 product=T mapped+aligned=T onto=T reactant=T pbc="F F F"
O       -3.12615152      -0.18762216      -0.96221450
O       -2.11099232       1.70896395       1.94696736
O       -1.47608208      -1.95482886       1.19503983
O       -4.38706308       3.10986945       1.58365836
O       -0.87619241      -2.11547409      -1.34656094
O        0.75522025       1.53043425      -1.15851285
C       -2.73984701      -0.06218943       0.38411049
C       -2.85896623       1.42573135       0.77846400
C       -1.34282262      -0.65054861       0.70242566
C       -4.32129820       1.81219901       1.03618852
C       -0.27388427      -0.56928373      -0.39697966
C       -0.26340045       0.59403731      -1.38475031
H       -3.43463138      -0.63318600       1.02402735
H       -2.47049318       2.04399748      -0.04566835
H       -0.95022114      -0.08294915       1.55381944
H       -4.90484566       1.71651420       0.11696118
H       -4.73988995       1.15239519       1.80040105
H       -2.74236122      -1.00931765      -1.30344553
H       -2.63989080       2.34104714       2.46154060
H       -1.24517692       1.07534981      -1.41852161
H       -0.06324811       0.18263993      -2.37978872
H       -1.61321965      -2.53978037       0.43703300
H        0.67697687       1.89316145      -0.25110158
H       -4.16525236       3.75584354       0.90317917
O        3.50060211      -0.71016337      -2.42936003
O        1.63373927      -1.90571404      -2.67672321
O        5.40067940      -1.99567788      -0.44567339
N        0.82845220      -1.23497648      -0.03069438
N        4.88256137      -0.12104798       0.68120441
C        2.14831769      -0.92937346      -0.51564230
C        3.13773716      -1.74841258       0.34149750
C        2.37532172      -1.25203739      -1.98570605
C        4.58093068      -1.32035710       0.13059387
H        2.36921679       0.13992428      -0.40576341
H        2.85808234      -1.61059446       1.38682976
H        3.04245313      -2.80612543       0.09637937
H        0.17813328      -2.25542753      -0.60264816
H       -0.52771134      -2.12415598      -2.24404253
H        4.18524406       0.46841468       1.09872601
H        5.80213507       0.25954347       0.53286823
H        3.67803847      -0.96122232      -3.34994203
O        0.60015708       2.11808170       1.49950675
H        0.98815656       1.35448886       1.93225163
H       -0.34851155       2.09782699       1.71006802
