44
Properties=species:S:1:pos:R:3 charge=0 multiplicity=1 source=products.log spin=1 pbc="F F F"
O       -2.88153297      -0.03379139      -1.79005229
O       -2.88005585       1.53964239       1.43863933
O       -1.71448816      -2.03356397       0.02592042
O       -5.07767292       2.89266965       0.39421752
O       -0.02622207      -0.79856554      -1.63945454
O        1.08100314       1.68984705      -1.22058947
C       -2.86142649      -0.04296821      -0.37349506
C       -3.23126935       1.36823069       0.07510753
C       -1.57178551      -0.63143656       0.19934666
C       -4.72003928       1.60620101      -0.10619728
C       -0.23385983      -0.15734031      -0.39385372
C       -0.16617571       1.34816857      -0.63660438
H       -3.63745033      -0.72080438       0.00888646
H       -2.69642195       2.09670011      -0.54565665
H       -1.55557306      -0.37765956       1.26549384
H       -4.99948027       1.48152616      -1.15433067
H       -5.27488987       0.88525347       0.49612112
H       -2.45691504      -0.84887882      -2.08732885
H       -3.41549707       2.27544884       1.76425130
H       -0.93142072       1.60518647      -1.36570884
H       -0.35010783       1.89312152       0.29270377
H       -0.85398134      -2.46961249      -0.08348798
H        1.70372665       1.88496184      -0.50351931
H       -4.83584426       3.55725099      -0.25835706
O        2.55961297      -2.67071464      -1.71040934
O        0.92113255      -3.26240495      -0.30306135
O        5.17746087      -2.27111053       0.41996053
N        0.81756200      -0.55832450       0.59163004
N        4.88703994      -0.02573941       0.53232672
C        2.02810512      -1.14930051       0.03099832
C        3.04328785      -1.44793724       1.15938336
C        1.74256420      -2.46112387      -0.67988576
C        4.47797969      -1.31290466       0.67460220
H        2.46348930      -0.45041322      -0.68127906
H        2.87228410      -0.74260549       1.97193241
H        2.90576167      -2.45686128       1.54514131
H        0.42165202      -1.22336841       1.24986353
H        1.69933151       0.95174282       1.33187626
H        4.28826295       0.74461629       0.78745692
H        5.81216797       0.14650996       0.17935082
H        2.38355096      -3.56096018      -2.05173121
O        2.37779057       1.66785018       1.30146123
H        2.17747506       2.28074740       2.01495357
H        0.53086877      -0.20728531      -2.16662233
44
Properties=species:S:1:pos:R:3 charge=0 multiplicity=1 source=products.log spin=1 pbc="F F F"
O       -2.85314984      -0.12844707      -1.72468919
O       -2.91754070       1.62695604       1.39972476
O       -1.73599255      -2.01482222       0.19279013
O       -5.05943156       2.94868734       0.21822706
O       -0.03535523      -0.78881650      -1.63614398
O        1.12394127       1.71273406      -1.11017513
C       -2.85746804      -0.04645142      -0.31651267
C       -3.22439032       1.38677045       0.03940616
C       -1.57581000      -0.60218673       0.28408377
C       -4.70487243       1.63306321      -0.20261984
C       -0.23576042      -0.14495628      -0.31946485
C       -0.13945277       1.34837643      -0.57991124
H       -3.64809567      -0.69733643       0.09293188
H       -2.66511078       2.07009638      -0.60578376
H       -1.59501080      -0.30786399       1.33093387
H       -4.95061130       1.45688012      -1.25191617
H       -5.28986637       0.95309352       0.41901597
H       -2.45122403      -0.97592155      -1.96003120
H       -3.45320174       2.38587217       1.67057890
H       -0.85882176       1.59632685      -1.34599510
H       -0.37932105       1.91517385       0.31248354
H       -0.88858657      -2.45343133       0.04745703
H        1.70241962       1.91799015      -0.36740322
H       -4.78480714       3.57427614      -0.45981018
O        2.53449467      -2.65424028      -1.75791402
O        0.94139288      -3.26645017      -0.29685726
O        5.24037591      -2.21878933       0.21249164
N        0.82241123      -0.59875781       0.58793508
N        4.88988672       0.01790781       0.40900932
C        2.03460986      -1.15034404       0.01212035
C        3.11939206      -1.47360531       1.05989328
C        1.74356772      -2.45886424      -0.70306798
C        4.52822096      -1.28748153       0.51976718
H        2.43217389      -0.42972622      -0.68615549
H        2.99679294      -0.81090259       1.89809427
H        3.02477037      -2.49269049       1.43712969
H        0.45068856      -1.30760875       1.31028549
H        1.59469716       0.78879621       1.65760018
H        4.27743625       0.76239255       0.71935785
H        5.79720990       0.22507773       0.03458830
H        2.35017639      -3.54384167      -2.10404864
O        2.23410359       1.49038891       1.63026837
H        1.96399007       2.26926786       2.13488880
H        0.50112904      -0.22659185      -2.20256295
44
Properties=species:S:1:pos:R:3 charge=0 multiplicity=1 source=products.log spin=1 pbc="F F F"
O       -2.82378568      -0.21832787      -1.65081804
O       -2.94810601       1.71352174       1.35791543
O       -1.75516364      -1.98962617       0.35921945
O       -5.02896317       2.99735668       0.03983293
O       -0.04671775      -0.77788877      -1.63441910
O        1.16565247       1.73510105      -1.00074550
C       -2.85157630      -0.04618641      -0.25703874
C       -3.21182699       1.40442890       0.00568914
C       -1.57942486      -0.57154171       0.36966845
C       -4.68089579       1.65651430      -0.29949523
C       -0.23693788      -0.13213246      -0.24448031
C       -0.10991468       1.34976608      -0.51881362
H       -3.65780332      -0.66748144       0.17688803
H       -2.62586917       2.04139934      -0.65872697
H       -1.63507820      -0.23725507       1.39524394
H       -4.89198841       1.42857232      -1.34653132
H       -5.29718473       1.01914808       0.33718749
H       -2.44421808      -1.09298606      -1.82280127
H       -3.48322667       2.49236044       1.57222134
H       -0.78118769       1.58971727      -1.31875334
H       -0.40019392       1.93591133       0.33689090
H       -0.92158038      -2.43399891       0.17942490
H        1.70163255       1.94886894      -0.23560367
H       -4.71988543       3.58195264      -0.66002914
O        2.50901374      -2.63739153      -1.79969936
O        0.96157397      -3.26868107      -0.28775479
O        5.28812658      -2.15052196       0.01389585
N        0.82491982      -0.63441057       0.58598088
N        4.88006973       0.07324929       0.28754187
C        2.03765654      -1.14808282      -0.00641176
C        3.18527604      -1.48323976       0.96222506
C        1.74332227      -2.45508392      -0.72258944
C        4.56506207      -1.24738354       0.36962595
H        2.39824811      -0.40959198      -0.69373722
H        3.10734220      -0.85186931       1.81488534
H        3.13515637      -2.51113186       1.33017335
H        0.47845863      -1.39706444       1.36653351
H        1.49833904       0.58349969       1.96189193
H        4.25637672       0.78916349       0.65261505
H        5.76893473       0.31349093      -0.10700748
H        2.31847600      -3.52741242      -2.14767023
O        2.08577902       1.28370979       1.93861719
H        1.75693032       2.19893313       2.24007852
H        0.46518184      -0.24737540      -2.24111999
44
Properties=species:S:1:pos:R:3 charge=0 multiplicity=1 source=products.log spin=1 pbc="F F F"
O       -2.79450566      -0.30321465      -1.56887507
O       -2.97138584       1.79929755       1.31329056
O       -1.77293554      -1.95843977       0.52394564
O       -4.98694993       3.03766334      -0.13961277
O       -0.06078113      -0.76572784      -1.63451706
O        1.20567295       1.75780449      -0.89373925
C       -2.84420810      -0.04220311      -0.19531276
C       -3.19427309       1.42108156      -0.02593037
C       -1.58258627      -0.53924668       0.45590865
C       -4.64877070       1.67576980      -0.39582318
C       -0.23744261      -0.11836287      -0.16924417
C       -0.07875478       1.35277560      -0.45480292
H       -3.66662325      -0.63152820       0.26048308
H       -2.58032027       2.01086099      -0.70481708
H       -1.67488370      -0.16469348       1.45802515
H       -4.82505039       1.39574335      -1.43691060
H       -5.29680092       1.08233546       0.25184948
H       -2.43610594      -1.19942932      -1.67707024
H       -3.50551416       2.59458741       1.46945078
H       -0.69987348       1.58485223      -1.28558516
H       -0.41464757       1.95676485       0.36481254
H       -0.95408262      -2.41173544       0.31103789
H        1.70111583       1.97991222      -0.10962850
H       -4.64243381       3.57939706      -0.85762651
O        2.48425450      -2.61967165      -1.83534152
O        0.98220712      -3.26907314      -0.27632900
O        5.32117533      -2.07208073      -0.17048014
N        0.82480546      -0.66503236       0.58563251
N        4.86008767       0.13648130       0.16706092
C        2.03737485      -1.14183124      -0.02441993
C        3.24047575      -1.47668611       0.86950104
C        1.74242011      -2.44920863      -0.73814381
C        4.58907732      -1.19599705       0.22723348
H        2.36172366      -0.38910530      -0.70404454
H        3.20114058      -0.86257057       1.72624437
H        3.23566005      -2.51121651       1.22828401
H        0.50440915      -1.49140510       1.41743872
H        1.41122884       0.34118473       2.23880281
H        4.22946739       0.82359294       0.58386368
H        5.73011228       0.40591177      -0.24795487
H        2.29033236      -3.51111457      -2.18233312
O        1.93349504       1.05365328       2.21505982
H        1.56041057       2.06998714       2.34267918
H        0.42228295      -0.27008277      -2.28206172
44
Properties=species:S:1:pos:R:3 charge=0 multiplicity=1 source=products.log spin=1 pbc="F F F"
O       -2.76631549      -0.38070295      -1.48159939
O       -2.98627089       1.88145846       1.26765954
O       -1.78912245      -1.92179507       0.68253026
O       -4.93637085       3.06722872      -0.31027437
O       -0.07701681      -0.75203356      -1.63904413
O        1.24476390       1.78101112      -0.79268261
C       -2.83535498      -0.03464817      -0.13337931
C       -3.17232037       1.43629966      -0.05425624
C       -1.58485763      -0.50531270       0.54003242
C       -4.61025037       1.68950977      -0.48635677
C       -0.23719421      -0.10295865      -0.09693350
C       -0.04669393       1.35809448      -0.39253084
H       -3.67379288      -0.59121360       0.34124756
H       -2.53092074       1.97944447      -0.74342508
H       -1.71201599      -0.09137508       1.51741815
H       -4.75324579       1.35926547      -1.51806340
H       -5.28868510       1.13916033       0.16835501
H       -2.42666290      -1.29257190      -1.52793360
H       -3.51870014       2.68882736       1.36710584
H       -0.61681317       1.58165724      -1.25058833
H       -0.42403990       1.97934073       0.39127190
H       -0.98622444      -2.38647972       0.43801821
H        1.70185134       2.01209182       0.00722662
H       -4.55745982       3.56664671      -1.04192820
O        2.46335989      -2.60031811      -1.86392967
O        1.00326709      -3.26716385      -0.26559732
O        5.34104748      -1.99325330      -0.32754800
N        0.82165171      -0.69061854       0.58471841
N        4.83306665       0.20107228       0.04973715
C        2.03399786      -1.13124778      -0.04235335
C        3.28340050      -1.45557083       0.78648221
C        1.74181284      -2.44070324      -0.75079835
C        4.60126786      -1.13944160       0.09988930
H        2.32401898      -0.36793433      -0.71739046
H        3.27323748      -0.84494035       1.64002846
H        3.32078936      -2.49392573       1.13814488
H        0.52683953      -1.58857355       1.46119986
H        1.33199240       0.07167188       2.48213007
H        4.19967155       0.86353369       0.50862047
H        5.68571548       0.49392940      -0.38310624
H        2.27006842      -3.49389780      -2.20860925
O        1.78136399       0.80176330       2.45212219
H        1.37362579       1.90946134       2.43126229
H        0.37351875      -0.29478781      -2.32687239
44
Properties=species:S:1:pos:R:3 charge=0 multiplicity=1 source=products.log spin=1 pbc="F F F"
O       -2.73848540      -0.45112968      -1.39036191
O       -2.99631999       1.95916761       1.22066018
O       -1.80622287      -1.88160589       0.83381050
O       -4.87881713       3.08692015      -0.47526266
O       -0.09364948      -0.73570080      -1.64635546
O        1.28249682       1.80683413      -0.69066944
C       -2.82633395      -0.02467239      -0.07264915
C       -3.14797856       1.44961368      -0.08054674
C       -1.58690475      -0.47000645       0.62302488
C       -4.56754834       1.69780683      -0.57254965
C       -0.23625158      -0.08580155      -0.02487609
C       -0.01505441       1.36617760      -0.32941696
H       -3.68035932      -0.54765158       0.41742754
H       -2.47977225       1.94730578      -0.77583860
H       -1.74920325      -0.01722403       1.57433865
H       -4.67992067       1.31835776      -1.59122169
H       -5.27478851       1.18982762       0.08582256
H       -2.41325334      -1.37270736      -1.37781925
H       -3.52324824       2.77669981       1.26331309
H       -0.53340508       1.58091182      -1.21296115
H       -0.43156607       2.00392246       0.41866160
H       -1.01954538      -2.35938262       0.56034208
H        1.70266342       2.04667716       0.12316451
H       -4.46660361       3.54359588      -1.21728439
O        2.44432908      -2.57837826      -1.88721839
O        1.02527238      -3.26262806      -0.25527874
O        5.35189138      -1.91933849      -0.46282755
N        0.81537695      -0.71310962       0.58602466
N        4.80348601       0.26315158      -0.06808989
C        2.02844634      -1.11634264      -0.05741751
C        3.31763459      -1.42262047       0.71584064
C        1.74205984      -2.42872946      -0.76006769
C        4.60524543      -1.08238952      -0.01390199
H        2.28556979      -0.34496904      -0.73038035
H        3.32670167      -0.80454314       1.56316927
H        3.39502933      -2.46228791       1.06050498
H        0.54572110      -1.68941588       1.49954601
H        1.26031741      -0.21654265       2.69080532
H        4.17180893       0.90686125       0.42298744
H        5.63695309       0.57225221      -0.52733592
H        2.25564741      -3.47493124      -2.22811854
O        1.63317285       0.53141902       2.64380438
H        1.19439404       1.73435449       2.51820319
H        0.32101429      -0.31974809      -2.37300177
44
Properties=species:S:1:pos:R:3 charge=0 multiplicity=1 source=products.log spin=1 pbc="F F F"
O       -2.71144614      -0.51378955      -1.29639312
O       -2.99846503       2.03180107       1.17472545
O       -1.82270920      -1.83898195       0.97695977
O       -4.81494189       3.09750414      -0.62732802
O       -0.11194742      -0.71848358      -1.65836930
O        1.31990373       1.83232234      -0.59539305
C       -2.81607587      -0.01248784      -0.01254367
C       -3.11993197       1.46106241      -0.10261473
C       -1.58796375      -0.43415722       0.70346167
C       -4.52020618       1.70136535      -0.65034469
C       -0.23457341      -0.06742566       0.04394116
C        0.01701803       1.37607674      -0.27009010
H       -3.68485626      -0.50186883       0.49032123
H       -2.42643619       1.91476512      -0.80105250
H       -1.78131978       0.05619763       1.62809416
H       -4.60477691       1.27543192      -1.65335387
H       -5.25423394       1.23416386       0.00884003
H       -2.39802915      -1.44042792      -1.22877723
H       -3.51797782       2.85609741       1.16328743
H       -0.44948549       1.57992752      -1.17635333
H       -0.43515129       2.03020984       0.44187995
H       -1.05354849      -2.33143299       0.67648525
H        1.70548022       2.08209655       0.22915996
H       -4.37143544       3.51280448      -1.37610022
O        2.43036667      -2.55440837      -1.90473385
O        1.04756749      -3.25650564      -0.24775669
O        5.35607495      -1.84992513      -0.56868463
N        0.80596208      -0.73234339       0.58619367
N        4.76929367       0.32341734      -0.18265927
C        2.02006973      -1.09798257      -0.07155478
C        3.34089433      -1.37927651       0.65711275
C        1.74314452      -2.41424934      -0.76754476
C        4.60125244      -1.02435481      -0.11053242
H        2.24644213      -0.32118742      -0.74478234
H        3.35916472      -0.74581388       1.49523652
H        3.45459455      -2.41813248       0.99767727
H        0.55934052      -1.79274306       1.53047156
H        1.18880825      -0.51807874       2.86564757
H        4.14115271       0.95476628       0.32952039
H        5.58474847       0.64296527      -0.66693949
H        2.24991308      -3.45398721      -2.24218091
O        1.48271499       0.24577945       2.79894475
H        1.02780971       1.55676724       2.57968963
H        0.26379463      -0.34747786      -2.42156722
44
Properties=species:S:1:pos:R:3 charge=0 multiplicity=1 source=products.log spin=1 pbc="F F F"
O       -2.65638753      -0.61923678      -1.09931082
O       -2.98414906       2.16553816       1.08503892
O       -1.85404732      -1.74804747       1.24631241
O       -4.66867794       3.09463567      -0.90716622
O       -0.15266201      -0.67978058      -1.69126904
O        1.39435312       1.88379505      -0.41711651
C       -2.79155078       0.01752329       0.10884064
C       -3.05461142       1.47877931      -0.13521244
C       -1.58661406      -0.36033902       0.86261697
C       -4.41348804       1.69540578      -0.78640226
C       -0.22799464      -0.02687986       0.17890876
C        0.08270923       1.40104925      -0.15686700
H       -3.68722860      -0.40385086       0.63040350
H       -2.31432542       1.84798172      -0.83249965
H       -1.83020394       0.20248049       1.73207255
H       -4.45047992       1.18029966      -1.74987783
H       -5.19596562       1.30729699      -0.13241892
H       -2.35888469      -1.54441927      -0.93252853
H       -3.48355326       2.99555685       0.96842832
H       -0.28056588       1.57686017      -1.10307568
H       -0.43228177       2.08691281       0.48132681
H       -1.12399975      -2.27413514       0.89708673
H        1.71760826       2.15671110       0.41995368
H       -4.16712984       3.42689160      -1.66196474
O        2.41117853      -2.49846303      -1.92698037
O        1.09223409      -3.24033377      -0.24065300
O        5.35179719      -1.71900664      -0.71368577
N        0.77948820      -0.76359225       0.58705033
N        4.68735831       0.43781235      -0.40642014
C        1.99596466      -1.05317042      -0.09387883
C        3.36219127      -1.26970435       0.57115010
C        1.74679325      -2.37811685      -0.77743622
C        4.57609408      -0.90593711      -0.26218029
H        2.16561965      -0.27100890      -0.77329612
H        3.37613520      -0.59351196       1.38560399
H        3.53827644      -2.30170866       0.91085737
H        0.57051466      -2.00895508       1.57166616
H        1.03467681      -1.15342539       3.12020457
H        4.06921296       1.06005357       0.12208567
H        5.46493404       0.76461206      -0.94496456
H        2.25768836      -3.40310837      -2.25997645
O        1.17169968      -0.36740667       3.00555899
H        0.73192595       1.21419812       2.63898656
H        0.13634752      -0.41025557      -2.51897163
44
Properties=species:S:1:pos:R:3 charge=0 multiplicity=1 source=products.log spin=1 pbc="F F F"
O       -2.62514643      -0.67591820      -0.98504294
O       -2.97592163       2.24372215       1.02246527
O       -1.88681413      -1.66660302       1.39697077
O       -4.59679694       3.06987324      -1.06083187
O       -0.18070108      -0.66066032      -1.69885141
O        1.43475043       1.91635020      -0.30426470
C       -2.77763602       0.04022473       0.17141799
C       -3.02011824       1.48786115      -0.15766050
C       -1.58771550      -0.29572018       0.95253804
C       -4.35733004       1.67725244      -0.85947636
C       -0.21984286       0.00591812       0.25238050
C        0.11821989       1.42564623      -0.09048590
H       -3.68824372      -0.34343773       0.70044913
H       -2.25709274       1.81162872      -0.85215971
H       -1.85718815       0.31402392       1.79312101
H       -4.37036842       1.11030130      -1.79399731
H       -5.16188435       1.33110479      -0.20952658
H       -2.33229422      -1.59596412      -0.76513646
H       -3.46367563       3.06796768       0.84706223
H       -0.19321840       1.57763825      -1.05812711
H       -0.42758904       2.12421691       0.51141055
H       -1.17587331      -2.21726099       1.02313330
H        1.72815147       2.19569590       0.53959774
H       -4.07121317       3.35719842      -1.81713839
O        2.40490241      -2.46510615      -1.93730999
O        1.10822121      -3.22664359      -0.24551967
O        5.34584052      -1.64881055      -0.78012624
N        0.76465615      -0.77199978       0.59594719
N        4.64183498       0.49724669      -0.52278812
C        1.98213497      -1.02482034      -0.09835297
C        3.37013601      -1.20761024       0.53330920
C        1.74830974      -2.35275840      -0.78185749
C        4.55984665      -0.84075761      -0.33275716
H        2.12267129      -0.23992690      -0.78112967
H        3.38000797      -0.52324235       1.34197551
H        3.57923777      -2.23229712       0.87356361
H        0.56079506      -2.14174104       1.56979660
H        0.96438717      -1.52388896       3.19823843
H        4.02804007       1.11792711       0.00725173
H        5.40093232       0.82591765      -1.08819571
H        2.26014857      -3.37327589      -2.26666111
O        1.03193988      -0.73644909       3.05300969
H        0.62876280       1.02094887       2.66133995
H        0.06273671      -0.45377191      -2.55758107
44
Properties=species:S:1:pos:R:3 charge=0 multiplicity=1 source=products.log spin=1 pbc="F F F"
O       -2.59342723      -0.72500468      -0.86596456
O       -2.95867968       2.31688203       0.96092855
O       -1.91431342      -1.58112068       1.54289889
O       -4.52098336       3.03492351      -1.20137912
O       -0.21065346      -0.64235643      -1.71030581
O        1.47652466       1.94677848      -0.20199098
C       -2.76059245       0.06460956       0.23649412
C       -2.98195095       1.49436445      -0.17445016
C       -1.58446032      -0.22940140       1.04137636
C       -4.29864529       1.65343885      -0.92049770
C       -0.20908198       0.04027204       0.32368808
C        0.15513486       1.45198526      -0.03066731
H       -3.68411479      -0.28111768       0.77216462
H       -2.19886410       1.77358009      -0.86569694
H       -1.87295512       0.42782254       1.85144529
H       -4.29259988       1.03622173      -1.82256871
H       -5.12231547       1.34852600      -0.27486720
H       -2.30443315      -1.63702694      -0.59865960
H       -3.43421606       3.13206952       0.72874280
H       -0.10667175       1.57599054      -1.01744198
H       -0.41858749       2.16479143       0.53224069
H       -1.22617308      -2.15911785       1.14565942
H        1.74248711       2.23669703       0.64482368
H       -3.97427689       3.27692298      -1.95808252
O        2.40307215      -2.42926336      -1.94422694
O        1.12361242      -3.21271532      -0.25509896
O        5.33869119      -1.58048919      -0.82234511
N        0.74816964      -0.77790528       0.60432639
N        4.59277326       0.55345026      -0.62943832
C        1.96627224      -0.99501171      -0.10124312
C        3.36980286      -1.14162442       0.50614164
C        1.75037972      -2.32577594      -0.78559390
C        4.54016588      -0.77564932      -0.38721911
H        2.07998225      -0.20898685      -0.78935887
H        3.37232591      -0.44739446       1.30732378
H        3.60607406      -2.15678051       0.85255899
H        0.53904520      -2.27718452       1.55447148
H        0.87509380      -1.89647717       3.23300353
H        3.97989078       1.17695545      -0.10916105
H        5.33410372       0.87998316      -1.22100473
H        2.27089842      -3.34028108      -2.27133838
O        0.88407215      -1.10767343       3.05345523
H        0.53603696       0.84727570       2.66194138
H       -0.01661329      -0.50518239      -2.59508383
44
Properties=species:S:1:pos:R:3 charge=0 multiplicity=1 source=products.log spin=1 pbc="F F F"
O       -2.56066411      -0.76639616      -0.74496677
O       -2.93383300       2.38397574       0.90141033
O       -1.93389178      -1.49164398       1.68425115
O       -4.44558234       2.99028186      -1.32572407
O       -0.24167670      -0.62480007      -1.72615868
O        1.52016187       1.97569317      -0.11326511
C       -2.73986783       0.09014347       0.30319997
C       -2.94121560       1.49816683      -0.18562541
C       -1.57576521      -0.16155696       1.12820292
C       -4.23987818       1.62426133      -0.96811820
C       -0.19498337       0.07665703       0.39225893
C        0.19337150       1.48042687       0.02103449
H       -3.67392268      -0.21835691       0.84525472
H       -2.14131856       1.73425766      -0.87395137
H       -1.87682578       0.54306635       1.90625677
H       -4.21925566       0.95942785      -1.83531525
H       -5.07920261       1.35871585      -0.32648846
H       -2.27457475      -1.66838201      -0.43532250
H       -3.39781281       3.18673650       0.61589154
H       -0.02188541       1.57195291      -0.98254863
H       -0.40586914       2.20894720       0.54156095
H       -1.27359653      -2.09954015       1.26415328
H        1.76081307       2.28166404       0.73232424
H       -3.88126816       3.18797557      -2.08193724
O        2.40594682      -2.39177320      -1.94726092
O        1.13905735      -3.19832737      -0.26785832
O        5.33171965      -1.51514788      -0.84049926
N        0.73105093      -0.78062741       0.61252891
N        4.54308412       0.60474104      -0.72601561
C        1.94942737      -0.96403317      -0.10236654
C        3.36282297      -1.07332444       0.48922694
C        1.75343825      -2.29750456      -0.78792931
C        4.51904797      -0.71180448      -0.42587673
H        2.03861310      -0.17863223      -0.79812001
H        3.35585768      -0.36696763       1.28031466
H        3.61939845      -2.07677864       0.84881699
H        0.50440193      -2.41328123       1.52480713
H        0.75960308      -2.26760030       3.22471012
H        3.92647001       1.23473332      -0.22756195
H        5.26937582       0.92445773      -1.34092719
H        2.28975869      -3.30478648      -2.27333148
O        0.72735733      -1.47490898       3.00785129
H        0.45265949       0.69566987       2.64362318
H       -0.10054728      -0.56577793      -2.63050951
44
Properties=species:S:1:pos:R:3 charge=0 multiplicity=1 source=products.log spin=1 pbc="F F F"
O       -2.52602670      -0.80105366      -0.62151062
O       -2.90270056       2.44507269       0.84376842
O       -1.94136295      -1.39857782       1.82348329
O       -4.37157034       2.93510934      -1.43589822
O       -0.27371638      -0.60782831      -1.74575534
O        1.56613922       2.00378941      -0.03718633
C       -2.71506936       0.11639193       0.37258766
C       -2.89833258       1.49886292      -0.19113475
C       -1.56080249      -0.09269897       1.21366093
C       -4.18168099       1.58909437      -1.00284790
C       -0.17713012       0.11522882       0.45832811
C        0.23323811       1.51126063       0.06491082
H       -3.65696303      -0.15550816       0.92153824
H       -2.08464208       1.69295804      -0.87720862
H       -1.86864656       0.65937455       1.95776186
H       -4.15067519       0.87870445      -1.83263149
H       -5.03337975       1.36156223      -0.36437209
H       -2.24296187      -1.69149232      -0.27458665
H       -3.35600000       3.23224158       0.50734426
H        0.06132074       1.56601222      -0.95299770
H       -0.38942771       2.25537705       0.54085716
H       -1.31617048      -2.03876667       1.37961621
H        1.78313818       2.33273519       0.80236465
H       -3.79294017       3.08868078      -2.19118022
O        2.41244309      -2.35269752      -1.94714613
O        1.15407263      -3.18309782      -0.28314189
O        5.32500294      -1.45240850      -0.83789023
N        0.71406196      -0.78000076       0.62079352
N        4.49421483       0.65079696      -0.81086558
C        1.93198699      -0.93191360      -0.10235319
C        3.35031586      -1.00413893       0.48125423
C        1.75708833      -2.26804863      -0.78898030
C        4.49717612      -0.64981414      -0.45025879
H        1.99883935      -0.14858844      -0.80775847
H        3.33315965      -0.28326551       1.25972843
H        3.61962822      -1.99429724       0.86081450
H        0.45677177      -2.54891340       1.47944900
H        0.61291221      -2.63263967       3.16839803
H        3.86878170       1.28890938      -0.34447561
H        5.20794083       0.95972781      -1.44725230
H        2.31402110      -3.26675513      -2.27302407
O        0.55975180      -1.83147305       2.91500605
H        0.37765310       0.56767549       2.61069604
H       -0.18945943      -0.63558759      -2.66190488
44
Properties=species:S:1:pos:R:3 charge=0 multiplicity=1 source=products.log spin=1 pbc="F F F"
O       -2.48398589      -0.84569128      -0.44601896
O       -2.86295301       2.52566111       0.75115661
O       -1.93937601      -1.20928496       2.05012685
O       -4.30665765       2.82806934      -1.57333372
O       -0.32093850      -0.60695392      -1.74765104
O        1.62042272       2.04292613       0.04354297
C       -2.68096683       0.15756625       0.46501745
C       -2.85137776       1.49458273      -0.20215101
C       -1.53680644       0.03364077       1.32395064
C       -4.12468489       1.52108187      -1.03288476
C       -0.14968571       0.17660094       0.52506749
C        0.28112820       1.55941276       0.10192525
H       -3.62768975      -0.06245644       1.02850052
H       -2.02648890       1.63298478      -0.88812703
H       -1.82527224       0.86023308       2.01843292
H       -4.08835846       0.74608112      -1.80160964
H       -4.98389768       1.34467581      -0.39013156
H       -2.20026660      -1.71587342      -0.04767108
H       -3.31001541       3.28123212       0.34680293
H        0.14836794       1.56108010      -0.93059690
H       -0.36335639       2.32203090       0.52455394
H       -1.37115508      -1.88631128       1.59165065
H        1.80965523       2.39592156       0.88044284
H       -3.71946338       2.92185685      -2.33041344
O        2.43018345      -2.29060687      -1.95759223
O        1.16494665      -3.15547902      -0.33399814
O        5.32307662      -1.38105008      -0.81172838
N        0.69998821      -0.76987245       0.63212559
N        4.45358157       0.70308955      -0.87003450
C        1.91592960      -0.89201015      -0.10035606
C        3.33517425      -0.93267202       0.48273145
C        1.76527746      -2.22331789      -0.80047231
C        4.47686581      -0.58098952      -0.45502968
H        1.96134661      -0.10961716      -0.81594436
H        3.31026185      -0.19683639       1.24890191
H        3.60734588      -1.91072696       0.88506388
H        0.34279861      -2.70394813       1.34777930
H        0.38329923      -3.12793918       2.95450845
H        3.80689858       1.34861255      -0.45668069
H        5.16169634       1.00169976      -1.51922535
H        2.35554691      -3.20468088      -2.28845273
O        0.36662689      -2.28799702       2.71224308
H        0.35903337       0.37388044       2.55063021
H       -0.30605544      -0.73860550      -2.66505134
44
Properties=species:S:1:pos:R:3 charge=0 multiplicity=1 source=products.log spin=1 pbc="F F F"
O       -2.43451407      -0.88034500      -0.27040790
O       -2.81802590       2.58593422       0.66761459
O       -1.88341657      -1.02357816       2.26069257
O       -4.25752113       2.70016796      -1.67106925
O       -0.36600141      -0.60835340      -1.75884544
O        1.67987286       2.08394818       0.09827081
C       -2.63580434       0.19352479       0.56319226
C       -2.80283920       1.47909439      -0.20002272
C       -1.49652068       0.15838495       1.42518281
C       -4.07379678       1.43931486      -1.03220347
C       -0.11372251       0.24377974       0.57951786
C        0.33270705       1.61273662       0.11911748
H       -3.57939772       0.01998685       1.14494437
H       -1.97310067       1.56649569      -0.88991015
H       -1.75913129       1.05635008       2.06473057
H       -4.03604891       0.60804390      -1.73869062
H       -4.93382944       1.30837539      -0.38124852
H       -2.15114280      -1.72797270       0.17141054
H       -3.26406065       3.30413266       0.20540371
H        0.23379253       1.55376001      -0.92327615
H       -0.33346462       2.39218922       0.48427390
H       -1.37608500      -1.73601955       1.79669185
H        1.84099861       2.47180269       0.92622889
H       -3.66871360       2.73946155      -2.43041410
O        2.45373948      -2.23204706      -1.95856804
O        1.17890375      -3.12806312      -0.37801363
O        5.32272043      -1.32245616      -0.74926478
N        0.69014081      -0.75332660       0.63946137
N        4.42437404       0.74364553      -0.90873108
C        1.90298568      -0.85091665      -0.09872799
C        3.31451758      -0.86266356       0.50086894
C        1.77633391      -2.18059255      -0.80546881
C        4.45966080      -0.52113908      -0.43550098
H        1.93147668      -0.07218858      -0.82849299
H        3.28128384      -0.10442093       1.24810747
H        3.57282536      -1.82761981       0.93872145
H        0.20618725      -2.83825792       1.18768411
H        0.04996345      -3.56010279       2.63091244
H        3.75028495       1.39625735      -0.56342184
H        5.13409527       1.02504897      -1.56542756
H        2.40212292      -3.14478566      -2.29357968
O        0.10227707      -2.67908631       2.41960916
H        0.33918943       0.22633502       2.46880735
H       -0.42331646      -0.85483503      -2.66015880
44
Properties=species:S:1:pos:R:3 charge=0 multiplicity=1 source=products.log spin=1 pbc="F F F"
O       -2.36501334      -0.90841568      -0.05532010
O       -2.76700697       2.63390536       0.57149790
O       -1.78150579      -0.80047022       2.49966716
O       -4.22393878       2.50746055      -1.75286378
O       -0.40953686      -0.62938208      -1.75755650
O        1.75012079       2.14128006       0.15032800
C       -2.56887285       0.23532250       0.69172212
C       -2.74818531       1.44495133      -0.18493602
C       -1.43410791       0.33080913       1.54822117
C       -4.02451426       1.31664879      -0.99791550
C       -0.06271806       0.34406332       0.62324544
C        0.39553870       1.68368363       0.12100601
H       -3.50116675       0.11781849       1.29842802
H       -1.91897056       1.47196645      -0.88298902
H       -1.63214255       1.30224215       2.11172585
H       -3.98752365       0.42252179      -1.62203001
H       -4.87790812       1.23884345      -0.33148132
H       -2.09258085      -1.72184117       0.42439974
H       -3.22056026       3.29895869       0.04295619
H        0.32515644       1.54574127      -0.92857936
H       -0.29509011       2.47606422       0.42082474
H       -1.29878979      -1.55232460       2.08798982
H        1.87405234       2.56021701       0.97568022
H       -3.64168617       2.48223045      -2.51604560
O        2.48909010      -2.17578817      -1.94490883
O        1.21872439      -3.09828775      -0.38806282
O        5.33129647      -1.25414173      -0.66575188
N        0.68853461      -0.72702921       0.62320474
N        4.40678893       0.79142225      -0.93341720
C        1.90417292      -0.80222160      -0.09943443
C        3.30288280      -0.78414817       0.53092359
C        1.80129181      -2.13836435      -0.79284721
C        4.44940337      -0.45335418      -0.40510381
H        1.91427195      -0.02885500      -0.84751535
H        3.26363469       0.00775486       1.25224391
H        3.53183222      -1.73758222       1.01332593
H        0.04551081      -2.93855069       0.98618633
H       -0.52857750      -3.94355506       2.06043706
H        3.70216504       1.44762515      -0.66377083
H        5.12020107       1.05232859      -1.59596973
H        2.46388484      -3.08875810      -2.27853271
O       -0.39900482      -3.03575267       1.92882640
H        0.34885200      -0.02357687       2.29850777
H       -0.54800501      -1.01145998      -2.61631610
44
Properties=species:S:1:pos:R:3 charge=0 multiplicity=1 source=products.log spin=1 pbc="F F F"
O       -2.32227613      -0.91358345       0.04907557
O       -2.74071514       2.64516914       0.52953744
O       -1.72089044      -0.69792218       2.61456833
O       -4.20306467       2.39927934      -1.78164575
O       -0.42482279      -0.65178030      -1.75075606
O        1.78712739       2.17187613       0.19360948
C       -2.52829296       0.25551419       0.76218044
C       -2.71718922       1.42072698      -0.17063907
C       -1.39764300       0.42618844       1.62156145
C       -3.99521485       1.24739517      -0.97137906
C       -0.03080786       0.40965888       0.64649829
C        0.43079352       1.72408520       0.12404806
H       -3.45445332       0.16648703       1.37775654
H       -1.88805276       1.41542030      -0.87166639
H       -1.54749103       1.42524998       2.13975566
H       -3.95788427       0.32734100      -1.55615214
H       -4.84644340       1.19544183      -0.29991849
H       -2.06616342      -1.71124943       0.53400989
H       -3.19882355       3.28105875      -0.03115427
H        0.37371015       1.54141048      -0.92864468
H       -0.27440860       2.51555829       0.39539135
H       -1.25581830      -1.50490636       2.23342155
H        1.88675899       2.59507121       1.02699100
H       -3.62408628       2.34220323      -2.54497552
O        2.50734505      -2.16794157      -1.91596573
O        1.24688384      -3.09118371      -0.34087114
O        5.34087364      -1.20803995      -0.63902411
N        0.69192749      -0.70952373       0.59093106
N        4.39350575       0.82479873      -0.96046959
C        1.91575959      -0.77631594      -0.10146128
C        3.31094822      -0.72896379       0.54307156
C        1.81969977      -2.12972643      -0.76154095
C        4.45443227      -0.41072986      -0.41036575
H        1.91012739      -0.00882588      -0.86088103
H        3.26531098       0.08296260       1.25083688
H        3.52661383      -1.67377826       1.05359881
H       -0.03133065      -2.98479335       0.92861064
H       -0.89581448      -4.04610862       1.70101093
H        3.67527733       1.48035462      -0.71825767
H        5.10053759       1.07531948      -1.63416779
H        2.49441223      -3.08566513      -2.23639547
O       -0.72688050      -3.12413580       1.61348872
H        0.31667719      -0.23654509       2.13361200
H       -0.60015462      -1.10685214      -2.57723376
44
Properties=species:S:1:pos:R:3 charge=0 multiplicity=1 source=products.log spin=1 pbc="F F F"
O       -2.29802008      -0.90641166       0.11774366
O       -2.72120290       2.65333219       0.50293213
O       -1.66490362      -0.60281754       2.70672551
O       -4.19408533       2.32168159      -1.79446243
O       -0.43707349      -0.68426837      -1.73493811
O        1.80867607       2.19185585       0.23372225
C       -2.49904681       0.27857900       0.81480564
C       -2.69687101       1.40678979      -0.15904881
C       -1.35956405       0.50490842       1.68205106
C       -3.97903255       1.20068093      -0.94535878
C       -0.00170836       0.47828244       0.66943767
C        0.45458131       1.75337857       0.11814765
H       -3.41897546       0.21464464       1.43963343
H       -1.87121516       1.37498398      -0.86583582
H       -1.46478128       1.50510560       2.16327290
H       -3.94214071       0.25995030      -1.49686110
H       -4.82669431       1.17010483      -0.26774315
H       -2.06599876      -1.69609377       0.60046904
H       -3.18412171       3.26692670      -0.07980480
H        0.40111190       1.54161177      -0.93809521
H       -0.25889810       2.54228167       0.37504313
H       -1.27672163      -1.48608436       2.33715379
H        1.88833037       2.59821033       1.08603940
H       -3.62150638       2.23862994      -2.55977488
O        2.53077168      -2.17144978      -1.89595890
O        1.26288821      -3.09429915      -0.30380927
O        5.35264626      -1.16963135      -0.61905541
N        0.70113176      -0.68161997       0.51242847
N        4.39143880       0.85532466      -0.96705218
C        1.93466019      -0.75947931      -0.12153370
C        3.31648098      -0.68713742       0.55095683
C        1.83828157      -2.13457043      -0.74189079
C        4.46330337      -0.37556059      -0.40667613
H        1.91623203       0.00609267      -0.88477894
H        3.25946176       0.13376716       1.25913600
H        3.53401565      -1.62264154       1.07862520
H       -0.10389187      -3.02878911       0.88903556
H       -1.13206768      -4.06781571       1.48144615
H        3.66519650       1.50942485      -0.73537639
H        5.09387718       1.10131605      -1.64636266
H        2.52831474      -3.09377415      -2.20381493
O       -0.91458318      -3.14332272       1.43089410
H        0.21955340      -0.52064008       1.85693719
H       -0.62784928      -1.18145690      -2.53840434
44
Properties=species:S:1:pos:R:3 charge=0 multiplicity=1 source=products.log spin=1 pbc="F F F"
O       -2.42596100      -0.92302526       0.18136393
O       -2.70335838       2.67299910       0.51385070
O       -1.49856505      -0.55162917       2.71388500
O       -4.24531255       2.35314268      -1.74349023
O       -0.44588986      -0.68697257      -1.80229879
O        1.81115464       2.19501848       0.21849166
C       -2.51689913       0.30955661       0.85763820
C       -2.71597942       1.42266339      -0.14353794
C       -1.30634581       0.51009868       1.67620632
C       -4.02581322       1.23534922      -0.88918702
C        0.04467585       0.51731958       0.72306080
C        0.45914086       1.75211166       0.07143077
H       -3.39496137       0.27475729       1.52495922
H       -1.90756179       1.37660067      -0.87724750
H       -1.38433861       1.50317887       2.15043884
H       -4.01886633       0.29196030      -1.43812668
H       -4.85479738       1.22967492      -0.18374544
H       -2.19182519      -1.72944719       0.71263847
H       -3.17327395       3.29282760      -0.06143952
H        0.40739161       1.53322469      -0.98147093
H       -0.25604670       2.54133586       0.32196982
H       -1.12488175      -1.42705543       2.37397546
H        1.87293331       2.59564894       1.08093678
H       -3.69796961       2.25040399      -2.52691348
O        2.61139832      -2.17790390      -1.87283147
O        1.32575602      -3.12876610      -0.27866631
O        5.39373025      -1.14557090      -0.51300687
N        0.82828374      -0.63118153       0.65933457
N        4.42650892       0.86834057      -0.90597118
C        1.96975984      -0.75965131      -0.12577842
C        3.32227557      -0.66788902       0.59729475
C        1.90145647      -2.15641511      -0.72750629
C        4.49271017      -0.35633904      -0.32949292
H        1.95088029       0.00272859      -0.89736037
H        3.22715868       0.15334747       1.30227334
H        3.52919074      -1.59423734       1.14301151
H       -0.07740186      -3.09481046       0.93862989
H       -1.14529697      -4.07652523       1.55601057
H        3.68454077       1.51630785      -0.70499918
H        5.14199963       1.11254829      -1.57062398
H        2.62906164      -3.09968876      -2.18101081
O       -0.92428997      -3.15833610       1.46485186
H       -0.34382344      -0.90981070       0.53400298
H       -0.65054800      -1.23589018      -2.56155011
44
Properties=species:S:1:pos:R:3 charge=0 multiplicity=1 source=products.log spin=1 pbc="F F F"
O       -2.43761324      -0.93197184       0.22527897
O       -2.68795835       2.66544494       0.51720793
O       -1.31616674      -0.49057760       2.71888066
O       -4.30783002       2.33114721      -1.68648623
O       -0.45536194      -0.65758382      -1.92993700
O        1.80828900       2.18504607       0.22155799
C       -2.47763484       0.31279278       0.88141853
C       -2.71748348       1.41055418      -0.13528018
C       -1.22557313       0.51311743       1.66266256
C       -4.05027779       1.21605670      -0.83496135
C        0.06226332       0.48391421       0.72731297
C        0.46213346       1.74034842       0.03672449
H       -3.32376500       0.28880720       1.58451180
H       -1.93097657       1.37027266      -0.89805091
H       -1.30317110       1.51089671       2.13678229
H       -4.05840758       0.27080023      -1.38044201
H       -4.85485935       1.21242386      -0.09902467
H       -2.15108477      -1.70937943       0.78540938
H       -3.17431176       3.28086568      -0.04868650
H        0.41469905       1.53187677      -1.02044560
H       -0.25072963       2.53529507       0.27252327
H       -0.93305112      -1.33880672       2.37130696
H        1.85655792       2.58486958       1.08841910
H       -3.78574769       2.22592776      -2.48868719
O        2.63857138      -2.17144947      -1.86060344
O        1.31308068      -3.12284110      -0.29848781
O        5.37960325      -1.16801298      -0.38805585
N        0.76572690      -0.64220006       0.67579686
N        4.43954989       0.84865920      -0.82081077
C        1.94590182      -0.75908424      -0.11474777
C        3.27378341      -0.67093694       0.65156662
C        1.90004812      -2.15050554      -0.73632893
C        4.47636926      -0.37355185      -0.23506309
H        1.95705044      -0.00295239      -0.89879943
H        3.16184857       0.14674074       1.35606442
H        3.46173167      -1.59233935       1.20702800
H       -0.07475186      -3.04996152       0.93721904
H       -1.11007071      -4.01343771       1.61686112
H        3.68989341       1.49730342      -0.65081928
H        5.18037516       1.08900930      -1.45811153
H        2.66086829      -3.09136800      -2.17218035
O       -0.90733992      -3.09330786       1.47019366
H       -0.63941977      -0.97322555      -0.33549599
H       -0.67475867      -1.24867612      -2.65322077
44
Properties=species:S:1:pos:R:3 charge=0 multiplicity=1 source=Step1_IM2alluasp-rep.log spin=1 pbc="F F F"
O       -2.30147591      -0.93895531       0.17113561
O       -2.67031628       2.61981103       0.49868776
O       -1.03797742      -0.37172529       2.77222201
O       -4.35518901       2.23458138      -1.65011851
O       -0.49915797      -0.68023034      -1.99586405
O        1.81550324       2.18282463       0.27000280
C       -2.37908868       0.28553890       0.88627387
C       -2.68797894       1.35725156      -0.14695283
C       -1.10272482       0.54840745       1.71493730
C       -4.04056218       1.13252283      -0.80047744
C        0.12574380       0.49765447       0.82482351
C        0.47760068       1.74078735       0.01928875
H       -3.19796702       0.24950505       1.61411443
H       -1.92187787       1.32041482      -0.93580620
H       -1.19856905       1.54443963       2.15260817
H       -4.05341282       0.18511587      -1.34082199
H       -4.81664694       1.11247017      -0.03387056
H       -1.99495334      -1.66149076       0.75437045
H       -3.17833905       3.21847114      -0.06553536
H        0.42428631       1.50767048      -1.04468291
H       -0.23722137       2.53711918       0.23096759
H       -0.63883935      -1.19459324       2.44440491
H        1.85073431       2.57269488       1.14955458
H       -3.86373789       2.13944323      -2.47226986
O        2.57537281      -2.12507494      -1.86380921
O        1.20612218      -3.06029674      -0.37174194
O        5.31245357      -1.23067062      -0.29139986
N        0.76248498      -0.59440389       0.79146194
N        4.43770927       0.81426350      -0.71765662
C        1.89463510      -0.74207351      -0.09143785
C        3.20430917      -0.68040445       0.72421925
C        1.81401123      -2.09476724      -0.76783151
C        4.42528632      -0.41491958      -0.14090738
H        1.92618574       0.00057921      -0.88865854
H        3.09286434       0.13077978       1.44331695
H        3.36309880      -1.60717714       1.27210008
H       -0.11435269      -2.97533049       0.89723536
H       -1.11450644      -3.90126372       1.65055061
H        3.68443827       1.46834361      -0.57232208
H        5.19679549       1.04380861      -1.33460863
H        2.58449326      -3.03644250      -2.19290857
O       -0.91319266      -2.98081249       1.46303827
H       -1.13267671      -0.90682175      -1.28686404
H       -0.72336446      -1.24704475      -2.73876824
