44
Properties=species:S:1:pos:R:3:forces:R:3 charge=0 multiplicity=1 source=products.log spin=1 energy=-34183.27894106653 free_energy=-34183.27894106653 stress="0.042407187330183393 0.003105047314164608 -0.008658942988238548 0.003105047314164608 -0.03322669728715946 -0.019751769396310348 -0.008658942988238548 -0.019751769396310348 -0.007316882238648962" pbc="F F F"
O       -3.19133428       0.01509876      -1.30858861      -0.00190917       0.00056788       0.00017270
O       -3.18985716       1.58853254       1.92010301      -0.00282738      -0.00630563       0.00081010
O       -2.02428947      -1.98467381       0.50738410       0.00194777       0.00331082       0.00060134
O       -5.38747423       2.94155980       0.87568120       0.00360564      -0.00158239       0.00097447
O       -0.33602338      -0.74967539      -1.15799086      -0.00707340       0.00410042      -0.00213669
O        0.77120183       1.73873720      -0.73912579       0.00064442       0.00354094       0.00039070
C       -3.17122780       0.00592194       0.10796862       0.00235776       0.00038884      -0.00066633
C       -3.54107066       1.41712084       0.55657121      -0.00092440      -0.00318661       0.00086136
C       -1.88158682      -0.58254641       0.68081034       0.00207555       0.00189397      -0.00038273
C       -5.02984059       1.65509116       0.37526640       0.00033552      -0.00128964       0.00004045
C       -0.54366114      -0.10845016       0.08760996       0.00038198       0.00150837      -0.00110344
C       -0.47597702       1.39705873      -0.15514070       0.00297035       0.00059816       0.00256714
H       -3.94725164      -0.67191422       0.49035014       0.00582401       0.00010584       0.00117014
H       -3.00622326       2.14559027      -0.06419297      -0.00245671      -0.00323805       0.00110860
H       -1.86537437      -0.32876940       1.74695752       0.00330500       0.00256473      -0.00131845
H       -5.30928158       1.53041631      -0.67286699       0.00046568       0.00103039       0.00064020
H       -5.58469118       0.93414362       0.97758480      -0.00139254      -0.00281533      -0.00398345
H       -2.76671635      -0.79998866      -1.60586517      -0.00405604      -0.00011715      -0.00102152
H       -3.72529838       2.32433899       2.24571498       0.00181570      -0.00187269      -0.00194725
H       -1.24122203       1.65407663      -0.88424516       0.00350339      -0.00078816       0.00377114
H       -0.65990914       1.94201167       0.77416745      -0.00268619      -0.00075699       0.00129433
H       -1.16378265      -2.42072233       0.39797571       0.00239167       0.00472634       0.00661010
H        1.39392534       1.93385199      -0.02205563       0.00622517       0.00672941      -0.00529313
H       -5.14564557       3.60614114       0.22310662      -0.00400239      -0.00124813      -0.00171769
O        2.24981166      -2.62182449      -1.22894566      -0.00065755      -0.00691973       0.00261399
O        0.61133124      -3.21351479       0.17840233      -0.00751520      -0.00089919       0.00159228
O        4.86765956      -2.22222038       0.90142421       0.00288140      -0.00634006       0.00084619
N        0.50776069      -0.50943435       1.07309372       0.00318061       0.00137644      -0.00365597
N        4.57723863       0.02315074       1.01379040      -0.00175366      -0.00401860      -0.00128949
C        1.71830381      -1.10041036       0.51246200       0.00060860      -0.00137471      -0.00371636
C        2.73348654      -1.39904709       1.64084704      -0.00078438      -0.00163517      -0.00226363
C        1.43276289      -2.41223372      -0.19842208       0.00166534      -0.00000795      -0.00025333
C        4.16817838      -1.26401451       1.15606588      -0.00528764       0.00384957       0.00104753
H        2.15368799      -0.40152307      -0.19981537       0.00415508      -0.00371160      -0.00439826
H        2.56248279      -0.69371533       2.45339609       0.00064422      -0.00214605      -0.00030805
H        2.59596036      -2.40797113       2.02660499       0.00193384      -0.00165023      -0.00215016
H        0.11185071      -1.17447826       1.73132721       0.00564582       0.00363692      -0.00029780
H        1.38953020       1.00063298       1.81333994      -0.00089770       0.00759876       0.00674865
H        3.97846163       0.79350644       1.26892060       0.00077126      -0.00017468       0.00334295
H        5.50236666       0.19540011       0.66081451      -0.00105928      -0.00486785       0.00238993
H        2.07374965      -3.51207003      -1.57026753      -0.00443828      -0.00272367      -0.00615488
O        2.06798926       1.71674034       1.78292491      -0.00219497       0.00725882       0.00125859
H        1.86767375       2.32963756       2.49641725      -0.00920805       0.00546770       0.00089462
H        0.22106746      -0.15839516      -1.68515865       0.00178920      -0.00058395       0.00231103
44
Properties=species:S:1:pos:R:3:forces:R:3 charge=0 multiplicity=1 source=products.log spin=1 energy=-34183.264129985655 free_energy=-34183.264129985655 stress="-0.023537751743397294 -0.002302284853108485 0.009615716504159166 -0.002302284853108485 -0.0044575515742103795 0.005591896942981243 0.009615716504159166 0.005591896942981243 0.0036893077694157713" pbc="F F F"
O       -3.21426120      -0.11282249      -1.23195452       0.00066792       0.00405030      -0.00239999
O       -3.21826651       1.70287860       1.86670264       0.00029369      -0.00301659       0.00236540
O       -2.00875441      -1.96653609       0.68218818      -0.00056519      -0.00032199      -0.00465508
O       -5.35635117       3.01014692       0.63737593      -0.00167292      -0.00152850       0.00661269
O       -0.38055974      -0.74728361      -1.10615287       0.00074968       0.00041440      -0.00195583
O        0.84147859       1.73889825      -0.57204663      -0.00205761      -0.00092816      -0.00728532
C       -3.16578606      -0.00396068       0.17860972       0.00000435       0.00044554      -0.00186136
C       -3.52825404       1.43899019       0.50844382      -0.00061582      -0.00027557       0.00186733
C       -1.86831060      -0.55497666       0.77497599      -0.00010871      -0.00051571      -0.00263142
C       -5.00569260       1.68169028       0.25523154      -0.00102724      -0.00068328       0.00368806
C       -0.53402163      -0.11475431       0.15373500      -0.00014427       0.00024572      -0.00211240
C       -0.43176281       1.39340488      -0.05415119      -0.00109455       0.00008367      -0.00326854
H       -3.93637037      -0.64276804       0.63311485       0.00006537      -0.00121085      -0.00370346
H       -2.96508449       2.11442408      -0.14561808      -0.00156498       0.00162984       0.00280526
H       -1.84512319      -0.24728790       1.82703344       0.00007721      -0.00154547      -0.00227604
H       -5.24845551       1.47831853      -0.78937405      -0.00180525       0.00113478       0.00343413
H       -5.59476606       1.01872460       0.89074492       0.00003355      -0.00237823       0.00304609
H       -2.78418940      -0.94403982      -1.46980708       0.00285300       0.00552026      -0.00486042
H       -3.74085365       2.47636070       2.11686790      -0.00005323      -0.00380523       0.00453341
H       -1.16270545       1.67766613      -0.80833948      -0.00301973      -0.00075297      -0.00178670
H       -0.65494945       1.91863762       0.87800820       0.00170292       0.00094668      -0.00292650
H       -1.16292967      -2.40330883       0.49091601       0.00096604      -0.00059728      -0.00010788
H        1.42609849       1.92474136       0.17858363       0.00031131      -0.00038126      -0.00906306
H       -5.09713296       3.61259556      -0.06674317      -0.00266713       0.00007837       0.00750633
O        2.17322576      -2.66667409      -1.28619162      -0.00090801      -0.00075369       0.00067404
O        0.56797395      -3.23695243       0.16636575      -0.00035890      -0.00015509       0.00154902
O        4.93973892      -2.05669628       0.61534387      -0.00065613      -0.00096191       0.00472384
N        0.53121862      -0.56332748       1.10101766      -0.00009543       0.00159428      -0.00111078
N        4.51302646       0.14778840       0.92356941       0.00012444      -0.00093437       0.00612138
C        1.71705366      -1.14220460       0.47469694      -0.00009752      -0.00015898       0.00044354
C        2.80524810      -1.44331061       1.53465635      -0.00170992      -0.00071741       0.00206387
C        1.39167406      -2.44712380      -0.23102020      -0.00048720      -0.00037697       0.00091741
C        4.19783236      -1.17191694       0.98835013      -0.00074923      -0.00075447       0.00440266
H        2.10447381      -0.43432807      -0.25536174       0.00168070      -0.00102587       0.00040321
H        2.62834208      -0.80865022       2.40232500      -0.00311352      -0.00114504       0.00214810
H        2.76312699      -2.48271409       1.85562579      -0.00243566      -0.00086562       0.00153515
H        0.14339298      -1.25810006       1.73361209      -0.00031035       0.00309057       0.00055093
H        1.35467466       0.89605609       1.96435262       0.00192904       0.00314903      -0.00581080
H        3.90365350       0.85214325       1.31046728      -0.00095639      -0.00084552       0.00462871
H        5.40913494       0.40559967       0.54829027       0.00059603      -0.00100626       0.00727337
H        1.96697300      -3.54957729      -1.62979967      -0.00124131      -0.00081941       0.00093271
O        2.00179437       1.63930307       2.02522960       0.00288327       0.00277392      -0.00836161
H        1.74436948       2.18157531       2.77662766       0.00433371       0.00496304      -0.00923851
H        0.14881854      -0.15946239      -1.66209992       0.01024379      -0.00165876       0.00118896
44
Properties=species:S:1:pos:R:3:forces:R:3 charge=0 multiplicity=1 source=products.log spin=1 energy=-34183.19550183519 free_energy=-34183.19550183519 stress="-0.008286125205077339 -0.017956181372442693 0.02355374116758835 -0.017956181372442693 -0.005106606157123098 0.0368079389495508 0.02355374116758835 0.0368079389495508 0.03021805996428441" pbc="F F F"
O       -3.25529567      -0.27290696      -1.14064998      -0.00299740       0.00493296      -0.00082580
O       -3.20906362       1.82831995       1.77044652      -0.00002657      -0.00274746       0.00373023
O       -1.98516004      -1.95303446       0.84756507      -0.00207125      -0.00088661      -0.00403601
O       -5.30071187       3.06349578       0.41306541      -0.00300992      -0.00161476       0.00809295
O       -0.41246186      -0.75709126      -1.04505400       0.00001528      -0.00385086      -0.00151773
O        0.91013069       1.77472422      -0.32964390      -0.00488019      -0.00250444      -0.01438153
C       -3.16934135      -0.02151794       0.24983628      -0.00147497       0.00018759      -0.00075837
C       -3.50739602       1.45051577       0.43727688      -0.00205134      -0.00054329       0.00360935
C       -1.86285227      -0.53391870       0.86564456      -0.00100050      -0.00104395      -0.00271509
C       -4.97556779       1.70179939       0.14028948      -0.00260673      -0.00109086       0.00624560
C       -0.52976408      -0.11974142       0.22115173      -0.00116836      -0.00130312      -0.00288502
C       -0.39554892       1.39412202       0.05389254      -0.00285190      -0.00179910      -0.00605266
H       -3.93748704      -0.59842555       0.78444471      -0.00058898      -0.00143231      -0.00115953
H       -2.92249659       2.05235391      -0.26783447      -0.00379930       0.00132448       0.00387560
H       -1.84097355      -0.18812759       1.90503948       0.00016445      -0.00167343      -0.00248817
H       -5.20594884       1.42446871      -0.88969156      -0.00398580      -0.00020150       0.00637844
H       -5.58996156       1.10274223       0.81400085      -0.00125046      -0.00213768       0.00645712
H       -2.90986439      -1.16255321      -1.28684879       0.01604333       0.00788564      -0.00515800
H       -3.71773688       2.63185298       1.94302039      -0.00038998      -0.00355851       0.00595891
H       -1.06218357       1.70716348      -0.74950652      -0.00772160      -0.00318668      -0.00276035
H       -0.71292039       1.88912978       0.97562073       0.00199354      -0.00058604      -0.00501262
H       -1.19127924      -2.37813530       0.48454128       0.00017625      -0.00230288       0.00215482
H        1.41597507       1.94172814       0.48070192       0.00059665      -0.00203538      -0.01770751
H       -5.02069690       3.60361773      -0.33247881      -0.00447621      -0.00086577       0.00817100
O        2.21683306      -2.62968364      -1.31885957      -0.00346886      -0.00091454       0.00020172
O        0.58139941      -3.22607977       0.08896087      -0.00254473      -0.00037985       0.00158095
O        4.96870518      -2.02879605       0.47558099      -0.00140640       0.00148102       0.00366736
N        0.53560130      -0.61609125       1.13163859      -0.00088148       0.00155435      -0.00078895
N        4.51088338       0.17449790       0.73644303      -0.00280151       0.00072193       0.01295049
C        1.72195095      -1.13394278       0.45328560      -0.00096034      -0.00137945       0.00138953
C        2.85852219      -1.42611337       1.46256834      -0.00318189      -0.00359906       0.00330244
C        1.41219128      -2.42818641      -0.27710614      -0.00235876      -0.00080920       0.00102816
C        4.22293679      -1.15003095       0.85320357      -0.00219151      -0.00012339       0.00672598
H        2.05422938      -0.39318069      -0.26998264       0.00198696      -0.00232476       0.00177134
H        2.72287330      -0.78454810       2.33215793      -0.00587195      -0.00669454       0.00533245
H        2.83690512      -2.46339159       1.79276864      -0.00288940      -0.00488612      -0.00031767
H        0.15531196      -1.36311564       1.70732424      -0.00109293       0.00427664       0.00262182
H        1.29235503       0.78705822       2.15485870       0.00534092       0.00446216      -0.01120420
H        3.93294822       0.87487707       1.17190570      -0.00387342      -0.00129179       0.01569942
H        5.39575031       0.43591166       0.33740232      -0.00218354       0.00277192       0.01539225
H        2.02555480      -3.51038059      -1.67587329      -0.00468629      -0.00050428      -0.00028340
O        1.90882506       1.54234639       2.30426122       0.00857173       0.00354549      -0.01772163
H        1.60683024       2.00523086       3.09142577       0.01409819       0.00794906      -0.01792499
H       -0.20325791      -0.09579626      -1.71239171       0.03775717       0.01717851      -0.01063860
44
Properties=species:S:1:pos:R:3:forces:R:3 charge=0 multiplicity=1 source=products.log spin=1 energy=-34183.234080031405 free_energy=-34183.234080031405 stress="-0.0063683357073062805 0.03487763774047192 0.06568874191870229 0.03487763774047192 0.05509888421185101 0.033741562356418814 0.06568874191870229 0.033741562356418814 -0.0039631427801070694" pbc="F F F"
O       -3.16796939      -0.34809482      -1.14014006      -0.00666019      -0.00246867       0.00403762
O       -3.20293626       1.86202651       1.70403349      -0.00157226       0.00132459       0.00028969
O       -1.92325096      -1.92320988       0.91581441      -0.00053827      -0.00025061       0.00225806
O       -5.27412762       3.05877628       0.32666239      -0.00116017      -0.00028671      -0.00124897
O       -0.37458461      -0.67265889      -1.03260947      -0.00363199      -0.00176841       0.00043304
O        0.99558207       1.83846754      -0.11024819      -0.00263394      -0.00094455      -0.00293820
C       -3.12914450      -0.01979061       0.25200482      -0.00241608      -0.00104322       0.00279949
C       -3.47280057       1.45659795       0.37420209      -0.00170840      -0.00083643       0.00098993
C       -1.83046255      -0.50178878       0.90290754      -0.00104685      -0.00017720       0.00102582
C       -4.93764644       1.70206259       0.05041108      -0.00149471      -0.00072597       0.00010008
C       -0.49664029      -0.07821369       0.25420594      -0.00162477      -0.00049684       0.00007299
C       -0.33753717       1.44482634       0.13241623      -0.00211596      -0.00070732      -0.00067111
H       -3.91283818      -0.57895590       0.77603270      -0.00104972       0.00020035       0.00643760
H       -2.86803084       2.03721202      -0.33272227      -0.00157977      -0.00216913       0.00004735
H       -1.82883529      -0.14266738       1.93614277      -0.00000734       0.00053559       0.00079039
H       -5.15254846       1.43018426      -0.98443408      -0.00089671      -0.00147156       0.00020710
H       -5.55977984       1.09726428       0.71227238      -0.00214599      -0.00001408       0.00013340
H       -3.26833991      -1.30639852      -1.19491665       0.00996336       0.00060805       0.00323987
H       -3.71717883       2.66724330       1.85135279      -0.00157551       0.00154918      -0.00111970
H       -0.92228999       1.77653024      -0.72582360      -0.00336077      -0.00090460       0.00038534
H       -0.73760497       1.92537643       1.03066302      -0.00067033      -0.00055378      -0.00037460
H       -1.19214514      -2.31575855       0.40934030      -0.00119934      -0.00097659       0.00301408
H        1.40491141       2.00842971       0.75155123      -0.00085345      -0.00204886      -0.00380894
H       -4.98769657       3.60867616      -0.40924242      -0.00125455      -0.00121748      -0.00199336
O        2.31522681      -2.58609201      -1.33224496      -0.00185655       0.00442403      -0.00269929
O        0.64440492      -3.19863140       0.02515663       0.00034550       0.00086641      -0.00144969
O        4.99565788      -2.12113205       0.52016334      -0.00214459      -0.00305044       0.00149481
N        0.56113649      -0.62155483       1.12202177      -0.00087726       0.00053217       0.00052449
N        4.60694875       0.10766130       0.57267296       0.00070838      -0.00297879      -0.00056352
C        1.75476254      -1.09211635       0.42037284      -0.00083978       0.00105430       0.00042259
C        2.89711009      -1.36451747       1.42623940      -0.00115875      -0.00003769       0.00035257
C        1.47704578      -2.39146080      -0.31606029      -0.00076469       0.00201851      -0.00124457
C        4.27024351      -1.19047841       0.80123828      -0.00095568      -0.00216291       0.00051569
H        2.05562998      -0.33405609      -0.29801262      -0.00029072       0.00170867       0.00137044
H        2.79888075      -0.66024935       2.25149264      -0.00022627       0.00015288       0.00010918
H        2.83334941      -2.37572329       1.82651103      -0.00244048       0.00025559       0.00041164
H        0.18185474      -1.41039405       1.64019977      -0.00033659       0.00070586       0.00095335
H        1.21835202       0.73882509       2.30823346      -0.00038172      -0.00015157      -0.00124382
H        4.03133615       0.86575892       0.89581079       0.00215960      -0.00230608      -0.00053099
H        5.49720797       0.30768060       0.15177111       0.00180341      -0.00473524       0.00109683
H        2.14773157      -3.47176185      -1.68850289      -0.00127281       0.00475231      -0.00377160
O        1.77888535       1.50656678       2.56340779      -0.00030161      -0.00002900      -0.00281623
H        1.39134146       1.89155390       3.35461177       0.00181322      -0.00048518      -0.00189592
H       -1.19446889      -0.47484851      -1.51055728       0.03825077       0.01431041      -0.00514321
44
Properties=species:S:1:pos:R:3:forces:R:3 charge=0 multiplicity=1 source=products.log spin=1 energy=-34183.26571999399 free_energy=-34183.26571999399 stress="-0.06314684006653125 0.050189028056853754 0.0021645557138245297 0.050189028056853754 -0.008451876262060658 -0.016277603496980653 0.0021645557138245297 -0.016277603496980653 0.0026042018517337417" pbc="F F F"
O       -3.16604008      -0.42292256      -1.06981215       0.00238376       0.00461005      -0.00416582
O       -3.20847717       1.93704122       1.64621719      -0.00143187      -0.00215085       0.00213576
O       -1.93170983      -1.92397654       0.98372500      -0.00029404      -0.00094383      -0.00568070
O       -5.15639311       3.12687865       0.08915653      -0.00077698       0.00035120       0.00279003
O       -0.37821055      -0.62113233      -0.96185288       0.00301227       0.00132792      -0.00050836
O        1.08649195       1.82350880       0.29210949      -0.00059376       0.00094646       0.00046970
C       -3.12180874      -0.01660135       0.29978759       0.00044716       0.00062685      -0.00228172
C       -3.41991857       1.47218063       0.32596119      -0.00031538       0.00056729       0.00081806
C       -1.83489101      -0.50078006       0.97561385      -0.00001846      -0.00058777      -0.00220183
C       -4.85587999       1.74605803      -0.09205540      -0.00013743       0.00074315       0.00034710
C       -0.48605132      -0.08234490       0.35524433       0.00032779       0.00071471      -0.00048632
C       -0.27578816       1.44570427       0.32183317      -0.00038113       0.00077072       0.00063857
H       -3.92369481      -0.51890559       0.85380749       0.00005903      -0.00127361      -0.00417541
H       -2.75617120       1.99307563      -0.37582964      -0.00010193       0.00249349       0.00231122
H       -1.85218234      -0.15112451       2.01161212      -0.00092415      -0.00269572      -0.00133911
H       -5.02580054       1.42169930      -1.11974060       0.00075491       0.00257970      -0.00049200
H       -5.53274954       1.20027658       0.56753644      -0.00037059      -0.00087371      -0.00110649
H       -3.20470952      -1.38767937      -1.06704252      -0.00588851      -0.00561451       0.00024290
H       -3.69017249       2.77200488       1.72042639      -0.00157163      -0.00230408       0.00351595
H       -0.72827449       1.82987119      -0.59254465      -0.00063940       0.00125467       0.00107182
H       -0.78283752       1.89915199       1.17740074      -0.00023706      -0.00000478       0.00110595
H       -1.24474271      -2.30656196       0.41378335       0.00960803       0.00013401      -0.00328919
H        1.36505624       1.92239818       1.21683126      -0.00025596       0.00067638       0.00027332
H       -4.82858309       3.62060621      -0.66886927      -0.00042690       0.00197422       0.00384704
O        2.40132703      -2.57021252      -1.27422784       0.00420970      -0.00192968       0.00427789
O        0.70711295      -3.21408776       0.04002266      -0.00218197       0.00190216      -0.00043139
O        5.08620144      -2.04696313       0.61129180       0.00091365      -0.00038350       0.00549639
N        0.55211051      -0.69723342       1.18798343       0.00015688       0.00107909       0.00020822
N        4.52792459       0.05775408       0.00383762       0.00035181      -0.00412230      -0.00432702
C        1.75105422      -1.07212528       0.44152770       0.00032050       0.00090830       0.00054864
C        2.97022036      -1.19180007       1.37160367       0.00023111       0.00234538       0.00061634
C        1.53309097      -2.39202036      -0.27706562       0.00065476       0.00047322       0.00134165
C        4.29403446      -1.12822044       0.62812053       0.00048049      -0.00080483       0.00091611
H        1.93897369      -0.31093167      -0.30875506      -0.00021044       0.00029613      -0.00014662
H        2.93169129      -0.36250118       2.07926276       0.00075837       0.00416849      -0.00163101
H        2.94841651      -2.12416129       1.93508654      -0.00038552       0.00400553       0.00314893
H        0.17552393      -1.54248715       1.60995849       0.00036624       0.00121856       0.00060736
H        0.98868224       0.51317222       2.62524580      -0.00018581       0.00069232       0.00031958
H        3.85181015       0.80159478      -0.00109314       0.00066736      -0.00431489      -0.00686369
H        5.36560594       0.15319395      -0.54272878       0.00082063      -0.00669214      -0.00391950
H        2.25973361      -3.45822243      -1.63558436       0.00388699      -0.00209683       0.00470142
O        1.39637289       1.30594800       3.03707461      -0.00047580       0.00036391       0.00078366
H        0.84062628       1.55714743       3.78006614      -0.00101860       0.00018598       0.00018816
H       -1.19823213      -0.40510339      -1.43052402      -0.01158827      -0.00061681       0.00032425
44
Properties=species:S:1:pos:R:3:forces:R:3 charge=0 multiplicity=1 source=products.log spin=1 energy=-34183.22446451243 free_energy=-34183.22446451243 stress="-0.06421631884234334 0.0034742296342034564 -0.011359916430077815 0.0034742296342034564 0.05066185829010658 0.0074374754512968036 -0.011359916430077815 0.0074374754512968036 -0.03250953493211711" pbc="F F F"
O       -3.35731066      -0.80971752      -0.72040156       0.00063549      -0.00202819       0.00104803
O       -3.16915713       2.08915329       1.47145812      -0.00076189       0.00058840      -0.00234494
O       -1.91037197      -1.84035299       1.45519796       0.00059888       0.00044897       0.00084076
O       -5.12987530       3.05831554      -0.18774806      -0.00106631      -0.00195155      -0.00361000
O       -0.65101669      -0.60859722      -0.89413936       0.00008788       0.00418601       0.00076389
O        1.10134159       1.76966682       0.39400886      -0.00048561       0.00170294       0.00210778
C       -3.17702343      -0.07622487       0.48059881      -0.00021245      -0.00061763       0.00035664
C       -3.42600430       1.40940135       0.25479260      -0.00069438      -0.00099554      -0.00143920
C       -1.86271501      -0.45162448       1.17698580      -0.00024041       0.00052027       0.00108093
C       -4.86388306       1.65712165      -0.17169293      -0.00077646      -0.00189787      -0.00164252
C       -0.53453761      -0.10432964       0.45469563      -0.00022248       0.00183791       0.00165112
C       -0.26962428       1.41920985       0.43075451      -0.00049044       0.00183809       0.00429124
H       -3.95442428      -0.42784697       1.16544197      -0.00032656      -0.00029124       0.00037072
H       -2.76362932       1.78139235      -0.54021980      -0.00084605      -0.00190055      -0.00202269
H       -1.83704573       0.05322398       2.14373040      -0.00114317       0.00041405       0.00115518
H       -5.06682401       1.18979228      -1.13588135      -0.00080808      -0.00330176      -0.00096216
H       -5.53769987       1.23148273       0.57361671      -0.00061856      -0.00094543      -0.00094917
H       -2.52979449      -0.74025965      -1.22119335       0.00016936      -0.00068180       0.00064123
H       -3.65048786       2.92647600       1.42398191      -0.00083211       0.00049453      -0.00340631
H       -0.72583190       1.83468059      -0.46791326      -0.00241253       0.00387916       0.00621940
H       -0.75812675       1.87666614       1.29171163       0.00138082      -0.00001645       0.00633560
H       -2.19912536      -2.29057176       0.64936440       0.00009882       0.00054521       0.00098509
H        1.38976883       1.81829135       1.32096100       0.00121064       0.00050126       0.00164328
H       -4.80700701       3.42944474      -1.01449153      -0.00115576      -0.00306857      -0.00414972
O        2.18640439      -2.36094131      -1.53146266       0.00071489       0.00269022      -0.00049561
O        0.99164109      -3.35305419       0.08881351      -0.00109154       0.00223744      -0.00221091
O        4.96738889      -2.07073837       0.34081245      -0.00207921      -0.00458449       0.00065488
N        0.51577323      -0.79260138       1.19599221       0.00002263       0.00093038       0.00051953
N        4.51241650       0.11298678      -0.02932543       0.00205814      -0.00440244      -0.00318444
C        1.71723115      -1.07817494       0.41323049      -0.00023099       0.00160624      -0.00006231
C        2.96095772      -1.16654856       1.31404535      -0.00006669       0.00093646      -0.00039631
C        1.56479093      -2.38934163      -0.34083159      -0.00037997       0.00208743      -0.00103609
C        4.24457586      -1.11034637       0.50499356      -0.00020413      -0.00287775      -0.00084313
H        1.87794888      -0.27807039      -0.30316657      -0.00036327       0.00212446       0.00047880
H        2.93373641      -0.32674998       2.00863256       0.00160458       0.00208819      -0.00172360
H        2.95576653      -2.09356148       1.88565899      -0.00158120       0.00185311       0.00109617
H        0.12605731      -1.68130889       1.51091436       0.00005358       0.00060805      -0.00029600
H        0.95602405       0.35001628       2.70411182       0.00105114      -0.00066240       0.00139949
H        3.88847171       0.89221237       0.08691079       0.00389068      -0.00280568      -0.00405371
H        5.31514802       0.21094321      -0.62585355       0.00206798      -0.00710701      -0.00361617
H        2.13808120      -3.25488947      -1.90366764       0.00087209       0.00288387      -0.00100876
O        1.36133782       1.14900980       3.10646861       0.00142159      -0.00113509       0.00196389
H        0.83544368       1.38067196       3.87694312       0.00169250      -0.00168650       0.00234172
H        0.00995260      -0.18314030      -1.45243752      -0.00054149       0.00595523       0.00150836
44
Properties=species:S:1:pos:R:3:forces:R:3 charge=0 multiplicity=1 source=products.log spin=1 energy=-34183.2349309594 free_energy=-34183.2349309594 stress="0.0519945079182336 -0.033678241478736375 -0.05353595622832829 -0.033678241478736375 -0.013994587142257464 0.029829211261617417 -0.05353595622832829 0.029829211261617417 0.0032920832671236053" pbc="F F F"
O       -3.46946618      -0.92917860      -0.31615248      -0.00138592      -0.00049800       0.00177947
O       -3.06421951       2.29732662       1.30996496       0.00077664       0.00100879      -0.00094000
O       -1.91662529      -1.70153388       1.79672066      -0.00059168       0.00054326       0.00135525
O       -4.88525893       3.07596748      -0.57339848       0.00149372       0.00078864      -0.00184469
O       -0.84358001      -0.63252521      -0.80702049      -0.00141935      -0.00166594       0.00009053
O        1.21298944       1.64635405       0.81931278       0.00031358      -0.00083177      -0.00107854
C       -3.15195329       0.00727552       0.70365245      -0.00035947       0.00041625       0.00088793
C       -3.29595695       1.43791043       0.20697027       0.00034569       0.00022727      -0.00036011
C       -1.81671966      -0.35372716       1.37018186      -0.00016526       0.00030187       0.00049644
C       -4.69401799       1.68173175      -0.34099606       0.00055232       0.00075198      -0.00066146
C       -0.53331594      -0.14533500       0.52180699      -0.00045237      -0.00080325      -0.00036455
C       -0.12021237       1.36130860       0.44485834       0.00009756      -0.00089957      -0.00160606
H       -3.90733512      -0.13449680       1.48152103      -0.00011100       0.00154488       0.00151599
H       -2.56514274       1.63541035      -0.59228607       0.00053507      -0.00081758      -0.00059985
H       -1.70224780       0.25558420       2.26857568       0.00062298       0.00085384       0.00007846
H       -4.86913910       1.08977020      -1.23933908       0.00021994       0.00010254      -0.00025809
H       -5.42957927       1.39579615       0.41260038       0.00023067       0.00189889      -0.00042874
H       -2.71251731      -0.94271068      -0.92260312      -0.00175215      -0.00123535       0.00123267
H       -3.49106729       3.13840716       1.09589592       0.00105547       0.00111357      -0.00150939
H       -0.22973424       1.69444778      -0.58947225       0.00068370      -0.00177209      -0.00228181
H       -0.81428356       1.94885989       1.04729978      -0.00029323      -0.00012634      -0.00236185
H       -2.41644823      -2.17468930       1.11565817      -0.00165447       0.00037816       0.00196783
H        1.25077707       1.62356544       1.79104607       0.00012586      -0.00010569      -0.00091090
H       -4.52403245       3.30296899      -1.43544485       0.00269759       0.00001962      -0.00164292
O        2.21888809      -2.36670156      -1.62743480       0.00006730      -0.00034084      -0.00044194
O        1.06703457      -3.42592835      -0.01844491      -0.00090199      -0.00075962      -0.00134014
O        5.05246574      -1.67927623       0.08118193       0.00216745       0.00531247       0.00099720
N        0.50460594      -0.92931834       1.15148097      -0.00046879      -0.00083926      -0.00035189
N        4.25143029       0.42105004      -0.19156384      -0.00320922       0.00372454       0.00291273
C        1.68854916      -1.12275462       0.32226825      -0.00044774      -0.00093900      -0.00033378
C        2.97733018      -1.11450549       1.16284092      -0.00045231      -0.00142579      -0.00020276
C        1.59840828      -2.43408125      -0.43802469      -0.00049369      -0.00062021      -0.00073547
C        4.20303610      -0.84309518       0.30912665      -0.00034966       0.00276473       0.00107794
H        1.76415236      -0.31339755      -0.40027029      -0.00031209      -0.00076294      -0.00013458
H        2.87486093      -0.32491290       1.90711004      -0.00157824      -0.00351392       0.00190059
H        3.11389465      -2.06439813       1.67723854       0.00088826      -0.00261255      -0.00257716
H        0.10766824      -1.83491952       1.39672386      -0.00057405      -0.00075234      -0.00014881
H        0.79866303      -0.04574293       2.85942434       0.00173559       0.00324492       0.00841695
H        3.54923692       1.10574117       0.03762009      -0.00560747       0.00144204       0.00271658
H        5.02707170       0.67510656      -0.77772622      -0.00301237       0.00663453       0.00425342
H        2.21696635      -3.25858065      -2.00759294      -0.00007803      -0.00015142      -0.00089530
O        1.05753625       0.71547574       3.42149854       0.00294466      -0.00074363      -0.00139943
H        0.46829608       0.72752994       4.18081853       0.00943552      -0.00804391      -0.00582251
H       -0.18226581      -0.31461197      -1.43122548      -0.00131932      -0.00281198      -0.00044702
44
Properties=species:S:1:pos:R:3:forces:R:3 charge=0 multiplicity=1 source=products.log spin=1 energy=-34183.2244667813 free_energy=-34183.2244667813 stress="0.06876945465725996 -0.03301812366265044 0.004281570141958322 -0.03301812366265044 -0.009420453074822074 0.0011349281144253322 0.004281570141958322 0.0011349281144253322 -0.013890367105139988" pbc="F F F"
O       -3.43489062      -0.90741086      -0.44494813      -0.00041166      -0.00094262       0.00078097
O       -3.10047979       2.24887615       1.33099047       0.00039224       0.00015526      -0.00024791
O       -1.92779924      -1.74527477       1.68530710      -0.00064964      -0.00077826       0.00075738
O       -4.96628391       3.07233506      -0.49772990       0.00238858       0.00044608      -0.00246061
O       -0.78277862      -0.58871094      -0.83456408      -0.00026757       0.00016669       0.00079612
O        1.20227532       1.68512114       0.67366286       0.00056630      -0.00055219       0.00140632
C       -3.16815296      -0.01827472       0.63048962      -0.00019404      -0.00040321       0.00058810
C       -3.34097977       1.43063048       0.20005512       0.00071749      -0.00035552      -0.00019929
C       -1.84311123      -0.37935063       1.31581481      -0.00035906      -0.00062497       0.00090570
C       -4.75241554       1.67442249      -0.31236839       0.00120697       0.00024286      -0.00124408
C       -0.53940507      -0.11662406       0.51313396      -0.00013437      -0.00030938       0.00107633
C       -0.17278361       1.39769792       0.49035775      -0.00002494      -0.00013573       0.00189015
H       -3.93755932      -0.22091227       1.38081205      -0.00048448       0.00020956       0.00067738
H       -2.62975967       1.66953338      -0.60532192       0.00136201      -0.00103360       0.00005377
H       -1.76224909       0.19235821       2.24165284      -0.00061835      -0.00067301       0.00116138
H       -4.93847661       1.10736846      -1.22467702       0.00129343      -0.00038122      -0.00102534
H       -5.46836734       1.35706537       0.44760060       0.00051584       0.00134428      -0.00131970
H       -2.65577081      -0.88281533      -1.02228835      -0.00041860      -0.00093164       0.00052679
H       -3.54163917       3.09195131       1.15864351       0.00117445       0.00047591      -0.00110863
H       -0.45150024       1.80438196      -0.48346522      -0.00089356       0.00096501       0.00183848
H       -0.76762726       1.91623773       1.24184513      -0.00007206      -0.00048913       0.00301594
H       -2.37566508      -2.20658470       0.96160057      -0.00099903      -0.00069616       0.00065647
H        1.35663994       1.71409684       1.63074626       0.00086843      -0.00152620       0.00173606
H       -4.61958199       3.33169096      -1.35660151       0.00326853      -0.00045459      -0.00248222
O        2.22455754      -2.39760184      -1.57279683       0.00047436      -0.00015922       0.00027790
O        1.01280229      -3.40511033       0.02516888      -0.00231240       0.00025161      -0.00156509
O        5.04978099      -1.77297331       0.19049718       0.00170048       0.00310733      -0.00105506
N        0.49944747      -0.88705138       1.16683225      -0.00004601      -0.00058643       0.00073347
N        4.30841247       0.33322831      -0.17919320      -0.00319945       0.00132384      -0.00187275
C        1.68584270      -1.11333925       0.34756803      -0.00039935      -0.00046959       0.00010281
C        2.96544842      -1.12099032       1.20195561       0.00032113      -0.00114713      -0.00090657
C        1.57654585      -2.43218580      -0.39679919      -0.00098881      -0.00008331      -0.00048265
C        4.21375734      -0.91078062       0.36424378      -0.00034902       0.00132324      -0.00133081
H        1.78327334      -0.31547211      -0.38325803      -0.00069753      -0.00020880       0.00035241
H        2.87817108      -0.30918494       1.92434723       0.00064938      -0.00259924       0.00077160
H        3.06605265      -2.06050899       1.74343363       0.00150641      -0.00200925      -0.00258617
H        0.09614015      -1.78735164       1.42376483      -0.00009337      -0.00066188       0.00041550
H        0.91374188       0.70409837       4.24519183      -0.01083547       0.00705058      -0.00119643
H        3.60428482       1.03501874      -0.02136159      -0.00388939       0.00045466      -0.00074159
H        5.09450376       0.53964213      -0.77008194      -0.00292800       0.00329919      -0.00096304
H        2.20522207      -3.29389858      -1.94174065       0.00020014       0.00001799      -0.00012319
O        1.10310323       0.86013994       3.31696286       0.01022368      -0.00269412       0.00077462
H        0.84098445       0.06049063       2.81293214       0.00300253      -0.00105242       0.00084517
H       -0.13496845      -0.20281143      -1.43401298      -0.00056600       0.00112498       0.00077043
44
Properties=species:S:1:pos:R:3:forces:R:3 charge=0 multiplicity=1 source=products.log spin=1 energy=-34183.20928739143 free_energy=-34183.20928739143 stress="-0.6265260352390025 -0.01604100805414213 0.013019617671494024 -0.01604100805414213 0.03797802022353243 -0.26185380090273414 0.013019617671494024 -0.26185380090273414 0.03118029118444526" pbc="F F F"
O       -3.51483983      -0.97029748       0.08190994      -0.01578714       0.00309672       0.00260197
O       -3.01694241       2.49181226       1.07951262       0.00145141       0.00105744      -0.00070689
O       -1.80881926      -1.39358398       2.14623668      -0.00661959      -0.01438655      -0.01297052
O       -4.89917014       2.93247209      -0.86486175      -0.00040985       0.00544404       0.00147869
O       -1.03164040      -0.49706768      -0.77844217      -0.00297455      -0.00817002       0.00293805
O        1.21566607       1.64604139       1.04481487      -0.00970351      -0.01009911       0.03325069
C       -3.12038414       0.13467564       0.88549129      -0.00315456       0.00167400       0.00061056
C       -3.28460978       1.45595509       0.14830802      -0.00245966       0.00156359       0.00012575
C       -1.74057976      -0.13255427       1.50152786      -0.00081155      -0.00884095      -0.00444593
C       -4.69817197       1.60195265      -0.39198588      -0.00361789       0.00505512       0.00230197
C       -0.53925119      -0.06936478       0.51558532       0.00014661      -0.00821031      -0.00185362
C        0.00010454       1.38619686       0.37022310       0.00412516      -0.01151425       0.00155894
H       -3.81974094       0.15213080       1.72547940       0.00099359       0.00656498       0.00435418
H       -2.57937008       1.51044683      -0.69311500      -0.00426504      -0.00033989      -0.00165182
H       -1.54888854       0.60843625       2.27979769       0.00620210      -0.01353862      -0.00104456
H       -4.89513625       0.86011879      -1.16628931      -0.00781505       0.00526333       0.00294379
H       -5.41351723       1.45502210       0.41861923      -0.00306506       0.00810373       0.00342574
H       -2.83632385      -1.06428958      -0.60438241      -0.02104968      -0.00156581      -0.00185795
H       -3.45470908       3.28449368       0.74007751       0.00408486       0.00266265      -0.00076850
H        0.19667250       1.58214210      -0.68664129       0.03374124      -0.01582516       0.00177402
H       -0.77608333       2.08556312       0.68716957      -0.00692222      -0.00996327      -0.02024463
H       -2.41206733      -1.93972678       1.62126396      -0.03291073      -0.00129656      -0.00722976
H        1.07630183       1.58485222       2.00115037      -0.02784685      -0.05778857       0.04645079
H       -4.54259260       3.00401229      -1.75546895      -0.00184443       0.00361531       0.00069488
O        2.29014593      -2.30366482      -1.73862783       0.00390756       0.00255763       0.00447355
O        1.05363300      -3.39290687      -0.21471215      -0.00930504       0.00724735      -0.00192408
O        5.05632748      -1.54990117       0.05554960       0.01383561       0.00821505      -0.01878920
N        0.47427376      -0.94454107       1.02869440       0.00883159      -0.00030987       0.00742643
N        4.19621666       0.53842705      -0.13897562       0.00132063       0.00464648      -0.00593358
C        1.66051384      -1.09907599       0.20527565       0.00906358       0.00081596       0.00611239
C        2.92706679      -1.09982347       1.08176174       0.01643184      -0.00691843      -0.00098441
C        1.60769829      -2.39394020      -0.58617002       0.00095632       0.00420932       0.00214775
C        4.17398753      -0.75225067       0.29482654       0.01096498       0.00299724      -0.00921234
H        1.73696369      -0.27075053      -0.49906334       0.00814600       0.00404911       0.01062377
H        2.77074619      -0.35042714       1.85623825       0.02249522      -0.01492233       0.00961854
H        3.06460774      -2.06918920       1.55798991       0.02639542      -0.01211278      -0.01135289
H        0.06402927      -1.84435078       1.25932793      -0.01395767      -0.03420293      -0.04350994
H        0.53139898      -0.28413247       4.33934113      -0.00399366       0.07426819       0.00172591
H        3.50480958       1.20163218       0.17349624       0.00657075       0.00425796       0.01534266
H        5.01222772       0.86148234      -0.62854256       0.00042547       0.01277828      -0.00304483
H        2.31786688      -3.18887229      -2.13349699      -0.00362178       0.00375777       0.00041968
O        0.95662091       0.15238900       3.59507644      -0.00644094       0.07443707       0.00007259
H        0.75950471      -0.40248545       2.81289304       0.01335456      -0.00762872      -0.01542064
H       -0.34580345      -0.36589133      -1.44246105      -0.00486804      -0.01070423       0.00047261
44
Properties=species:S:1:pos:R:3:forces:R:3 charge=0 multiplicity=1 source=products.log spin=1 energy=-34181.747595071465 free_energy=-34181.747595071465 stress="-8.054566801151518 1.1328462478813082 -2.7257341839982074 1.1328462478813082 1.9537998733468778 0.15764454189826096 -2.7257341839982074 0.15764454189826096 2.1322805834588947" pbc="F F F"
O       -3.29105576      -1.02008456       0.13825874      -0.18119992      -0.02790573       0.02924397
O       -3.02084886       2.51257024       1.03006027      -0.03829733      -0.01616077       0.00905334
O       -1.69105679      -1.11910423       2.40831284      -0.02433541       0.01965739      -0.06744919
O       -4.89203889       2.80426766      -0.96056525      -0.03359966       0.02128234      -0.02534114
O       -1.02142815      -0.35505805      -0.80678660      -0.46933120       0.66606069       0.21097836
O        1.35085288       1.78361248       0.62229004      -0.01691740      -0.27739236       0.15601186
C       -3.06404821       0.13817418       0.91808188      -0.12195172      -0.00692652      -0.01652078
C       -3.24522954       1.43038124       0.13394776      -0.06650255       0.00173705      -0.01478964
C       -1.71032236       0.03877060       1.59646712      -0.05721209      -0.06605715      -0.18150353
C       -4.64747053       1.50454471      -0.42761746      -0.05353621       0.02275908      -0.01631483
C       -0.53896487       0.05576747       0.55026173      -0.33282673      -0.26443213      -0.66600549
C       -0.02662513       1.54402198       0.34344271      -0.00976095      -0.10951886      -0.11305515
H       -3.81097829       0.12236623       1.71354260      -0.06746678       0.04289023       0.03492907
H       -2.52470794       1.47525429      -0.69181510      -0.05488179      -0.00587447       0.00323882
H       -1.60771072       0.87320102       2.29795261       0.16049042      -0.01551720      -0.23786066
H       -4.79802797       0.71791146      -1.16753548      -0.04705578       0.01637802      -0.01140467
H       -5.36267480       1.36347398       0.38366583      -0.05623951       0.02753136      -0.01849988
H       -2.55295328      -1.06984680      -0.49643583      -0.20173009      -0.01896193      -0.00356661
H       -3.48820674       3.27155429       0.65506073      -0.00415071       0.00466101       0.00827936
H       -0.19213483       1.76653207      -0.70863444       0.10104248       0.16428621      -0.10016196
H       -0.65160116       2.24161125       0.90595148      -0.00731360      -0.18687332       0.00480838
H       -1.93552361      -1.86206925       1.83798692      -0.13161308      -0.03355252       0.03171607
H        1.43936438       2.37831502       1.37149217      -0.10658293      -0.04412759       0.02105268
H       -4.52475209       2.84835845      -1.84834220      -0.00414138       0.01085836      -0.01406163
O        2.25012393      -2.27760598      -1.85368543      -0.04496083       0.07637914       0.13119307
O        1.16487385      -3.47916734      -0.30080764      -0.06096532      -0.03759328       0.04358927
O        4.85014472      -1.65546861       0.30087412       0.18807203       0.00362679      -0.09359659
N        0.33607591      -0.96191102       0.90099306       0.33644274      -0.08708572       0.82439095
N        4.16564334       0.48981493       0.00056221       0.07682860      -0.01428871      -0.04310862
C        1.52135356      -1.11232919       0.09646364       0.06612045      -0.07073475       0.29417604
C        2.67871604      -1.03319852       1.07908221       0.25416639      -0.05440243       0.07700997
C        1.58776950      -2.42696163      -0.68360080      -0.02660544      -0.01908281       0.14356263
C        4.00626695      -0.79381129       0.42980116       0.16896547      -0.02457763      -0.02862195
H        1.61792122      -0.30798171      -0.64564726      -0.14671567      -0.03587258       0.29714614
H        2.43131530      -0.19835031       1.72830602       0.23191255      -0.03865388       0.05084575
H        2.67310876      -1.94544868       1.66666895       0.27770042      -0.04097544       0.09399083
H        0.26336484      -1.35776007       1.86825386       0.40562746       0.13543856      -1.87709785
H        0.53751337      -1.36979206       4.30547082      -0.35971254       0.48075211      -0.33755171
H        3.40000552       1.14486466       0.03352965       0.05110582      -0.04365378       0.01905732
H        4.99826905       0.71631463      -0.51165519       0.04457295       0.03250808      -0.07404076
H        2.38929049      -3.16576367      -2.22094676      -0.05798034       0.09018937       0.05399756
O        1.05740567      -0.99579516       3.58383372       0.27868921       0.43727183      -0.15357098
H        0.55546146      -0.33790518       3.04996138       0.21342258      -0.68702030       1.42063606
H       -0.30773785      -0.22510279      -1.44209883      -0.07157265      -0.02702560       0.13521576
44
Properties=species:S:1:pos:R:3:forces:R:3 charge=0 multiplicity=1 source=products.log spin=1 energy=-34181.249548204665 free_energy=-34181.249548204665 stress="-0.003103695953457216 -0.0495421131692699 -0.06261559418638231 -0.0495421131692699 0.19931560608341614 -0.05790222347705792 -0.06261559418638231 -0.05790222347705792 -0.3529877485432126" pbc="F F F"
O       -3.14882807      -0.99907134       0.12055786       0.00043872      -0.00292752       0.00159610
O       -2.99091948       2.52658792       1.01896083       0.00031197      -0.00147007      -0.00306340
O       -1.67119945      -1.13120646       2.46414310       0.00106198      -0.00217928      -0.00105799
O       -4.86523198       2.78351624      -0.94649494       0.00063890      -0.00475874      -0.00462569
O       -0.65478296      -0.87611029      -0.97141590      -0.00198795       0.00547038      -0.00333678
O        1.36515199       2.00127148       0.50221951       0.00164501      -0.00134537       0.00234524
C       -2.96818146       0.14470370       0.93281501       0.00026051      -0.00173226       0.00027118
C       -3.19304188       1.42809931       0.14422170       0.00031075      -0.00276723      -0.00153881
C       -1.66492422       0.09287359       1.74151828       0.00042844      -0.00122786       0.00007186
C       -4.60531950       1.48417277      -0.41661398       0.00031949      -0.00365839      -0.00164009
C       -0.27697096       0.26669418       1.07465261       0.00002577      -0.00049243      -0.00036217
C       -0.01826723       1.63190683       0.43431626       0.00098412       0.00094100       0.00292116
H       -3.75780771       0.09202583       1.68827986       0.00020754      -0.00088255       0.00035665
H       -2.48158369       1.47692729      -0.69570079       0.00036715      -0.00405392      -0.00162119
H       -1.73338157       0.88847859       2.48572017       0.00026862      -0.00183879       0.00087194
H       -4.76088383       0.70040231      -1.15808687       0.00007728      -0.00534332       0.00014344
H       -5.31862580       1.34191035       0.39663601       0.00035221      -0.00161070      -0.00124057
H       -2.39546376      -1.05689263      -0.48933890      -0.00092241      -0.00173016      -0.00030293
H       -3.48416346       3.26849592       0.64201417       0.00116664      -0.00171887      -0.00474056
H       -0.27029506       1.63983012      -0.62764991      -0.00030743       0.00444463       0.00318648
H       -0.64453826       2.39005503       0.90457725       0.00257637       0.00060400       0.00573557
H       -1.83721665      -1.83246161       1.81752817      -0.00083358      -0.00163220      -0.00192975
H        1.52443128       2.41296627       1.35734569       0.00358442      -0.00507790       0.00401366
H       -4.52117435       2.83285505      -1.84331411       0.00008255      -0.00718435      -0.00501576
O        2.28564304      -2.32766839      -1.95864862       0.00356365       0.01044664      -0.00822409
O        1.20966831      -3.44515381      -0.33811721      -0.00805330       0.00218842      -0.02006228
O        4.70167077      -1.65932721       0.37288132      -0.00109760      -0.00635070       0.00139097
N        0.07209442      -0.89463843       0.25477546      -0.00154583       0.00112977      -0.00352497
N        4.10597886       0.49990870       0.03435750       0.00047983      -0.00583548       0.00244937
C        1.46846953      -1.04766468      -0.13478757      -0.00183043       0.00123276      -0.00418871
C        2.47909081      -0.99231211       1.01818947      -0.00260856      -0.00623050      -0.00280370
C        1.60671718      -2.41634013      -0.80001112      -0.00298663       0.00440086      -0.01161704
C        3.87425169      -0.77594421       0.45114416      -0.00114075      -0.00634224       0.00034083
H        1.73351307      -0.27932376      -0.87735192      -0.00041050       0.00487102      -0.00017873
H        2.25026497      -0.16952580       1.68879023      -0.00135625      -0.00869653       0.00087423
H        2.45514026      -1.91442448       1.59125957      -0.00574444      -0.00887189      -0.00669797
H       -0.05673267      -1.46472473       3.34317645      -0.03033128       0.04447396       0.02061168
H        0.82141207      -1.75553591       4.57111534       0.03397344      -0.01049609       0.04156621
H        3.36102805       1.17864772       0.01915964       0.00093999      -0.00528434       0.00185223
H        4.96404170       0.68970458      -0.45382513       0.00170116      -0.00564263       0.00458391
H        2.43366673      -3.23504211      -2.26662250       0.00318639       0.01175935      -0.01270033
O        0.83899875      -1.34350393       3.70403073       0.00398396       0.02061302       0.00726159
H        0.39027564       0.19818796       1.93502685       0.00046115      -0.00281707      -0.00087313
H       -0.25323278      -0.20218301      -1.54703179      -0.00224129       0.00762344      -0.00109780
44
Properties=species:S:1:pos:R:3:forces:R:3 charge=0 multiplicity=1 source=products.log spin=1 energy=-34181.21782582076 free_energy=-34181.21782582076 stress="0.027991801425952093 -0.08027093072462183 -0.011728236946699168 -0.08027093072462183 -0.032641374872783104 0.030963606157252556 -0.011728236946699168 0.030963606157252556 0.05659236727976744" pbc="F F F"
O       -3.15901837      -0.96471080       0.27007417       0.00017213      -0.00072333       0.00840736
O       -2.97571853       2.61102046       0.93717087       0.00103600       0.00200554      -0.00628685
O       -1.70386775      -0.95438061       2.62101495       0.00061796       0.00630393       0.00598150
O       -4.85207802       2.76453913      -1.02366646       0.00108178      -0.00585698      -0.00701622
O       -0.66060274      -0.94662179      -0.80810289      -0.00163689       0.00205714       0.00412480
O        1.36642686       2.05628342       0.50548750       0.00169347       0.00160294       0.00186730
C       -2.96374226       0.23258801       0.99894824       0.00071047       0.00234730       0.00343097
C       -3.17823000       1.46324865       0.12870273       0.00101428      -0.00124163      -0.00167320
C       -1.66452161       0.21348511       1.81711828       0.00079435       0.00452962       0.00340796
C       -4.58994677       1.49017897      -0.43799088       0.00099488      -0.00348511      -0.00182604
C       -0.26641305       0.32966695       1.15482929       0.00069478       0.00287384       0.00302514
C       -0.00908222       1.65930733       0.44011510       0.00140600       0.00249709       0.00245685
H       -3.75412376       0.24173061       1.75543658       0.00071218       0.00579019       0.00346707
H       -2.46378916       1.45953809      -0.71004890       0.00111665      -0.00476337      -0.00157943
H       -1.72581838       1.06279670       2.50065388       0.00092072       0.00631175       0.00127602
H       -4.74189983       0.67485714      -1.14539379       0.00093777      -0.00636371       0.00149468
H       -5.30513656       1.38071093       0.37864898       0.00101566      -0.00013740      -0.00136603
H       -2.40181480      -1.07796115      -0.32761381      -0.00140841      -0.00292123       0.00851719
H       -3.47744631       3.32727732       0.52332569       0.00140120       0.00045538      -0.00946706
H       -0.24556260       1.59599615      -0.62390957       0.00092659       0.00228480       0.00252869
H       -0.65335309       2.43565466       0.85229378       0.00201398       0.00309113       0.00228964
H       -2.00975870      -1.67221591       2.04699242      -0.00441629       0.00653304       0.00950334
H        1.49695204       2.56006546       1.31461931       0.00211769       0.00264708       0.00122068
H       -4.51108115       2.77609094      -1.92289057       0.00015557      -0.00988606      -0.00744411
O        2.15448546      -2.46735574      -1.78269329      -0.00312647       0.00349890      -0.00007118
O        1.34387148      -3.42952905       0.07556666      -0.00093911       0.00224923       0.00079987
O        4.69844026      -1.53724336       0.29371076      -0.00128647      -0.00072353      -0.00141382
N        0.09123099      -0.87253966       0.40113165      -0.00031751       0.00237521       0.00331352
N        4.10903289       0.62587803      -0.03669416       0.00116300       0.00015402      -0.00015937
C        1.48288439      -1.02274603      -0.01526949      -0.00076990       0.00253644       0.00171467
C        2.53869152      -0.83332476       1.08219682       0.00032733       0.00176953       0.00091143
C        1.62868123      -2.44729243      -0.54809184      -0.00154359       0.00279812       0.00073359
C        3.89372415      -0.63814733       0.41893328      -0.00004936       0.00031259      -0.00031728
H        1.70052000      -0.32076598      -0.83581803      -0.00152624       0.00300274       0.00183199
H        2.31026259       0.04063630       1.68371913       0.00160883       0.00229084       0.00074099
H        2.58028009      -1.70116306       1.73104140      -0.00007265       0.00187325       0.00117533
H        0.82941417      -2.79258018       2.73299233       0.00775082      -0.02231436      -0.01505554
H       -0.07284951      -1.72739190       3.33304453      -0.00965858      -0.00503783      -0.01835069
H        3.36724302       1.30785558      -0.01962667       0.00188307       0.00092710       0.00041426
H        4.93417901       0.79692863      -0.58506589       0.00082506      -0.00079546      -0.00103596
H        2.30962885      -3.39648934      -2.01286758      -0.00335715       0.00362866      -0.00084582
O        0.79966935      -2.13648046       3.43927687      -0.00176743      -0.01862960      -0.00795356
H        0.39537148       0.29742835       2.02300510       0.00090015       0.00271915       0.00291550
H       -0.27639229      -0.31365666      -1.43990451      -0.00411649       0.00141293       0.00431173
44
Properties=species:S:1:pos:R:3:forces:R:3 charge=0 multiplicity=1 source=products.log spin=1 energy=-34181.61906645267 free_energy=-34181.61906645267 stress="0.01043408844134981 -0.13209116573939558 -0.2074980422446087 -0.13209116573939558 -0.5025466450009273 0.24442195163076422 -0.2074980422446087 0.24442195163076422 0.10608470588597038" pbc="F F F"
O       -3.01451356      -0.83793141       0.04131178       0.00974601       0.00686314      -0.00812512
O       -3.01210533       2.67271588       0.87972844      -0.00176552       0.00551166      -0.00952831
O       -1.80874260      -0.95274903       2.44862559      -0.00527074       0.00597613      -0.00539566
O       -4.84369833       2.80798044      -1.14353394       0.00219947      -0.00271443      -0.01484975
O       -0.50347562      -0.64767185      -0.97129855       0.00760441       0.02259465      -0.00781001
O        1.39069214       2.14232694       0.55613338       0.00331860       0.00752859       0.00470836
C       -2.93343905       0.31017785       0.88606273       0.00274346       0.00679614      -0.00456757
C       -3.15879902       1.54231768       0.03534306       0.00249437       0.00365988      -0.00804842
C       -1.66880656       0.27120587       1.74883203       0.00074121       0.00799680      -0.00171752
C       -4.55855329       1.53877636      -0.55961584       0.00356974      -0.00045859      -0.01071274
C       -0.25504125       0.40503002       1.13161793       0.00135562       0.00826275       0.00058034
C        0.01208044       1.74946990       0.45241715       0.00274496       0.00881360       0.00233012
H       -3.75394270       0.26612657       1.61353707       0.00075908       0.00649891      -0.00626273
H       -2.42108557       1.57182029      -0.77916482       0.00455586       0.00298551      -0.00604597
H       -1.75605353       1.10727335       2.45198540      -0.00124224       0.00883510      -0.00247611
H       -4.67580447       0.72371184      -1.27469829       0.00636454      -0.00271870      -0.00870148
H       -5.28582283       1.40784964       0.24364795       0.00229851       0.00064086      -0.01161939
H       -2.82739595      -1.58371525       0.63126507      -0.03185858      -0.03642582       0.08086425
H       -3.50986974       3.38839289       0.46159491      -0.00111562       0.00398400      -0.01277108
H       -0.19578733       1.66525376      -0.61193635       0.00450288       0.00704550       0.00237435
H       -0.63468599       2.52245831       0.86710271       0.00318588       0.00923496       0.00220338
H       -0.95676370      -1.42592806       2.50617999       0.07729278       0.02108879       0.03664542
H        1.50184194       2.64025350       1.37113641       0.00242141       0.00737977       0.00488808
H       -4.44852771       2.84497522      -2.01983692       0.00586694      -0.00398155      -0.01346780
O        2.17905637      -2.56875649      -1.64951835       0.00209204      -0.00112678       0.00737941
O        1.28674386      -3.35190245       0.24491018      -0.00860902       0.00778908       0.00598079
O        4.70154737      -1.46668437       0.36196853      -0.00098946       0.00295712       0.00606021
N        0.09203280      -0.76735875       0.32660494      -0.00075375       0.00974201      -0.00268973
N        4.12087354       0.69197470      -0.02339701       0.00186020       0.00317544       0.00175651
C        1.49978259      -0.96386019      -0.01901643      -0.00026938       0.00701445      -0.00001793
C        2.53176285      -0.73651454       1.09746364      -0.00135248       0.00703027       0.00131588
C        1.62201075      -2.42124947      -0.44854068      -0.00266188       0.00563892       0.00401650
C        3.89712541      -0.56139012       0.45388556      -0.00021336       0.00416171       0.00321746
H        1.74694414      -0.32666200      -0.87344979       0.00137172       0.00412132      -0.00131528
H        2.29111130       0.16454738       1.65168779      -0.00084170       0.00896852      -0.00143881
H        2.57063938      -1.57742180       1.78238942      -0.00315139       0.00833687       0.00327546
H        0.70875661      -2.87076321       2.07798152      -0.01393303      -0.00800685      -0.05703883
H        0.35490614      -2.99672072       3.58975274       0.03121720      -0.10506644       0.00914496
H        3.37063267       1.36637752      -0.04071178       0.00208443       0.00355321      -0.00073862
H        4.93997944       0.84282748      -0.58669029       0.00194493       0.00104724       0.00130811
H        2.29450560      -3.51872136      -1.80559462      -0.00108598      -0.00242330       0.01088441
O        0.52418960      -2.36173813       2.88922461      -0.02347590      -0.02438477      -0.04533098
H        0.38761408       0.34447133       2.01421137       0.00049313       0.00638167       0.00127174
H       -1.43317251      -0.89940877      -0.82519628      -0.08623943      -0.04430727       0.05046416
44
Properties=species:S:1:pos:R:3:forces:R:3 charge=0 multiplicity=1 source=products.log spin=1 energy=-34181.795190224904 free_energy=-34181.795190224904 stress="-0.10808112744895197 -0.09011604920199873 0.04683578451163346 -0.09011604920199873 0.04656645308873181 -0.043758563491414396 0.04683578451163346 -0.043758563491414396 0.10730887258759257" pbc="F F F"
O       -2.98897827      -0.92379799       0.68286397       0.00506335      -0.00013662      -0.00342970
O       -2.98962366       2.68451189       0.60501916      -0.00106408      -0.00220926       0.00282541
O       -1.52261165      -0.46849061       2.95352379       0.00427075       0.00104081      -0.00220883
O       -4.62277696       2.23990911      -1.56446996      -0.00372141      -0.00243155       0.00567187
O       -0.70025771      -0.61414861      -0.68270913       0.00462145       0.00048709      -0.00226668
O        1.48569524       2.26491798       0.54251679       0.00029360       0.00137649      -0.00405755
C       -2.85263716       0.40311028       1.19511346       0.00204173      -0.00186336      -0.00072134
C       -3.05834852       1.37867832       0.05017078      -0.00100675      -0.00091857       0.00180672
C       -1.54368855       0.56455235       1.98378192       0.00197809       0.00006122      -0.00183571
C       -4.40173983       1.18265860      -0.63164255      -0.00198002      -0.00155668       0.00461575
C       -0.18775428       0.62444378       1.25654028       0.00166793       0.00116887      -0.00233354
C        0.09668045       1.89952273       0.45936998       0.00032543       0.00084501      -0.00293669
H       -3.65317158       0.58097467       1.92290700       0.00213326      -0.00534764      -0.00037945
H       -2.26742765       1.24278539      -0.69757673      -0.00228108       0.00101729       0.00048689
H       -1.63437200       1.51022675       2.52554609       0.00082103      -0.00024102      -0.00217822
H       -4.45513329       0.20341321      -1.10918129      -0.00261287      -0.00096163       0.00509269
H       -5.20211062       1.25807099       0.10601113      -0.00065953      -0.00205728       0.00542141
H       -2.83244299      -1.51459872       1.43423428       0.00686643      -0.00241948      -0.00624739
H       -3.42412607       3.26947150      -0.03034022      -0.00190807      -0.00227357       0.00431475
H       -0.10926578       1.73735204      -0.59694840      -0.00052389       0.00044368      -0.00265359
H       -0.53483071       2.71941235       0.80112507       0.00028645       0.00057493      -0.00254826
H       -0.97502111      -1.21843774       2.65078565      -0.00030277       0.00066497      -0.00066936
H        1.60983880       2.80033144       1.33180683       0.00038968       0.00237291      -0.00475650
H       -4.13159378       2.04947956      -2.36998657      -0.00524455      -0.00210383       0.00544029
O        2.15563760      -2.08776017      -1.81445917      -0.00089720      -0.00169206       0.00058757
O        1.02854910      -3.15050198      -0.20435147       0.00578845       0.00065784       0.00579865
O        4.65305079      -1.55892952       0.40222125       0.00147771      -0.00036647       0.00167241
N        0.07072012      -0.62003534       0.52370296       0.00283488       0.00107353      -0.00152141
N        4.14741758       0.62040537       0.02926079       0.00349888       0.00035997       0.00278533
C        1.42692069      -0.77554325       0.02136383       0.00328783       0.00028896       0.00039949
C        2.49931373      -0.76308641       1.11845121       0.00195922       0.00103541       0.00113463
C        1.48407747      -2.13212476      -0.66365614       0.00312071      -0.00023942       0.00253589
C        3.87676736      -0.62972219       0.48892052       0.00229060       0.00033410       0.00193681
H        1.64848110      -0.01128765      -0.73095907       0.00444885      -0.00083367      -0.00002448
H        2.34191028       0.08692835       1.77724341       0.00136388       0.00097959       0.00076589
H        2.45992042      -1.68011332       1.70223554       0.00173218       0.00126022       0.00114234
H        0.16222042      -3.01237988       1.47444314      -0.01011659       0.00219120      -0.00128973
H       -0.08396330      -3.76358434       2.81121941      -0.01260825       0.00860818      -0.00091295
H        3.42892856       1.32883226       0.02205916       0.00341736       0.00022551       0.00132932
H        4.98491136       0.75440899      -0.51050875       0.00345540      -0.00038029       0.00251385
H        2.23898066      -2.99713461      -2.14049842      -0.00178512      -0.00170051       0.00125155
O       -0.22957406      -2.92640974       2.36288718      -0.02874929      -0.00144741      -0.01097747
H        0.51117577       0.61779694       2.09634081       0.00177239       0.00228714      -0.00251724
H       -1.54100563      -1.02294127      -0.39997556       0.00425383       0.00182550      -0.00306344
44
Properties=species:S:1:pos:R:3:forces:R:3 charge=0 multiplicity=1 source=products.log spin=1 energy=-34183.36978340777 free_energy=-34183.36978340777 stress="0.10993576898985857 -0.13076470661339526 0.05504744390072092 -0.13076470661339526 -0.17215607607990138 -0.14261645339487028 0.05504744390072092 -0.14261645339487028 0.19769743443216514" pbc="F F F"
O       -3.14302006      -0.88144005       0.50664868       0.00348147      -0.00383846      -0.00969069
O       -3.01457523       2.71230837       0.57480927       0.00100764      -0.00456210      -0.00155816
O       -1.42928164      -0.42194892       2.76699783       0.00596414       0.00526860       0.00134573
O       -4.96939988       2.40977898      -1.33459152      -0.00208930      -0.00173267       0.00314833
O       -0.67017490      -0.46149055      -0.47203514       0.01929598       0.00290552       0.01394477
O        0.94026388       2.39363091       0.99729540      -0.00014529       0.00858778      -0.00191941
C       -2.90128272       0.41058668       1.08182554       0.00321979      -0.00371550      -0.00295303
C       -3.22135000       1.43321583       0.00353988      -0.00015152      -0.00370588      -0.00203135
C       -1.49291609       0.49262108       1.68727608       0.00238709       0.00149109      -0.00479015
C       -4.65767502       1.31200551      -0.47904051      -0.00108208      -0.00281445       0.00113854
C       -0.33060092       0.32478586       0.66628866       0.00979357       0.00743649       0.00210245
C        0.09543253       1.69643218       0.10177882       0.00462081       0.00907335       0.00295591
H       -3.59243146       0.57831572       1.91434265       0.00166573      -0.00982744      -0.00349476
H       -2.55150692       1.28092947      -0.85435161      -0.00177103      -0.00282455      -0.00319459
H       -1.38091573       1.48226273       2.13299700      -0.00318595       0.00304707      -0.00649146
H       -4.82125332       0.35379138      -0.97292097      -0.00337784      -0.00202259       0.00068954
H       -5.33644010       1.39138463       0.37185942       0.00127953      -0.00302673       0.00270380
H       -3.10885546      -1.55325674       1.19813193      -0.01557099      -0.02623922       0.04284102
H       -3.51083483       3.33867388       0.03083901       0.00133661      -0.00394995      -0.00076703
H        0.59684026       1.52428421      -0.85673762       0.00326861       0.01344143       0.00632588
H       -0.78686410       2.30585188      -0.08752098       0.00826820       0.00820793       0.00364361
H       -1.45235885      -1.34223685       2.44360284       0.03615081       0.00105956       0.01177138
H        1.21103448       1.73002777       1.65302892       0.00660064       0.01569693      -0.00401012
H       -4.60253421       2.23577272      -2.20722426      -0.00541330      -0.00116980       0.00193980
O        2.19321709      -2.14997550      -1.30581409       0.00629612      -0.01273856      -0.00154245
O        1.07053289      -2.92913446       0.45766889       0.00158418      -0.00268125      -0.00118168
O        5.23140749      -1.18843291      -0.07688536      -0.00865866      -0.00611101       0.00767017
N        0.82073847      -0.21854249       1.37212906      -0.01110350      -0.00217619      -0.02699966
N        4.37572890       0.88808055      -0.34446650      -0.00031978      -0.00345978       0.00790695
C        1.88187724      -0.64289276       0.48657453      -0.00313031      -0.00265167      -0.01198061
C        3.26009620      -0.62403570       1.18245469      -0.01076770      -0.00066690      -0.00306030
C        1.63870783      -2.01897769      -0.10392838       0.00242591      -0.00566758      -0.00465970
C        4.39260079      -0.35838225       0.20308880      -0.00647814      -0.00371577       0.00494888
H        1.91750431       0.04905653      -0.35228628       0.00388533      -0.00654263      -0.01446294
H        3.23338457       0.17399468       1.92616377      -0.01368557       0.00141091      -0.00576508
H        3.47068120      -1.56138994       1.69521256      -0.01500424       0.00060191      -0.00108965
H       -0.44888818      -3.12030004       1.44690193      -0.01224520       0.01438802      -0.02365438
H       -1.17432218      -3.63115826       2.71684939      -0.00768181      -0.02746005      -0.02474762
H        3.71197106       1.58942819      -0.06272467       0.00109385      -0.00228895       0.00323610
H        5.09016696       1.12873821      -1.00929097       0.00239416      -0.00578757       0.01111948
H        2.06629680      -3.06514849      -1.59880299       0.00829944      -0.01443711       0.00477068
O       -1.28361153      -3.05906459       1.95097093      -0.02800589      -0.00247757      -0.02449657
H        0.55838410      -0.92950073       2.04388172       0.01340987       0.07402889       0.00844618
H       -1.50703137      -0.92748232      -0.31013438       0.00213867       0.00164653       0.04189212
44
Properties=species:S:1:pos:R:3:forces:R:3 charge=0 multiplicity=1 source=products.log spin=1 energy=-34182.131167996056 free_energy=-34182.131167996056 stress="-0.07689762873870294 0.18674867934302103 0.1422543134757793 0.18674867934302103 0.2825275567238227 -0.16959744138483204 0.1422543134757793 -0.16959744138483204 0.3419288884311122" pbc="F F F"
O       -2.86136096      -0.87615769       0.56669163      -0.00796974      -0.00411093      -0.00446241
O       -2.86834988       2.74687799       0.77254911      -0.00573673      -0.00554249       0.00607231
O       -1.69595126      -0.76333729       2.82737907       0.00107883      -0.00126172      -0.00335970
O       -4.57528319       2.49369838      -1.43407247       0.00254651       0.01046011       0.00666211
O       -1.06135607      -0.73822188      -1.32105849       0.03327811      -0.02298325       0.01673321
O        1.38577066       2.08578301       0.80142306      -0.00941388       0.00899464      -0.00430097
C       -2.87155214       0.35570464       1.12161278      -0.00534145      -0.00362179       0.00089143
C       -3.00828687       1.48860842       0.11255501      -0.00516659      -0.00300224       0.00280875
C       -1.59801783       0.42749932       2.09641730      -0.00701109      -0.00450344      -0.00327305
C       -4.37326714       1.39763485      -0.53993407      -0.00309624       0.00258072      -0.00184923
C       -0.34922539       0.45328553       1.29746728      -0.00350974       0.00550253      -0.00135154
C        0.04347627       1.68935849       0.52494437      -0.00864794       0.00495402      -0.00386324
H       -3.68906606       0.49853986       1.85725325      -0.00644303      -0.01066042      -0.00096635
H       -2.24806694       1.38461891      -0.67285420      -0.00335322      -0.00211679       0.00408842
H       -1.65493324       1.30981719       2.73843005      -0.01100892      -0.00770266      -0.00163414
H       -4.48158707       0.43176539      -1.03436886      -0.00315513       0.00749944      -0.01088396
H       -5.14395777       1.48620427       0.22759687      -0.00567820      -0.00207952      -0.00414792
H       -1.80082688      -0.88509877      -0.63863674      -0.01010458      -0.00798930       0.03134225
H       -3.31172000       3.39891000       0.21352271      -0.00436955      -0.00444585       0.00671935
H       -0.02177000       1.44798224      -0.53734088      -0.00706280       0.00211865      -0.00351900
H       -0.66544825       2.48607845       0.74076964      -0.01164803       0.00278476      -0.00534234
H       -2.21289029      -1.32015530       2.18135795       0.01859208      -0.00755808       0.00278996
H        1.39103731       2.64991709       1.58109697      -0.01348141       0.01056759      -0.00229056
H       -4.13365891       2.29354244      -2.26488175       0.00355253       0.01642062       0.00577378
O        2.06964479      -2.23804689      -1.40587008      -0.00887008       0.00891965      -0.00427272
O        0.96338075      -3.17365253       0.30392229      -0.01560977       0.01448389      -0.00320735
O        4.88287829      -1.15047905       0.01719651       0.00469710      -0.00955935      -0.00459030
N        0.35623414      -0.61711929       1.23701486       0.00566504       0.01186714       0.00355649
N        3.92302439       0.84934192      -0.44491786       0.00463262      -0.00968360       0.00519345
C        1.50403221      -0.81146164       0.36505106       0.00114804       0.00873283      -0.00096856
C        2.82466795      -0.61401236       1.13462464       0.00095201      -0.01936348      -0.00706171
C        1.44340309      -2.21060620      -0.22935078      -0.02539145       0.01884272      -0.00994828
C        3.98840476      -0.35059794       0.18907987       0.00254989      -0.01269909      -0.00303759
H        1.43231012      -0.11141187      -0.46148713       0.00992468       0.01525568       0.00723157
H        2.69336722       0.24933972       1.78507381       0.01247490      -0.03681973       0.00994591
H        3.05614564      -1.48377995       1.74589001      -0.00764475      -0.03008283      -0.02879028
H        0.40438850      -3.54379997       2.42469034      -0.00091226       0.04399108      -0.01552021
H       -0.39164678      -2.85614170       3.56099965       0.02928163       0.02092833      -0.01890514
H        3.19931898       1.51678337      -0.23116188       0.00334611      -0.01102016       0.00367666
H        4.64887330       1.08401384      -1.09941549       0.00686845      -0.00642901       0.00892349
H        2.08076459      -3.15693746      -1.71524005       0.00790262       0.00858774       0.01867265
O        0.45359791      -2.85243186       3.09736913      -0.01423496       0.03081518      -0.01430149
H        0.10313530      -1.39743358       1.86839908       0.00868926       0.01070351       0.00281632
H       -1.46089092      -0.92325536      -2.17538563       0.04768104      -0.04177518       0.01795016
44
Properties=species:S:1:pos:R:3:forces:R:3 charge=0 multiplicity=1 source=products.log spin=1 energy=-34182.20918381148 free_energy=-34182.20918381148 stress="0.2635305218778262 0.007092851254950018 -0.16851318271392995 0.007092851254950018 -0.010503249658152636 -0.032533333664597625 -0.16851318271392995 -0.032533333664597625 -0.1070357593534896" pbc="F F F"
O       -2.67026985      -0.94150297       0.73199358       0.01739636       0.00153101      -0.01541205
O       -3.03914340       2.67305559       0.69855009      -0.00162387       0.00056659      -0.00094051
O       -1.49776322      -0.21663862       3.20483371      -0.00520175       0.00280841      -0.00055700
O       -4.71097549       2.19858614      -1.40418494      -0.00547090      -0.00747230      -0.00370486
O       -0.32740926      -1.08182285      -1.03358588      -0.00098761       0.00161772       0.00233957
O        1.30566723       2.40776752       0.67900437       0.00793215      -0.00060255       0.00621332
C       -2.78644791       0.35992712       1.24176309       0.00635771      -0.00139458      -0.00923505
C       -3.06139549       1.37013967       0.13681600       0.00185742       0.00221753      -0.00499149
C       -1.58015345       0.70472335       2.16301688      -0.00125581       0.00304616      -0.00135708
C       -4.41084406       1.12327861      -0.51748385       0.00085774      -0.00276877      -0.00051920
C       -0.32225436       0.74269884       1.33557685       0.00156730       0.00387616       0.00358732
C       -0.00750957       1.92089749       0.43584123       0.00541805       0.00551826       0.00721472
H       -3.64051389       0.35261256       1.92489222       0.00373438      -0.01281407      -0.01256165
H       -2.28517035       1.27281856      -0.63913812       0.00011690       0.00825330      -0.00740918
H       -1.74830936       1.69529253       2.59042025      -0.00678422       0.00247057      -0.00211582
H       -4.42582437       0.15675542      -1.02181353       0.00242403      -0.00528782       0.00412450
H       -5.19056845       1.13333110       0.24563657       0.00378148      -0.00160344       0.00250705
H       -1.89913943      -1.02140440       0.13414036       0.01733792       0.00811962      -0.01118790
H       -3.55404673       3.23411454       0.10123104      -0.00528125       0.00069453       0.00244649
H       -0.04400905       1.58224189      -0.60070760       0.00224959       0.00954717       0.00600269
H       -0.76309031       2.69220692       0.57294805       0.00844447       0.00796437       0.01079609
H       -1.55527123      -1.12837617       2.85090191      -0.00409861       0.00165339      -0.00049644
H        1.28314443       3.00948042       1.42993425       0.01113131       0.00199808       0.00422950
H       -4.26567796       2.04796681      -2.24392194      -0.01089249      -0.01180936      -0.00575302
O        1.78817067      -1.81108824      -1.60374298      -0.01194242       0.00115129      -0.00530529
O        0.69771654      -2.83419070       0.10482334      -0.00950795       0.00036794      -0.00303036
O        4.87178575      -1.52159874      -0.02424286      -0.01181333      -0.00796525      -0.01210271
N        0.46032483      -0.26222343       1.37113348      -0.00313120       0.00023952       0.00042345
N        4.16184054       0.61197793      -0.22393813      -0.00188209      -0.00235623       0.00683559
C        1.49623360      -0.55946487       0.38140686      -0.00469961      -0.00147612      -0.00080386
C        2.80329756      -0.95783503       1.05306981      -0.00516440      -0.00388152      -0.00031252
C        0.90768617      -1.71202891      -0.49766019      -0.00975812       0.00096454      -0.00243500
C        4.03375240      -0.67604672       0.20326046      -0.00639095      -0.00533332      -0.00228702
H        1.62599448       0.30800825      -0.25177403      -0.00350326      -0.00127383      -0.00086834
H        2.91990343      -0.39656732       1.98442562      -0.00427818      -0.00148913      -0.00101113
H        2.79189391      -2.02108897       1.28639154      -0.00650794      -0.00422249       0.00143727
H       -0.14315418      -2.87488207       1.39850560       0.00482533      -0.00436370       0.00866187
H       -0.38391805      -3.42166509       2.87906047       0.03330548       0.00710969       0.02308598
H        3.44024681       1.29859850      -0.08812912       0.00080148      -0.00076656       0.01430600
H        4.92597358       0.82316451      -0.84191903      -0.00412582      -0.00135477       0.00451422
H        2.14482788      -2.70641817      -1.53987470      -0.01263756      -0.00032665      -0.00822337
O       -0.59021058      -2.68652104       2.29709603       0.01046441      -0.00025182       0.01185616
H        0.21989021      -1.04445498       2.00722669      -0.00579426      -0.00114983      -0.00122668
H       -0.60653768      -1.69265820      -1.72738146       0.00273026       0.00824844      -0.00673474
44
Properties=species:S:1:pos:R:3:forces:R:3 charge=0 multiplicity=1 source=products.log spin=1 energy=-34182.22691649425 free_energy=-34182.22691649425 stress="-0.3436965900889292 0.1823964900679302 0.007916627806796563 0.1823964900679302 -0.015927698537071256 0.023858065034931694 0.007916627806796563 0.023858065034931694 0.11655910936349409" pbc="F F F"
O       -2.70729736      -0.78006261       0.41673758       0.00263752       0.00390224      -0.01097765
O       -3.02776623       2.74134723       0.90303267      -0.00393065       0.00049578       0.00683379
O       -1.38735342      -0.33554892       3.08330659      -0.00029252      -0.00057081      -0.00189833
O       -4.78539704       2.42467115      -1.21358126      -0.00736651       0.00699536       0.00907786
O        0.09146233      -1.56727724      -1.23355768       0.00509952       0.00087990       0.00280924
O        1.35827177       2.34193175       0.59898021      -0.00485851      -0.00014681      -0.01012086
C       -2.79284794       0.36936997       1.21327286       0.00017296      -0.00076948      -0.00322161
C       -3.10781900       1.49239516       0.23624279      -0.00322394       0.00300232       0.00190595
C       -1.52499097       0.62049656       2.07208888       0.00010114      -0.00136239      -0.00273574
C       -4.48698180       1.31302011      -0.37257613      -0.00379055       0.00330327       0.00307154
C       -0.29828633       0.68689575       1.19493057       0.00031942      -0.00235182      -0.00228565
C        0.02283354       1.91314448       0.36864670      -0.00327026      -0.00600401      -0.00893935
H       -3.60223674       0.30114347       1.95353525       0.00091074      -0.00547918      -0.00258623
H       -2.37308311       1.44342580      -0.58122351      -0.00458838       0.00733547       0.00045279
H       -1.64882866       1.59414783       2.55279164       0.00023864      -0.00086961      -0.00347828
H       -4.54386497       0.36439987      -0.90597751      -0.00236374       0.00590038      -0.00178250
H       -5.23494370       1.31992936       0.42212163      -0.00283045      -0.00231015       0.00402915
H       -2.37557874      -1.56126115       0.90474185      -0.00126250      -0.00858339       0.00835781
H       -3.53122953       3.36773657       0.36475304      -0.00690709       0.00166658       0.01079317
H       -0.05517371       1.65725995      -0.68901354      -0.00178239      -0.01271427      -0.00751326
H       -0.70153961       2.69647948       0.58901665      -0.00585712      -0.00701552      -0.01342718
H       -1.46797303      -1.24682754       2.72074716       0.00186266      -0.00100017      -0.00220270
H        1.39349323       2.84210105       1.42134449      -0.00827741       0.00744560      -0.01434961
H       -4.41501754       2.26201724      -2.08663587      -0.00772705       0.01235496       0.00786840
O        2.24012890      -2.36243806      -1.20039561       0.00552878      -0.00142557       0.00247557
O        0.84585301      -2.86135361       0.52824793       0.00508154      -0.00208227       0.00397208
O        5.08161256      -1.11940121       0.10624752       0.00383811      -0.00295330       0.00272480
N        0.49244079      -0.30752880       1.18356298       0.00407989       0.00044784       0.00383768
N        4.08519386       0.83133679      -0.45168913       0.00395431      -0.00187960       0.00238741
C        1.58775205      -0.59570087       0.25837497       0.00446680      -0.00044843       0.00445200
C        2.90334457      -0.69308560       1.02152787       0.00483120      -0.00040950       0.00471137
C        1.16478226      -1.95463457      -0.38346124       0.00456759      -0.00024784       0.00294183
C        4.12715653      -0.37666019       0.17683087       0.00413451      -0.00197674       0.00315258
H        1.61090757       0.16829238      -0.51046693       0.00449936      -0.00024265       0.00427765
H        2.89342417       0.01869414       1.85160321       0.00575453       0.00091578       0.00416197
H        3.02039602      -1.69470358       1.43105641       0.00481823      -0.00049017       0.00579598
H       -0.40870516      -2.83774744       1.16227961       0.00473586       0.00451531      -0.00628684
H       -1.51254827      -3.55292981       2.15033908      -0.01457541       0.00314433      -0.01434703
H        3.33253968       1.48215216      -0.30498632       0.00236838      -0.00290056      -0.00081614
H        4.88352791       1.10875186      -0.99503617       0.00197010      -0.00414470      -0.00175653
H        2.58439852      -3.16241161      -0.78565607       0.00653204      -0.00227175       0.00299990
O       -1.30486670      -2.70927175       1.74031606      -0.00523400       0.00517458      -0.01031430
H        0.27743459      -1.10547668       1.78826006       0.00526235       0.00415877       0.00847985
H       -0.33388196      -2.38565211      -1.51627820       0.00037224      -0.00098761       0.00746911
44
Properties=species:S:1:pos:R:3:forces:R:3 charge=0 multiplicity=1 source=products.log spin=1 energy=-34182.55706053466 free_energy=-34182.55706053466 stress="-1.5203542490165773 -0.5989894569428432 -1.1989198305090247 -0.5989894569428432 -0.370216044408381 -0.2180826628704286 -1.1989198305090247 -0.2180826628704286 -1.1565432482274869" pbc="F F F"
O       -2.72435973      -0.78188749       0.49003193      -0.00905944      -0.00044309       0.04007650
O       -3.01771325       2.76154430       0.88487302       0.00209640       0.01161547      -0.00754309
O       -1.45129774      -0.29266095       3.12477165      -0.03978822       0.02650568       0.02466253
O       -4.78657859       2.41664998      -1.21588081      -0.00653393      -0.00124651       0.00475828
O       -0.38512041      -1.40424223      -1.09811979      -0.28115591       0.10367172       0.08487349
O        1.41477829       2.31806328       0.58953474       0.02823521      -0.01383114      -0.01461871
C       -2.77369333       0.41087189       1.24279351       0.01131229       0.02420979       0.01578293
C       -3.09042150       1.50296168       0.23488819       0.00801957       0.00727831      -0.00033912
C       -1.49361395       0.64239409       2.08170590       0.01826982       0.01284687       0.00471480
C       -4.47229881       1.31303350      -0.36707709       0.00633699       0.00027465       0.00396747
C       -0.22846961       0.62604716       1.22778239       0.04180892      -0.03790534       0.01968610
C        0.07673889       1.85892686       0.38710383       0.02865325      -0.03832496       0.00340076
H       -3.58429716       0.37099009       1.98177461       0.01085984       0.03877882       0.01515168
H       -2.35514949       1.44664480      -0.58182688       0.00778086       0.00604564      -0.00057527
H       -1.59558055       1.62696952       2.54410977       0.03122163       0.02001457      -0.00756455
H       -4.53080402       0.36144178      -0.89547065       0.00747228       0.00090886       0.00232497
H       -5.21749459       1.32239779       0.43030035       0.00834511      -0.00397644       0.00589936
H       -2.46765100      -1.53708480       1.04389621      -0.05085975       0.01510543       0.07809963
H       -3.52548773       3.37769313       0.34019393      -0.00367694       0.00545461      -0.00848337
H       -0.00846670       1.61009676      -0.67263724       0.02636249      -0.04200936       0.00385325
H       -0.64487272       2.64931914       0.60251140       0.02724200      -0.03531912      -0.00540146
H       -1.25072819      -1.17198637       2.76033910       0.12952285       0.04548085       0.02470134
H        1.44914481       2.79087676       1.42762909       0.02363490      -0.02095705      -0.01024477
H       -4.39619778       2.26140386      -2.08138198       0.00617136       0.00894325       0.00856751
O        2.39380811      -2.28540562      -1.10673087       0.09044116       0.05170868       0.05353509
O        1.08423639      -3.00039446       0.53995547       0.14469323      -0.08269137       0.00554699
O        5.07717555      -1.07418693       0.14284240      -0.00163486       0.01899993       0.02390524
N        0.48489011      -0.42057161       1.26767775      -0.00096105      -0.06666324       0.05588336
N        4.08662660       0.87949238      -0.42465360       0.00599213       0.02377630       0.02127945
C        1.62591912      -0.63119501       0.39795895       0.02584515      -0.02063880       0.08821854
C        2.96249897      -0.56321473       1.16182233       0.03852048       0.07391936       0.08850292
C        1.58811682      -2.07648615      -0.06846168       0.25330630      -0.07039073       0.18788093
C        4.14935390      -0.29794331       0.24812689       0.01611768       0.04122715       0.04639192
H        1.64349324       0.02317783      -0.47475927       0.02370680      -0.08390898       0.02806377
H        2.89687421       0.21758038       1.91556014       0.00771192       0.11461742       0.04372274
H        3.13988799      -1.51411120       1.66163379       0.07234819       0.10326355       0.14140297
H       -0.40916910      -2.88023309       1.41679262       0.00546098      -0.02299657       0.15124559
H       -1.52960582      -3.66337688       2.17575115      -0.00657867      -0.06258502       0.01265869
H        3.32799065       1.52692219      -0.28127169       0.00144688       0.02121841       0.01615122
H        4.85519373       1.12569306      -1.02334772      -0.01407044       0.00190205      -0.01607576
H        2.55997453      -3.23956132      -1.12628244      -0.01587772      -0.03995128      -0.20935006
O       -1.32257194      -2.81508354       1.77709039      -0.00524685      -0.05960115       0.02073937
H       -0.56049033      -1.34390458      -0.12977419      -0.49613655      -0.13631144      -1.13622820
H       -0.62582550      -2.29649525      -1.36737360      -0.17735611       0.06198433       0.09077498
44
Properties=species:S:1:pos:R:3:forces:R:3 charge=0 multiplicity=1 source=Step1_IM2alluasp-rep.log spin=1 energy=-34183.31699232135 free_energy=-34183.31699232135 stress="-0.048487528903221604 -0.08416247349397776 -0.07771298410197597 -0.08416247349397776 -0.03219581215649674 -0.02909619904483412 -0.07771298410197597 -0.02909619904483412 -0.04546692446491375" pbc="F F F"
O       -2.60468783      -0.89376545       0.71083698       0.00251649      -0.00017234       0.00108372
O       -3.00228648       2.67625391       0.78174965      -0.00021244      -0.00128246       0.00381795
O       -1.35661920      -0.13203240       3.26933582      -0.00057910       0.00108984      -0.00235035
O       -4.67502913       2.12501119      -1.34019048      -0.00012744      -0.00023752       0.00051174
O       -0.79525261      -0.77619934      -1.46247810      -0.01197931      -0.00152140      -0.01490782
O        1.48769120       2.25984431       0.60137736       0.00125965      -0.00306431       0.00596035
C       -2.69474905       0.37804801       1.33630645       0.00130697       0.00013630      -0.00071670
C       -3.00749843       1.37068038       0.22797102       0.00047504       0.00026308       0.00008557
C       -1.42396682       0.70964096       2.14873879       0.00113266       0.00222243      -0.00138578
C       -4.35553235       1.08903699      -0.41277886       0.00007959       0.00040405       0.00158873
C       -0.19138520       0.60520686       1.26905154       0.00557087      -0.00730260       0.00022389
C        0.15430362       1.79035965       0.37799543       0.00170929      -0.00102806      -0.00082268
H       -3.51640109       0.38759062       2.06184689       0.00043014      -0.00268834      -0.00145756
H       -2.23780248       1.28367437      -0.55340950      -0.00025005       0.00426052      -0.00107030
H       -1.52932561       1.73360872       2.51372038       0.00100791       0.00204545      -0.00226894
H       -4.35880357       0.10536363      -0.88404664      -0.00112411       0.00059174       0.00225938
H       -5.13467962       1.11763134       0.35044304       0.00252884      -0.00339260       0.00508706
H       -2.29508719      -1.57030294       1.34536116       0.00760503       0.00064368      -0.00044278
H       -3.51250683       3.22898784       0.17430485      -0.00044939       0.00004932       0.00530108
H        0.10729134       1.48138239      -0.66677463       0.00291249      -0.00135894      -0.00078414
H       -0.56751525       2.59405482       0.52956870       0.00386497       0.00032844      -0.00592818
H       -0.94977605      -0.97301360       3.00265965       0.00792434       0.00563692      -0.00125888
H        1.51619570       2.71184497       1.45092681      -0.00645387       0.00659008       0.00172467
H       -4.17938286       1.97528380      -2.15162427      -0.00398006      -0.00176354      -0.00242491
O        2.28971859      -2.18333656      -1.21616219       0.00149612      -0.00051709       0.00475821
O        0.92139821      -3.02042818       0.33391161      -0.00831401      -0.00834624       0.00688367
O        5.01315166      -1.15703583       0.29832136      -0.01206290       0.01015877       0.00347122
N        0.45387627      -0.48132842       1.31619487       0.00054600       0.00779084       0.00291990
N        4.12451032       0.84516205      -0.27626388      -0.00062856       0.00237150       0.00244341
C        1.59085833      -0.68268114       0.45027853       0.00352487       0.00039872       0.00015600
C        2.89655283      -0.55243055       1.26424561       0.00105194       0.00241384       0.00161441
C        1.52351144      -2.08085571      -0.12796120       0.00956051       0.01387178      -0.00317419
C        4.11910394      -0.33971952       0.38684358       0.01559067      -0.01154185       0.00032905
H        1.62006934       0.00132589      -0.39787855       0.00461463       0.00040209      -0.00132489
H        2.77582457       0.30715601       1.92309077       0.00299692       0.00094386       0.00279217
H        3.06014760      -1.43638179       1.87756617      -0.00131470      -0.00024568      -0.00140547
H       -0.40505396      -2.85552731       1.58870596       0.00148950      -0.00505199       0.00806862
H       -1.40123439      -3.73320585       2.40261545      -0.00764935      -0.00298594       0.00123941
H        3.36561961       1.50192562      -0.18083527       0.00246677      -0.00013556       0.00542314
H        4.88441381       1.03607751      -0.90525561       0.00178579       0.00140094       0.00015066
H        2.30724561      -3.11579154      -1.47922285      -0.00498540       0.00109553       0.00108466
O       -1.20621723      -2.82693236       2.15051379      -0.00558901      -0.00409291      -0.00570497
H       -1.43000603      -0.95658859      -0.74142436      -0.00915353       0.00216079      -0.01271186
H       -1.01194236      -1.39642800      -2.16377385      -0.01059479      -0.01054134      -0.00883816
