44
Properties=species:S:1:pos:R:3:forces:R:3 charge=0 multiplicity=1 source=products.log spin=1 energy=-34181.217826653025 free_energy=-34181.217826653025 stress="0.02799560857780363 -0.08027084972125327 -0.011726085530025365 -0.08027084972125327 -0.032637698195513334 0.03097002058666819 -0.011726085530025365 0.03097002058666819 0.05659177255101387" pbc="F F F"
O       -3.15901837      -0.96471080       0.27007417       0.00017251      -0.00072692       0.00840459
O       -2.97571853       2.61102046       0.93717087       0.00103599       0.00200557      -0.00628632
O       -1.70386775      -0.95438061       2.62101495       0.00061469       0.00629766       0.00597632
O       -4.85207802       2.76453913      -1.02366646       0.00108205      -0.00585748      -0.00701570
O       -0.66060274      -0.94662179      -0.80810289      -0.00163505       0.00205895       0.00412489
O        1.36642686       2.05628342       0.50548750       0.00169388       0.00160232       0.00186683
C       -2.96374226       0.23258801       0.99894824       0.00071131       0.00234925       0.00343150
C       -3.17823000       1.46324865       0.12870273       0.00101482      -0.00124107      -0.00167408
C       -1.66452161       0.21348511       1.81711828       0.00079454       0.00453000       0.00340809
C       -4.58994677       1.49017897      -0.43799088       0.00099463      -0.00348497      -0.00182595
C       -0.26641305       0.32966695       1.15482929       0.00069477       0.00287422       0.00302476
C       -0.00908222       1.65930733       0.44011510       0.00140596       0.00249729       0.00245725
H       -3.75412376       0.24173061       1.75543658       0.00071216       0.00579010       0.00346734
H       -2.46378916       1.45953809      -0.71004890       0.00111637      -0.00476335      -0.00157988
H       -1.72581838       1.06279670       2.50065388       0.00092103       0.00631144       0.00127659
H       -4.74189983       0.67485714      -1.14539379       0.00093774      -0.00636361       0.00149472
H       -5.30513656       1.38071093       0.37864898       0.00101555      -0.00013737      -0.00136624
H       -2.40181480      -1.07796115      -0.32761381      -0.00140967      -0.00291996       0.00851907
H       -3.47744631       3.32727732       0.52332569       0.00140112       0.00045534      -0.00946719
H       -0.24556260       1.59599615      -0.62390957       0.00092668       0.00228539       0.00252865
H       -0.65335309       2.43565466       0.85229378       0.00201362       0.00309102       0.00228914
H       -2.00975870      -1.67221591       2.04699242      -0.00441354       0.00653925       0.00950894
H        1.49695204       2.56006546       1.31461931       0.00211733       0.00264697       0.00122066
H       -4.51108115       2.77609094      -1.92289057       0.00015572      -0.00988616      -0.00744407
O        2.15448546      -2.46735574      -1.78269329      -0.00312656       0.00349979      -0.00007110
O        1.34387148      -3.42952905       0.07556666      -0.00093883       0.00224957       0.00079966
O        4.69844026      -1.53724336       0.29371076      -0.00128795      -0.00072379      -0.00141317
N        0.09123099      -0.87253966       0.40113165      -0.00031712       0.00237439       0.00331528
N        4.10903289       0.62587803      -0.03669416       0.00116346       0.00015405      -0.00015997
C        1.48288439      -1.02274603      -0.01526949      -0.00077048       0.00253551       0.00171334
C        2.53869152      -0.83332476       1.08219682       0.00032434       0.00176835       0.00091219
C        1.62868123      -2.44729243      -0.54809184      -0.00154373       0.00279764       0.00073426
C        3.89372415      -0.63814733       0.41893328      -0.00004652       0.00031418      -0.00031863
H        1.70052000      -0.32076598      -0.83581803      -0.00152589       0.00300279       0.00183201
H        2.31026259       0.04063630       1.68371913       0.00160968       0.00229080       0.00074131
H        2.58028009      -1.70116306       1.73104140      -0.00007233       0.00187324       0.00117548
H        0.82941417      -2.79258018       2.73299233       0.00775148      -0.02231457      -0.01505566
H       -0.07284951      -1.72739190       3.33304453      -0.00965867      -0.00503750      -0.01835032
H        3.36724302       1.30785558      -0.01962667       0.00188280       0.00092727       0.00041463
H        4.93417901       0.79692863      -0.58506589       0.00082493      -0.00079559      -0.00103592
H        2.30962885      -3.39648934      -2.01286758      -0.00335723       0.00362836      -0.00084568
O        0.79966935      -2.13648046       3.43927687      -0.00176798      -0.01862967      -0.00795388
H        0.39537148       0.29742835       2.02300510       0.00089999       0.00271871       0.00291550
H       -0.27639229      -0.31365666      -1.43990451      -0.00411763       0.00141254       0.00431062
