44
Properties=species:S:1:pos:R:3 charge=0 multiplicity=1 source=products.log spin=1 pbc="F F F"
O       -3.15901837      -0.96471080       0.27007417
O       -2.97571853       2.61102046       0.93717087
O       -1.70386775      -0.95438061       2.62101495
O       -4.85207802       2.76453913      -1.02366646
O       -0.66060274      -0.94662179      -0.80810289
O        1.36642686       2.05628342       0.50548750
C       -2.96374226       0.23258801       0.99894824
C       -3.17823000       1.46324865       0.12870273
C       -1.66452161       0.21348511       1.81711828
C       -4.58994677       1.49017897      -0.43799088
C       -0.26641305       0.32966695       1.15482929
C       -0.00908222       1.65930733       0.44011510
H       -3.75412376       0.24173061       1.75543658
H       -2.46378916       1.45953809      -0.71004890
H       -1.72581838       1.06279670       2.50065388
H       -4.74189983       0.67485714      -1.14539379
H       -5.30513656       1.38071093       0.37864898
H       -2.40181480      -1.07796115      -0.32761381
H       -3.47744631       3.32727732       0.52332569
H       -0.24556260       1.59599615      -0.62390957
H       -0.65335309       2.43565466       0.85229378
H       -2.00975870      -1.67221591       2.04699242
H        1.49695204       2.56006546       1.31461931
H       -4.51108115       2.77609094      -1.92289057
O        2.15448546      -2.46735574      -1.78269329
O        1.34387148      -3.42952905       0.07556666
O        4.69844026      -1.53724336       0.29371076
N        0.09123099      -0.87253966       0.40113165
N        4.10903289       0.62587803      -0.03669416
C        1.48288439      -1.02274603      -0.01526949
C        2.53869152      -0.83332476       1.08219682
C        1.62868123      -2.44729243      -0.54809184
C        3.89372415      -0.63814733       0.41893328
H        1.70052000      -0.32076598      -0.83581803
H        2.31026259       0.04063630       1.68371913
H        2.58028009      -1.70116306       1.73104140
H        0.82941417      -2.79258018       2.73299233
H       -0.07284951      -1.72739190       3.33304453
H        3.36724302       1.30785558      -0.01962667
H        4.93417901       0.79692863      -0.58506589
H        2.30962885      -3.39648934      -2.01286758
O        0.79966935      -2.13648046       3.43927687
H        0.39537148       0.29742835       2.02300510
H       -0.27639229      -0.31365666      -1.43990451
