44
Properties=species:S:1:pos:R:3:forces:R:3 reactant=T mapped=T (centered)=T charge=0 spin=1 energy=-34183.177906726254 free_energy=-34183.177906726254 stress="-0.7952783405862275 0.43876903785799415 -0.14443802044723872 0.43876903785799415 -0.19185612405176786 -0.04787716243699254 -0.14443802044723872 -0.04787716243699254 0.016967948530417103" pbc="F F F"
O       -3.29762893       1.55276155      -1.41810080      -0.01869870      -0.00242467      -0.01106064
O       -3.22056838       0.14368239       1.87865921       0.00276974       0.01325659      -0.00625923
O       -2.00424160      -1.10342572      -1.71914316      -0.00807269       0.01728885      -0.02006736
O       -5.35513452       1.82626604       2.31957725       0.00214520       0.00717374       0.00073737
O        0.00170995       0.53087765      -1.67614843      -0.00361466       0.01155887       0.00543815
O        1.00572944       1.59777244       0.68759038      -0.00783872      -0.01334205       0.01272174
C       -3.25088421       0.48890439      -0.47980169      -0.01194321       0.00282424      -0.00618630
C       -3.56189737       1.08973557       0.88271777      -0.00478669       0.00786160      -0.00767372
C       -1.92946193      -0.27327240      -0.58379203      -0.01006704       0.00639712      -0.01180740
C       -5.03690589       1.44134998       0.98625296      -0.00489465       0.00536494       0.00019236
C       -0.71529358       0.63224880      -0.70396867      -0.01273060       0.01016357      -0.00387028
C       -0.38079125       1.58550715       0.42805660      -0.00696273      -0.00729408       0.01125056
H       -4.01974736      -0.25953918      -0.70503900      -0.01194779      -0.00018767       0.00185154
H       -2.97574032       2.01034147       1.01142721      -0.00556771       0.00906048      -0.01562271
H       -1.80536549      -0.86771107       0.32898533      -0.00922727      -0.00187294      -0.01700762
H       -5.29527803       2.21449028       0.26085236      -0.01032619       0.00307904       0.00060312
H       -5.63178110       0.55007908       0.77958797      -0.00461150       0.00456985       0.00565005
H       -3.20282752       1.17185694      -2.29901185      -0.02577118      -0.00817027      -0.01102283
H       -3.74061701       0.36905203       2.66211667       0.00688933       0.01549299      -0.00410164
H       -0.68222500       2.58829452       0.11548689      -0.00458932      -0.00344381       0.02542628
H       -0.94401804       1.31166677       1.32303112      -0.00495903      -0.01718818       0.00643574
H       -1.20979022      -0.92014541      -2.24609723       0.00845854       0.01562868      -0.01000260
H        1.20641548       0.67067648       0.92312760      -0.01000390      -0.01467282      -0.00536323
H       -5.11920356       2.75026234       2.44658723       0.00086319       0.00771319      -0.00278604
O        3.48077569      -2.69420744      -1.64893771       0.00569589      -0.01098975      -0.00023131
O        1.60243571      -3.59773705      -0.82319946       0.01181163      -0.01505657       0.01115118
O        5.67573108      -1.95922676       0.76038819       0.01055794       0.00102341      -0.01390634
N        0.99438754      -1.32107219       0.62680990       0.01021820      -0.00976476       0.00224833
N        5.04771045      -0.10858325      -0.38004639       0.00426740       0.00207120      -0.00873684
C        2.27898554      -1.40974468      -0.06167178       0.00933733      -0.00872250      -0.00056450
C        3.39848641      -1.27794646       0.97453142       0.01153423      -0.00076759      -0.00412977
C        2.39549983      -2.69483524      -0.86308664       0.01402759      -0.00607749       0.00420915
C        4.81579457      -1.16485319       0.42969997       0.00902750       0.00099665      -0.00909090
H        2.34569678      -0.58557168      -0.77707117       0.00438450      -0.01039753      -0.00326127
H        3.18954412      -0.38705532       1.57374650       0.01032212       0.00126737      -0.00723335
H        3.38666849      -2.13968007       1.64301366       0.01656735       0.00148269      -0.00116537
H        0.99844963      -1.94817664       1.42577646       0.02004305       0.00176949       0.01522638
H        0.27638791      -1.69344587       0.01086734       0.00746059      -0.02135099       0.04209935
H        4.31703228       0.50134009      -0.72841321       0.00307792       0.00386307      -0.00102272
H        5.96959996      -0.03414452      -0.77446489       0.00212487       0.00459790      -0.01196666
H        3.51570680      -3.55000324      -2.10188895       0.00713171      -0.01141385       0.00184210
O        2.88973030       1.68425521      -1.46587637      -0.00256967       0.00131980       0.01743661
H        2.37295194       1.43987010      -2.24144278       0.00175181       0.00717505       0.01962264
H        2.21397103       1.83908648      -0.78168851      -0.00128445       0.00013705       0.00999824
