47
Properties=species:S:1:pos:R:3:energies:R:1:forces:R:3:charge:R:1 energy=-2291.8941227220416 free_energy=-2291.8941227220416 dipole="0.07695041583611173 1.5209376026336365 0.28640698658380903" pbc="F F F"
O       -2.88383970       0.29971950      -1.48034793    -113.17938546       0.00519845       0.00288774      -0.00004186      -0.46125967
O       -2.97115074       1.05975782       1.99874708    -113.32842078      -0.00357245       0.00094698      -0.00025160      -0.46390531
O       -1.61383607      -2.13470011       0.09167777    -112.98003684       0.01343982       0.00262791       0.02687931      -0.45410215
O       -5.46128193       2.17547480       1.44273260    -113.05764076      -0.00589708      -0.00894666       0.00084321      -0.43923749
O       -0.23609405      -0.32384664      -1.51396782    -113.38725296      -0.00166454      -0.00069360       0.00402816      -0.48237411
O        1.50608324       1.64645017      -2.49111979    -114.73315006      -0.01301429      -0.01060804      -0.00997440      -0.59458541
C       -2.94070318      -0.14322839      -0.14695523     -59.14700282       0.00262811       0.00031213      -0.00070856       0.08856353
C       -3.45837130       1.05669217       0.67617804     -59.09804160      -0.00217430      -0.00103235      -0.00051279       0.09014093
C       -1.62213391      -0.75948121       0.38377374     -59.12635720       0.00191892       0.00531683       0.00737449       0.08461149
C       -4.99202211       1.07688541       0.69279307     -59.25220478      -0.00215694      -0.00551424      -0.00187592       0.05926939
C       -0.32273500      -0.08749564      -0.12540815     -58.99767431       0.00226237       0.00289481       0.00500353       0.19473925
C       -0.37933110       1.41825585       0.19292995     -59.11029713       0.00442763       0.00356033       0.00066653       0.04428063
H       -3.67166738      -0.96457653      -0.06076371     -12.97804706       0.00359021      -0.00083652      -0.00485575       0.04687044
H       -3.11698045       1.97318275       0.16542072     -13.11973263      -0.00400341      -0.00015216      -0.00023331       0.03076214
H       -1.64593050      -0.65806688       1.47698517     -12.92222909      -0.00244095       0.01427083       0.00618676       0.05933035
H       -5.37265254       1.08846375      -0.33313768     -13.19641693      -0.00165654      -0.00366681      -0.00205987       0.04193741
H       -5.36375699       0.18800311       1.20775124     -12.99833091      -0.00000736      -0.00790800      -0.00447639       0.06249474
H       -2.25944871      -0.26753805      -1.95517761     -11.33814980       0.01841595       0.01524222       0.00270190       0.32578584
H       -3.67808100       1.42758498       2.55022871     -11.28040565      -0.00623381      -0.00365425      -0.00058472       0.31932643
H       -0.82958873       1.53708360       1.18050235     -13.04298926       0.00792805       0.00647830       0.00208842       0.05869315
H       -1.00419261       1.89991063      -0.56586545     -13.03398906       0.00121987       0.00199126       0.00216219       0.05634894
H       -0.90286147      -2.35557340      -0.53324544     -11.40695639      -0.02363329       0.01016914      -0.01400333       0.32927241
H        2.40020741       1.46220621      -2.78508409     -11.79843038      -0.01995945      -0.04503721      -0.00724182       0.29047171
H       -5.26278045       2.98784012       0.96303980     -11.57254975      -0.00715378      -0.00692907       0.00394310       0.29285379
O        2.35670938      -1.78221816      -2.40419986    -112.50642649       0.00099910       0.02112706      -0.00222383      -0.36635968
O        0.88639581      -2.91825115      -1.16672275    -112.39802262       0.00226031      -0.00028017      -0.00970998      -0.42462301
O        5.00518797      -2.24510285      -0.61645077    -112.35705765       0.00913165      -0.01983670      -0.00817606      -0.43120561
N        0.79161972      -0.69531013       0.61039373     -80.97499999       0.00040175       0.00063625       0.00351499      -0.29407359
N        4.87520502      -0.10246052       0.07676143     -81.01017662       0.00125722      -0.00926499       0.00494144      -0.28666880
C        1.96107978      -0.98264491      -0.20136578     -58.89407263       0.00165785       0.00255997       0.00345320       0.03386333
C        3.07920185      -1.57217499       0.67460247     -59.31368767      -0.00026275      -0.00318623       0.00172134      -0.10409954
C        1.65195397      -1.99626843      -1.30001738     -58.88298990       0.00816124       0.01606340      -0.00342513       0.36194588
C        4.42524630      -1.37030229      -0.01459468     -59.20760477      -0.01022562       0.01502251       0.01509748       0.28495026
H        2.31085258      -0.05673125      -0.66352251     -12.91905891       0.00343357       0.00513108       0.00969405       0.06802044
H        3.07330130      -1.05881115       1.63477777     -12.94180169       0.00040581      -0.00644852       0.00420467       0.07496665
H        2.90798010      -2.63718670       0.83377124     -13.08897887      -0.00412553      -0.00311459      -0.00132804       0.06906354
H        0.47656888      -1.57019719       1.02323804     -12.32787992      -0.00144361      -0.00165123      -0.00208767       0.17610161
H        0.31535512       0.35870284      -1.94894485     -11.22115507      -0.00369485      -0.00014501       0.00097903       0.33900572
H        4.41830947       0.57658292       0.67297983     -11.98824140       0.00202145      -0.00428465       0.00473367       0.22155597
H        5.77145572       0.12070486      -0.32247767     -12.29102174       0.00293516      -0.00552370       0.00591980       0.18709627
H        2.20441349      -2.49070529      -3.05019127     -10.95536008       0.00456354       0.02505902      -0.00703459       0.33846828
O        3.16562115       1.52032309       1.78601688    -114.84044746       0.00187524       0.00025062      -0.00099466      -0.59791993
H        2.33541595       1.42993005       1.29241202     -11.52163953       0.00275678       0.00305524      -0.00257777       0.31693874
H        2.95697778       1.35195590       2.70645107     -11.85715980       0.00158902      -0.00928308      -0.00311921       0.28252333
O        0.92147420       2.00025450       0.18270376    -113.38996155       0.00440280       0.00259408      -0.00654245      -0.44944314
H        1.55883340       1.96534845      -1.57684659     -11.58284951      -0.00215808      -0.00352920      -0.01363115       0.31107625
H        0.83671972       2.91137967       0.48456177     -11.33783724       0.00659675       0.00332928      -0.00846640       0.30852862
47
Properties=species:S:1:pos:R:3:energies:R:1:forces:R:3:charge:R:1 energy=-2287.4130301175637 free_energy=-2287.4130301175637 dipole="3.056355489394937 -1.8325078199643647 -1.0211670453936983" pbc="F F F"
O        2.03416709      -1.15355827      -2.89765748    -113.14237470      -0.00112763      -0.00221260       0.00308564      -0.43599413
O       -1.53417040      -0.89308311      -2.14235458    -113.26968252       0.00246484      -0.00194364       0.00441983      -0.45413705
O        1.71696248      -0.68402268      -0.23458226    -113.13901113      -0.00631761      -0.00874442       0.00082918      -0.43726799
O        0.75533034       0.73776558      -4.44432199    -113.08528157      -0.00560092      -0.00745781       0.00260837      -0.44450332
O       -0.73957614      -1.21430538       0.66971769    -112.88848800       0.01128294       0.00095011      -0.00236267      -0.39075255
O       -4.56838664      17.10457823      -0.99930391    -114.22671376      -0.00185189      -0.00013831      -0.00141672      -0.56490215
C        0.80461928      -1.50027438      -2.32017860     -58.91650020      -0.00136166      -0.00074765       0.00117981       0.08639724
C       -0.26904506      -0.40351251      -2.52907709     -58.97075623       0.00135110      -0.00296373       0.00194429       0.09022986
C        1.06999488      -1.79905650      -0.80504440     -59.21344483      -0.00315807       0.00012664      -0.00214173       0.08525896
C       -0.34714040      -0.00973087      -4.02030367     -59.23898200      -0.00097147      -0.00440864       0.00591150       0.07389153
C       -0.13929710      -2.19362336      -0.02363286     -57.67741524       0.00240501       0.00333738      -0.00051902       0.15508629
C      -12.15193903       2.53585717       8.51760676     -59.55196471       0.03811982      -0.02373100       0.00026534       0.10193375
H        0.45677360      -2.41211151      -2.81598549     -13.00867145      -0.00327581       0.00082607       0.00312004       0.05785171
H        0.00796979       0.49746617      -1.96448546     -13.22623659       0.00484634      -0.00505875      -0.00072876       0.03132600
H        1.79922087      -2.62128942      -0.78250309     -12.79580676      -0.00837426       0.00449733      -0.00853025       0.07240648
H       -0.47449691      -0.92166179      -4.61825125     -13.20870363      -0.00014477       0.00021195       0.00503720       0.03439585
H       -1.22766405       0.62144481      -4.16035795     -12.96785104       0.00087991      -0.00715384       0.01291982       0.06376916
H        2.48855564      -0.56921477      -2.27048741     -11.23592004       0.00024258      -0.00420087       0.00047282       0.31869873
H       -1.74277273      -0.60315708      -1.24856378     -11.35721468      -0.00539489       0.01231884      -0.00378003       0.30885648
H      -12.32584461       3.49684976       9.04752009     -13.38186223      -0.02476926      -0.04828703       0.01764660       0.00461301
H      -12.26293228       2.72619128       7.42772488     -13.34403184       0.02213360      -0.02782679       0.01277617       0.00727983
H        1.04423456      -0.08254333       0.11013878     -11.26303572      -0.00269391      -0.00662217       0.00367456       0.31541014
H       -5.18812852      16.38291784      -0.87528049     -11.87891246       0.00192506       0.00288840       0.00072950       0.28256976
H        1.54270374       0.18251632      -4.34016370     -11.44294245      -0.01228584      -0.00587816       0.00000956       0.31047836
O       -2.87019258      -4.72856228       2.44996745    -112.58352171      -0.00082043       0.00188717      -0.00964709      -0.35230390
O       -2.52704075      -2.57029729       2.00137347    -112.64411177       0.00134389       0.00031486      -0.00203670      -0.41662572
O        1.48753355      -5.18563438       0.30423539    -112.66310837       0.00283701       0.00612726       0.00666071      -0.42865779
N       -0.61885441      -3.46985946      -0.05198994     -80.47305706       0.00550057       0.00699339       0.00157938      -0.19309075
N        2.45537636      -5.14166360       2.33032962     -80.93498217      -0.00106803       0.00120992       0.00168948      -0.25765885
C       -0.97064759      -4.23733249       1.15265158     -58.90192795       0.00207591       0.00349570      -0.00288686       0.02182684
C        0.20835473      -4.28471565       2.14483021     -59.27231634      -0.00077761       0.00013976       0.00026446      -0.09857386
C       -2.20150376      -3.73521700       1.88588365     -58.59410334       0.00008378       0.00266985      -0.00465061       0.34817432
C        1.43527395      -4.91897895       1.48485050     -58.96033942       0.00067205       0.00277884       0.00310010       0.28710969
H       -1.18574433      -5.25655138       0.81820622     -12.59587394       0.00245374       0.00582233      -0.00693713       0.09750237
H        0.46916566      -3.27125610       2.46166649     -12.96762822      -0.00255320      -0.00158771       0.00300983       0.07382020
H       -0.07133132      -4.86557801       3.02497138     -12.97183645      -0.00216699      -0.00191695      -0.00275047       0.07348420
H       -0.05204623      -4.06242984      -0.65249919     -11.74976695       0.00407040       0.00827891       0.00278835       0.22043717
H       -1.50218308      -1.57567945       1.19782678     -10.73405032       0.01210454       0.00313591      -0.00551591       0.36370386
H        2.41365254      -4.91216931       3.30717063     -12.09025110      -0.00320307      -0.00108688      -0.00125296       0.19313273
H        3.30303522      -5.54634686       1.96617303     -11.89852204      -0.00022505       0.00186310       0.00436605       0.21130910
H       -3.64324179      -4.40270311       2.94155612     -10.57472858      -0.00113389       0.00108259      -0.01028371       0.35176002
O       24.63399659       8.83677952      -9.32312228    -114.24558043       0.00035442       0.00017200       0.00037540      -0.56477685
H       24.87404240       9.38616429      -8.57435007     -11.87008121      -0.00012914       0.00003749      -0.00031880       0.28235912
H       24.85420128       9.32738780     -10.11742623     -11.86962171      -0.00028265      -0.00025573       0.00000478       0.28241773
O      -10.98957347       1.97134139       8.83117886    -111.42705310       0.07393015       0.03552176      -0.04023034      -0.48350709
H       -5.06308126      17.92184713      -0.91251552     -11.88096375       0.00000942      -0.00309368       0.00090593       0.28233239
H      -12.98560074       1.85683407       8.79388236     -13.07780040      -0.10139902       0.05862878       0.00461508       0.03292913
47
Properties=species:S:1:pos:R:3:energies:R:1:forces:R:3:charge:R:1 energy=-2285.6401080555015 free_energy=-2285.6401080555015 dipole="14.841341586628442 -9.527964060707701 -2.3114046731760745" pbc="F F F"
O        1.10377751      -2.53727254      -2.41047237    -113.30019001      -0.00096722       0.00158669      -0.00090796      -0.44246871
O       -2.25348782      -2.11838853      -3.82543616    -113.16110791       0.00363052       0.00086716      -0.00179296      -0.44345735
O       -1.97290298      -1.73482535      -0.90167763    -113.28098628       0.00055889      -0.00071987      -0.00105248      -0.44954887
O       -1.02615912      -3.67701187      -5.90186808    -112.99141867      -0.00037735       0.00246762       0.00689691      -0.43329436
O        0.81215282       0.45886364      -1.12926667    -112.79336165      -0.00130887      -0.00254069      -0.00166298      -0.37994162
O        2.85537421       8.86289377      -0.07695750    -114.30918386      -0.00041022      -0.00089105      -0.00030767      -0.56568523
C       -0.29452975      -2.45918093      -2.40814994     -59.02379602      -0.00001971       0.00008751      -0.00052398       0.08580392
C       -0.87908571      -2.42668509      -3.82957031     -59.14827102       0.00023462      -0.00007306       0.00074500       0.08225776
C       -0.83244164      -1.24075850      -1.57828233     -59.09410593       0.00036859      -0.00099856      -0.00103126       0.09393725
C       -0.63404758      -3.75920727      -4.56011152     -59.24698586      -0.00055372       0.00228911       0.00567446       0.06615456
C        0.19774198      -0.66316853      -0.66996129     -57.57463850      -0.00039648      -0.00193801      -0.00185825       0.13333180
C       -0.00926478      -1.96268809       8.49883870     -58.26684528       0.00613047      -0.00654246      -0.01665005       0.17573228
H       -0.64441197      -3.36688909      -1.90151455     -12.89094063       0.00041043      -0.00018567      -0.00108522       0.06422714
H       -0.40038307      -1.62272854      -4.40552859     -12.99291219      -0.00151147      -0.00281380      -0.00003918       0.05452332
H       -1.11535879      -0.43996837      -2.27873853     -12.85637345       0.00137094      -0.00103226      -0.00089722       0.06296095
H        0.42950278      -4.00438267      -4.55116503     -13.05528645      -0.00316931       0.00163121       0.00770222       0.05820673
H       -1.18865404      -4.55778051      -4.04180071     -13.27223965       0.00132394       0.00476881       0.00639159       0.02501408
H        1.46102565      -1.78846297      -2.90422992     -11.33268284      -0.00197181       0.00161715      -0.00101152       0.30481781
H       -2.67451057      -2.56509535      -3.08046606     -11.42352149       0.00207012       0.00262262      -0.00371774       0.30428973
H       -0.98441551      -1.45920648       8.59606537     -13.12862661       0.00519684      -0.00330682      -0.00568591       0.03580743
H        0.56955620      -2.02442998       9.43444134     -13.13503280      -0.00089631      -0.00117362      -0.00803976       0.03509228
H       -2.36037577      -1.02992181      -0.36754798     -11.28764852       0.00104529      -0.00148965      -0.00145037       0.31328947
H        2.68166216       9.56379117       0.55453400     -11.84333208       0.00022742      -0.00125929      -0.00055958       0.28276108
H       -1.89253412      -3.24902473      -5.92592363     -11.43339900       0.00035872      -0.00052806       0.00350932       0.30562835
O       -1.42664509      -4.08139210       0.95509298    -112.68868759       0.00392275       0.00584049      -0.00002141      -0.36843764
O       -1.71852479      -2.08639162       1.91934539    -112.15289245       0.00272371      -0.00399431       0.00139464      -0.38645125
O        3.12233814      -1.49763547       1.38966003    -112.74457438      -0.00132379      -0.00077170       0.00148556      -0.43824621
N        0.58089647      -1.19036569       0.52467046     -80.19716380       0.00029310      -0.00120716      -0.00109268      -0.17586169
N        3.60625621      -3.67262793       1.64647948     -80.88464556      -0.00242295       0.00154186       0.00508696      -0.25099929
C        0.40213991      -2.58689871       0.85636773     -58.95198581      -0.00014880      -0.00031914      -0.00026584       0.02492737
C        1.32302218      -2.94024558       2.03950015     -59.38607122      -0.00151201      -0.00115122      -0.00168387      -0.10111989
C       -1.04267118      -2.85130128       1.29310762     -58.73047883       0.00251235      -0.00015717       0.00034459       0.36348718
C        2.76563651      -2.62837772       1.66928508     -58.92938411      -0.00163258      -0.00037263       0.00183765       0.28829963
H        0.63450201      -3.23581544       0.00149622     -12.78580730      -0.00121062       0.00109473       0.00107354       0.07964672
H        1.04319459      -2.31839457       2.89365931     -12.74543446      -0.00376385      -0.00411362      -0.00287321       0.09498225
H        1.19444109      -3.98855275       2.30382420     -13.07959653      -0.00010096       0.00029226      -0.00426407       0.06492672
H        1.45601288      -0.81820855       0.90370104     -11.69213643      -0.00029490      -0.00136262      -0.00160255       0.22869956
H        1.52661242       0.72536883      -0.53542973     -11.01893271      -0.00526771      -0.00147080      -0.00454754       0.32629696
H        3.31929502      -4.60690648       1.87704552     -12.07540471      -0.00289409       0.00251382       0.00544650       0.19487470
H        4.57070909      -3.51206110       1.40169238     -11.92891403      -0.00256912       0.00234782       0.00744568       0.20879640
H       -2.33733218      -4.24867097       1.24738561     -10.73995480       0.00557122       0.00600977       0.00033564       0.34207464
O       14.38647473      11.82593003      -3.73251388    -114.28072439       0.00009141       0.00013210       0.00051099      -0.56506589
H       15.12480842      12.01039415      -3.14849973     -11.85350372      -0.00150886       0.00018614      -0.00338305       0.28251912
H       14.62528411      12.15001516      -4.60323537     -11.85330743       0.00083181      -0.00039462       0.00300682       0.28254677
O        0.38975171      -2.40744845       7.45963663    -111.16685665      -0.00316573       0.00396989       0.00847807      -0.29699773
H        3.34768087       9.25184096      -0.80263257     -11.84127043       0.00037736      -0.00096184       0.00066494       0.28292415
H      -55.63938384      36.86909518      11.85017409     -13.06949402       0.00014796      -0.00009704      -0.00002277      -0.25126238
47
Properties=species:S:1:pos:R:3:energies:R:1:forces:R:3:charge:R:1 energy=-2285.6860492810433 free_energy=-2285.6860492810433 dipole="23.67364669307417 -18.291107591636077 -4.597949153835583" pbc="F F F"
O        2.34417959      -3.25228665      -4.45111089    -113.35632878       0.00064267       0.00169134      -0.00318427      -0.44302976
O        0.32466093      -1.40258041      -4.12343776    -113.34880480       0.00151038       0.00275323      -0.00114111      -0.45725478
O        1.02199427      -2.88478281      -1.07687752    -113.43740954       0.00174974      -0.00053116      -0.00005282      -0.45404201
O       -2.23901641      -2.27144089      -3.52118787    -113.13208112      -0.00625756       0.00200641       0.00306898      -0.43560431
O        4.31258671      -3.25575033      -2.64676288    -112.73718721       0.00411052      -0.00165987      -0.00067904      -0.38552197
O      -11.79229252      18.24798221       6.17681992    -114.26540801       0.00032937      -0.00003175      -0.00058090      -0.56484888
C        1.39170812      -3.40626929      -3.41956373     -58.93530333       0.00100346       0.00030363      -0.00160187       0.09675602
C        0.07806008      -2.77599241      -3.90658238     -58.99448289      -0.00083885       0.00023316      -0.00065919       0.09383811
C        1.95140433      -2.75657232      -2.11928740     -59.18857253       0.00193230      -0.00039587      -0.00030027       0.08980933
C       -1.13440765      -2.96460081      -2.99011728     -59.32424688      -0.00445659       0.00168398       0.00208109       0.05424204
C        3.28258142      -3.36921832      -1.77737054     -57.65307315       0.00311885      -0.00101941      -0.00078113       0.12828123
C        7.43426202      -0.70158835       3.33680776     -58.27589805      -0.00567006      -0.00227333      -0.00335554       0.17692998
H        1.25552765      -4.48014555      -3.26094792     -13.05907099       0.00248224      -0.00014281      -0.00237230       0.05175454
H       -0.14891683      -3.25013455      -4.88138394     -13.14048688      -0.00119928      -0.00289904      -0.00160708       0.02860516
H        2.10429058      -1.68457326      -2.36157578     -12.83430542       0.00155958       0.00063670       0.00079758       0.05719370
H       -1.34306946      -4.03186125      -2.85913647     -13.30768511      -0.00638694      -0.00028500       0.00224179       0.02885436
H       -0.93966405      -2.51840627      -2.01542027     -12.75165631      -0.00391497       0.00458661       0.00321903       0.08831164
H        2.20530277      -2.36852668      -4.82320404     -11.10331960      -0.00118308       0.00174412      -0.00323911       0.32557969
H       -0.51305997      -0.94012918      -3.98222210     -11.25043012       0.00006832       0.00394436      -0.00306649       0.31968292
H        8.36154994      -0.73078419       3.93112723     -13.12225351      -0.00634751      -0.00738126       0.00266365       0.03634351
H        7.50986873      -0.12957143       2.39876992     -13.10272525      -0.00311319      -0.00021269      -0.00522645       0.03848026
H        1.41944129      -2.52078391      -0.27212472     -11.09752332       0.00244121      -0.00066339       0.00076311       0.32578631
H      -12.56272146      18.74593720       6.45716394     -11.85938015      -0.00058328      -0.00084053       0.00038296       0.28252112
H       -2.53487163      -2.70602099      -4.32963875     -11.48897689      -0.00402097      -0.00011162       0.00113651       0.29343907
O        2.26974226      -2.88397706       1.64707550    -112.72954748       0.00254744       0.00652048       0.00257129      -0.36806262
O        2.61430375      -4.84411537       2.66101789    -112.32774780       0.00452410      -0.00192759       0.00288372      -0.39772924
O        5.75210454      -5.24870736       0.48179203    -112.58742829       0.00289276      -0.00074099       0.00095669      -0.43429742
N        3.60928175      -3.75910783      -0.51102394     -80.17974886       0.00266472      -0.00069802      -0.00062451      -0.17663993
N        5.03322953      -6.53011237       2.18681664     -80.90802401       0.00061195       0.00087223       0.00417033      -0.25739110
C        2.82216332      -4.71950849       0.25098543     -59.00534528       0.00181306      -0.00043152       0.00016101       0.01544599
C        3.51690982      -6.09242607       0.34281412     -59.34371575       0.00282404      -0.00188255      -0.00170745      -0.10422795
C        2.57408318      -4.18195388       1.66047288     -58.74384526       0.00320025       0.00106471       0.00208203       0.35350460
C        4.87553351      -5.90921302       1.00557031     -59.01110344       0.00198424      -0.00064543       0.00128671       0.28669118
H        1.83807235      -4.83302665      -0.21935299     -12.62034294      -0.00039291      -0.00042845       0.00043364       0.09501459
H        2.89018573      -6.77951104       0.90805062     -13.02987878       0.00251625      -0.00533163      -0.00252609       0.06970927
H        3.66885221      -6.47670369      -0.66631251     -12.90887272       0.00436686      -0.00048801      -0.00432925       0.07941028
H        4.61259612      -3.93741016      -0.41013752     -11.71643491       0.00296185      -0.00072653      -0.00044473       0.23478392
H        3.94020970      -3.18302237      -3.54820402     -10.95773451       0.00255161      -0.00264629      -0.00432265       0.34206104
H        4.23857532      -6.86819180       2.70175568     -12.03671019      -0.00046813       0.00157627       0.00440761       0.20307879
H        5.88348464      -6.35254286       2.69884652     -12.02934043      -0.00020843       0.00199488       0.00620134       0.20365763
H        2.15446197      -2.54829410       2.55130566     -10.68157011       0.00392114       0.00759337       0.00383284       0.34717014
O        8.07100766       5.67662553      -0.91380672    -114.32736953      -0.00082674      -0.00048993       0.00118546      -0.56559374
H        7.76604542       6.15930046      -1.68459976     -11.83288901      -0.00162488      -0.00044368      -0.00271878       0.28271925
H        8.75395831       6.20812582      -0.50002258     -11.83268764       0.00185502      -0.00137092       0.00284075       0.28287448
O        6.42522278      -1.24658220       3.68341691    -111.15159177      -0.01509505      -0.00326141      -0.00497064      -0.29567224
H      -11.10717829      18.88338719       5.96013178     -11.86087765       0.00035171       0.00079472       0.00013367       0.28232775
H      -91.78951463      71.23488907      15.97569479     -13.09663307       0.00005281      -0.00003953      -0.00001012      -0.25494195
47
Properties=species:S:1:pos:R:3:energies:R:1:forces:R:3:charge:R:1 energy=-2286.811959746665 free_energy=-2286.811959746665 dipole="13.799554347014205 -13.71381627497192 -2.9324504429594613" pbc="F F F"
O        3.24873457      -2.33570753       2.23943617    -113.32640006       0.00017393       0.00189053      -0.00036976      -0.46175639
O       -0.13039629      -2.18607406       0.98223883    -113.46572245      -0.00294537      -0.00143183       0.00251232      -0.46578072
O        1.48043412      -3.34566312      -0.81966334    -113.38468341       0.00026013       0.00343666      -0.00220060      -0.46289363
O       -0.52132684      -1.15884429       3.45627833    -113.14283493      -0.00318573      -0.00273784       0.00268401      -0.43798059
O        4.71578497      -2.51205819       0.01179281    -113.14731301       0.01104856      -0.00067818      -0.00604146      -0.47402988
O      -35.87858318      24.70168660       8.53736123    -114.23218365      -0.00252832       0.00083738       0.01288152      -0.56484964
C        2.28945843      -2.24868382       1.22321396     -59.06093277      -0.00091710       0.00148598       0.00049694       0.10122817
C        0.92019546      -2.32930064       1.91539736     -58.94669945      -0.00145163      -0.00064955       0.00151849       0.09883070
C        2.47316754      -3.37386454       0.17621388     -59.00034446       0.00035588       0.00201480      -0.00013276       0.08350971
C        0.80123780      -1.22209465       2.97396405     -59.21032879      -0.00268057      -0.00068662       0.00166080       0.06166991
C        3.85509327      -3.24732509      -0.47777080     -58.90357806       0.00252400       0.00084966       0.00087606       0.26815090
C        7.75540357      -1.98863492      -1.32710310     -57.16264341      -0.00084127      -0.00050566      -0.00292301       0.03056911
H        2.35643652      -1.28440119       0.69334432     -13.13722460      -0.00229513       0.00244576       0.00097128       0.03580322
H        0.83735336      -3.31242670       2.40867808     -13.17694613       0.00030283      -0.00157776       0.00151538       0.03054248
H        2.46050055      -4.34162079       0.71259391     -13.04609832      -0.00077035       0.00197226       0.00045516       0.04291559
H        1.53144796      -1.38379587       3.76981966     -13.12539970      -0.00156333      -0.00000870       0.00096747       0.05078914
H        0.99263351      -0.25443811       2.50390975     -12.98370424      -0.00444876       0.00021871       0.00166047       0.06257141
H        4.11652648      -2.25431583       1.80822610     -11.19233870       0.00207448       0.00242421      -0.00167032       0.33087733
H       -0.83442147      -1.69179556       1.43212994     -11.18610751      -0.00354463      -0.00236865       0.00326288       0.32479345
H        8.78763614      -2.06098047      -1.60802083     -13.16442779      -0.00007624      -0.00226478      -0.00443338       0.06775086
H        7.10247049      -1.24937013      -1.75185282     -13.34986449      -0.00284187       0.00173249      -0.00295837       0.04706930
H        0.67021942      -2.98341212      -0.42359370     -11.15165617       0.00495040       0.00107347      -0.00512686       0.33732438
H      -36.18511112      25.14501479       7.74376363     -11.87678555      -0.00404581       0.00260856       0.01324560       0.28241685
H       -0.68261602      -1.90985379       4.03830401     -11.50302658      -0.00167474      -0.00352111       0.00270593       0.29531522
O        4.40259983      -6.42734844      -0.74083357    -112.58405619      -0.00656649      -0.00266531       0.00661741      -0.36051572
O        3.81890567      -7.25848474      -2.72900624    -112.32832972      -0.00173148      -0.00436922       0.00318589      -0.40021704
O        5.71164109      -4.34969560      -3.74581050    -112.70590719       0.00426907       0.00211010       0.00211249      -0.43972406
N        4.11172731      -3.94471651      -1.57689304     -79.89414367       0.00157363       0.00006330       0.00088718      -0.14397496
N        4.88676280      -5.66154945      -5.37003649     -80.86051038       0.00356199       0.00151464      -0.00086891      -0.25187735
C        3.31948579      -4.94371393      -2.24528515     -59.09819569      -0.00180461       0.00001129       0.00022056       0.01296775
C        3.33805048      -4.71344391      -3.76422797     -59.38373998      -0.00065359       0.00176218      -0.00183681      -0.10369704
C        3.86960079      -6.34231406      -1.95453310     -58.78196034      -0.00326370      -0.00254388       0.00346351       0.35558852
C        4.76016518      -4.88857336      -4.28047340     -58.99594289       0.00261064       0.00178710      -0.00000353       0.28832367
H        2.28860946      -4.89673283      -1.87973493     -12.38168274      -0.00427602       0.00044776      -0.00091559       0.12214419
H        2.66039255      -5.41680178      -4.24352007     -12.96228393      -0.00291637       0.00145201      -0.00244774       0.07537228
H        3.00679572      -3.69474049      -3.96833638     -12.79821293      -0.00006114       0.00340582      -0.00398473       0.08935151
H        5.02780826      -3.81978669      -2.01968318     -11.60159415       0.00342629      -0.00089675       0.00156816       0.23967781
H        6.36618777      -2.71683798      -0.22067955     -10.91662843       0.01372648      -0.00095301      -0.00862309       0.35409736
H        4.12419486      -6.21165758      -5.72297765     -12.07149164       0.00213958       0.00112963      -0.00232074       0.19750177
H        5.81304306      -5.85124248      -5.71876621     -11.98441793       0.00567682       0.00154556       0.00039240       0.20591075
H        4.76745718      -7.31259067      -0.57984410     -10.72420527      -0.00749538      -0.00437004       0.00876025       0.34415579
O       11.65711726       3.73208842      -2.98322009    -114.30796857      -0.00117860      -0.00037028      -0.00019238      -0.56544483
H       11.88326886       4.16226312      -2.15619731     -11.84136352      -0.00010652      -0.00072872       0.00018882       0.28274185
H       12.19610420       4.13338419      -3.66777382     -11.84227877      -0.00034373      -0.00074128       0.00024865       0.28270298
O        7.32703279      -2.86015238      -0.42423156    -112.12686624       0.00087605      -0.00062738      -0.00186187      -0.32554872
H      -36.33802315      25.09660769       9.28163289     -11.87587082       0.00656886      -0.00341916      -0.02613075       0.28243279
H      -58.95847760      57.37382077      10.23679322     -12.86706453       0.00008885      -0.00010413      -0.00001700      -0.22680622
47
Properties=species:S:1:pos:R:3:energies:R:1:forces:R:3:charge:R:1 energy=-2276.515560555954 free_energy=-2276.515560555954 dipole="7.460911112102383 -5.774134106693072 1.6659183785964515" pbc="F F F"
O        2.40778929      -2.42894916       2.77053721    -113.04982863      -0.00123686      -0.00413778       0.00623660      -0.42713213
O        1.20880905       0.02045749       0.40633540    -113.37923619      -0.00101993      -0.00454889      -0.00170818      -0.45502581
O        0.13257004      -3.25181512       1.72424583    -112.29433760      -0.00151534      -0.00280271       0.00154581      -0.48084724
O        1.26269710       1.63185708       2.76697809    -113.11912758       0.00305528       0.00451888      -0.00405744      -0.43811801
O       -4.64812019      -0.90049523       5.40266078    -114.30577081       0.02413359      -0.00566394      -0.01770377      -0.56686300
O      -18.55704181      14.81182359     -13.80710270    -111.13356697       0.00083014      -0.00125595       0.00083116      -0.51278715
C        2.04836424      -1.86150945       1.55855414     -58.68403931       0.00044057      -0.00197778       0.00340423       0.10319169
C        1.29682979      -0.53656934       1.69950573     -58.98398436       0.00090195      -0.00015325       0.00105132       0.09139989
C        1.02838057      -2.89782456       0.87630593     -59.17087287      -0.00137885      -0.00211387       0.00060441       0.18035291
C        1.99599340       0.43574852       2.65846427     -59.22719792       0.00310067       0.00372144      -0.00319312       0.06356991
C        0.74233288      -2.26686390      -0.44730588     -56.23483824      -0.00465101      -0.00033863       0.00057572      -0.00651154
C        6.41903880      -0.97678471      -0.27042410     -58.18564575      -0.01701359      -0.00584193       0.00313256       0.18560385
H        2.95740169      -1.72060088       0.96962636     -13.11791679       0.00310520      -0.00161650       0.00489349       0.04841375
H        0.28571206      -0.75636662       2.08508833     -13.05938982       0.00150258       0.00077870       0.00455958       0.04431299
H        1.58028005      -3.80705374       0.49796112     -12.34010045      -0.00091481      -0.00349292      -0.00195616       0.07521522
H        2.14665923      -0.04416299       3.63131068     -13.19199192       0.00577483       0.00636068      -0.00162738       0.04163534
H        2.96807261       0.71486739       2.24547735     -13.01411211       0.00193285       0.00339837      -0.00737066       0.06013961
H        1.58527043      -2.78593626       3.15537183     -11.10627497      -0.00155425      -0.00780429       0.00528795       0.32985576
H        0.90848048       0.93442213       0.51352874     -11.17360877      -0.00297841      -0.00406339      -0.00455153       0.32196533
H        6.53954377       0.01548972      -0.72992466     -12.89905087      -0.00136432       0.00703121       0.00303742       0.05827839
H        7.31250179      -1.36815210       0.23787579     -12.90246069      -0.00008228       0.00401916       0.00515344       0.05765991
H       -4.25389288      -1.52118009       4.78512606     -11.84775795      -0.03534690       0.00800399       0.02490200       0.28372965
H      -19.47109458      14.88919831     -13.53122077     -12.28346989       0.00001141       0.00069490      -0.00060695       0.26822174
H        0.44785342       1.46143855       3.25401759     -11.49436970       0.00435470       0.00543322      -0.00052617       0.29672269
O        4.01234584      -2.61023416      -3.92299445    -112.55473979      -0.00019942      -0.00050344      -0.00065382      -0.35049036
O        2.06240287      -1.50801865      -3.88458570    -112.31500317      -0.00435027       0.00608953       0.00067897      -0.39199764
O        1.83190185      -4.40670140      -3.47470875    -112.48100539       0.00084036       0.00199868      -0.00814070      -0.41775907
N        1.46270739      -2.14599880      -1.47732523     -79.28937721      -0.00399652       0.00113463      -0.00011311      -0.02771916
N        2.20209325      -6.10814768      -2.04645451     -80.95020959       0.00061102      -0.00035099      -0.00241810      -0.25704674
C        2.83651811      -2.49785763      -1.84783325     -58.92657661      -0.00253619       0.00167670       0.00004237      -0.00199880
C        3.22020980      -3.95108470      -1.58961274     -59.34187106      -0.00109145       0.00148364      -0.00144811      -0.09811023
C        2.90305786      -2.18086393      -3.34877990     -58.68707983       0.00076023       0.00018241       0.00203519       0.37193025
C        2.34428231      -4.84067179      -2.46601035     -58.94740836       0.00091538       0.00037259      -0.00294110       0.28753188
H        3.53953121      -1.83478126      -1.32877086     -12.34186747      -0.00338410       0.00221516       0.00189968       0.12573111
H        4.26067284      -4.08011080      -1.89605439     -12.61431366      -0.00005646       0.00229081      -0.00046066       0.10385191
H        3.14937259      -4.21105112      -0.53336744     -13.02944511      -0.00189654       0.00132465      -0.00153733       0.06972051
H        1.04679623      -1.64320277      -2.28373586     -11.06239564      -0.00636319      -0.00422947      -0.00213243       0.26789907
H       -5.51892012      -1.23450154       5.62827224     -11.85668423       0.02558466      -0.00450511      -0.01681763       0.28313334
H        2.64091672      -6.45721127      -1.21327089     -12.08256113      -0.00033836      -0.00164058       0.00085211       0.19391685
H        1.64398992      -6.74060367      -2.59700856     -11.91023451       0.00142562      -0.00141066      -0.00377385       0.21107363
H        4.00974827      -2.39352532      -4.86951097     -10.59052905       0.00066561      -0.00043000      -0.00084186       0.35249375
O        5.95819728       3.29999235      -5.18334535    -114.41386300       0.00021642      -0.00419027       0.00362278      -0.56800598
H        5.42240775       4.02862961      -4.86305970     -11.80331177      -0.00300531      -0.00349479       0.00180021       0.28405122
H        6.25238151       3.53651399      -6.06543702     -11.80575515       0.00158823      -0.00517634       0.00329399       0.28395476
O        5.39173133      -1.58800554      -0.32149341    -111.32926888       0.01449991       0.00903562       0.00505181      -0.29225184
H      -25.01684593      17.00916310      18.57002564     -10.99525443       0.00004640      -0.00006736       0.00005088      -0.02679649
H      -31.79720073      29.12705565      18.30709154     -10.98785534      -0.00002320       0.00004586       0.00003639      -0.02609570
47
Properties=species:S:1:pos:R:3:energies:R:1:forces:R:3:charge:R:1 energy=-2277.767589766883 free_energy=-2277.767589766883 dipole="6.926402226270842 -1.9225863243313859 0.462988542768593" pbc="F F F"
O        3.65959309       0.70148680       0.20504176    -113.48556302      -0.00295350      -0.00633382      -0.00048970      -0.45733007
O        1.05613127       1.07585856       0.55685556    -113.30823666      -0.00091714      -0.00488405      -0.00345447      -0.45634182
O        2.74288374      -2.72160123       0.85774733    -113.18417775      -0.00146812      -0.00209570       0.00198177      -0.44285676
O        0.62105884       0.15930707       3.07453984    -113.16021918       0.00401006       0.00471506      -0.00111362      -0.43936041
O      -27.85863574       4.52111467      22.59034337    -110.79162610       0.00073560       0.00127639      -0.00130558      -0.47291333
O      -16.04341829      12.03192077     -18.26934703    -110.77249534       0.00144159      -0.00006661       0.00194557      -0.47153796
C        2.81336335      -0.41436993       0.04614202     -58.84622411      -0.00118488      -0.00462944       0.00076451       0.09889392
C        1.53359077      -0.21499665       0.87761437     -58.95825675       0.00024166      -0.00235728       0.00050072       0.09436003
C        3.59139043      -1.69046506       0.47267042     -59.29007577      -0.00277435      -0.00273067       0.00054374       0.09773369
C        1.76939314      -0.29759637       2.39384529     -59.25369415       0.00286236       0.00297263      -0.00049498       0.05644106
C        4.49467758      -2.10694021      -0.67696213     -58.06924641      -0.00410236       0.00030627       0.00133655       0.08805758
C        5.81416039      -1.36709295      -0.86917195     -59.31141069       0.00311801       0.00076867       0.00138213       0.07184007
H        2.51027831      -0.50260405      -1.00920239     -13.12651089      -0.00024293      -0.00658887       0.00201381       0.03772059
H        0.79521773      -0.97459202       0.58142988     -13.16003644       0.00036994      -0.00303619       0.00411913       0.03660730
H        4.19894202      -1.42125555       1.34547008     -12.81592624      -0.00320149      -0.00315893      -0.00179283       0.06899498
H        2.03251209      -1.31867018       2.67904115     -13.12866284       0.00393475       0.00470587       0.00258446       0.05176388
H        2.57383374       0.38584131       2.67796021     -12.98135717       0.00292122       0.00363674      -0.00416138       0.06378424
H        3.07146129       1.47466521       0.21402592     -11.08472337      -0.00406008      -0.00868284      -0.00091297       0.33185367
H        0.56041017       1.38457164       1.33148267     -11.26618426      -0.00011630      -0.00265868      -0.00469774       0.31983634
H        6.47199350      -1.95831230      -1.51332311     -12.98326046       0.00315167       0.00211721       0.00374208       0.06011558
H        6.28320541      -1.24758362       0.11863901     -13.07529283       0.00232667       0.00146158       0.00117274       0.04550433
H        2.47272031      -3.24060098       0.07245757     -11.01837384      -0.00904238       0.00149313       0.00877168       0.34432220
H      -16.38395381      12.71289685     -17.68672582     -12.04362293      -0.00081567      -0.00026255      -0.00153563       0.28300912
H       -0.06907568      -0.51022507       3.00740567     -11.50337954       0.00424244       0.00485384       0.00207028       0.29617557
O        4.13470460      -1.67722605      -3.70706075    -112.40079878       0.00137050       0.00065239       0.00010563      -0.34445572
O        3.58474371      -3.56054847      -4.77634568    -112.35712572       0.00012742       0.00634826      -0.00041845      -0.39963901
O        1.83590437      -4.47554656      -1.36105891    -112.54088029       0.00197888      -0.00032988      -0.00360077      -0.42264106
N        4.02861001      -3.01986550      -1.38963331     -79.18209796      -0.00272722       0.00066066      -0.00233343      -0.15753808
N        1.63315460      -5.44415172      -3.37892394     -80.89512638       0.00208138       0.00471388      -0.00089109      -0.25423176
C        4.47708568      -3.70787253      -2.53616384     -58.94748407      -0.00133381       0.00344321       0.00030373       0.04047606
C        3.86033332      -5.11856159      -2.49008659     -59.27423367       0.00039453       0.00346500      -0.00076833      -0.09766113
C        4.00632122      -2.98640209      -3.80998571     -58.76482018       0.00043843       0.00385549       0.00022626       0.36236904
C        2.34793937      -4.97352259      -2.34384904     -58.93945849       0.00146109       0.00212900      -0.00208343       0.29301091
H        5.57608156      -3.77582237      -2.60848018     -12.83387912      -0.00158717       0.00434084       0.00095456       0.06830793
H        4.12201968      -5.66894608      -3.39128263     -13.01340287       0.00103978       0.00467299      -0.00046679       0.07181740
H        4.24167032      -5.63790839      -1.61080902     -12.85161066      -0.00035237       0.00288234      -0.00108990       0.08433025
H        5.05298885       0.41108079      -0.95271557     -11.18366662      -0.00611455      -0.00459250      -0.00600294       0.33014739
H      -28.81269414       4.43378164      22.62549978     -12.04658788       0.00080188      -0.00063188       0.00068095       0.28273607
H        2.06918277      -5.68309727      -4.25271008     -11.99903656       0.00188854       0.00699361       0.00113723       0.20543919
H        0.63259943      -5.32168356      -3.36504674     -12.00180244       0.00286022       0.00421761      -0.00158495       0.20412148
H        3.86559447      -1.21252802      -4.51654071     -10.64633565       0.00227238       0.00102183       0.00007270       0.34995792
O        4.64815642       3.91935321      -5.09361256    -114.37657955      -0.00085658      -0.00675143       0.00199313      -0.56740714
H        5.18750675       3.98337534      -4.30280658     -11.81885660       0.00202515      -0.00626136      -0.00191211       0.28365723
H        4.78829958       4.72403559      -5.59692667     -11.82399351      -0.00441477      -0.00678725       0.00173124       0.28374991
O        5.64021793      -0.13931474      -1.50429913    -112.88590771       0.00157789      -0.00419777       0.00038134      -0.42058305
H      -17.74832193       8.39948144      18.70090981     -10.12124879      -0.00133426      -0.00053048       0.00057187       0.05429605
H      -25.68110284      26.43095410      18.32897158     -10.24409954      -0.00007411      -0.00013634       0.00002326       0.04306634
47
Properties=species:S:1:pos:R:3:energies:R:1:forces:R:3:charge:R:1 energy=-2290.2070506249693 free_energy=-2290.2070506249693 dipole="-0.9132674362616368 -0.9881559101439423 -0.17715840847037648" pbc="F F F"
O        3.77447074      -0.15528394      -0.13830794    -113.21711039       0.00371224      -0.00168157      -0.00156008      -0.45118748
O        3.03971505      -1.79838914       1.85585836    -113.16471852       0.00787299      -0.00736476      -0.00006028      -0.45590205
O        1.44902493      -2.59318105      -1.46612645    -113.18592789      -0.00375205       0.00548479      -0.00530811      -0.46135336
O        0.27224477      -1.87901713       2.54589949    -113.06967050       0.00555622      -0.00293246       0.00202508      -0.44872585
O      -22.44623539       8.43295207      15.66777562    -114.23123381       0.00383226      -0.00092266      -0.00069240      -0.56477146
O      -29.14970208      22.93244714      -1.71937705    -114.23386352      -0.00479051       0.00289508       0.02068247      -0.56466663
C        2.55631492      -0.85396491      -0.26204331     -59.04321870       0.00196486       0.00078131      -0.00011435       0.10095700
C        2.01538110      -1.12365536       1.15042847     -59.01210363       0.00533494      -0.00115749       0.00137326       0.10151841
C        2.73408339      -2.15714338      -1.06688137     -58.99623504      -0.00196823       0.00148086      -0.00410478       0.09076980
C        0.70953014      -1.91309487       1.19921141     -59.16628892       0.00156724      -0.00005688      -0.00001623       0.06652863
C        3.54387699      -1.97749757      -2.35238547     -58.00892642      -0.00210266       0.00316490      -0.00390071       0.09599081
C        3.21820259      -0.75261332      -3.18588523     -59.37059077      -0.00508395       0.00378983      -0.00433669       0.06889081
H        1.85730893      -0.20367836      -0.79554018     -13.00548538       0.00131972       0.00358112       0.00269384       0.05702941
H        1.83105814      -0.14740230       1.62818271     -13.05452979       0.00891669       0.00112547       0.00458590       0.04113060
H        3.20678853      -2.90164720      -0.41350265     -13.19681475      -0.00371790      -0.00205624      -0.00549804       0.03621792
H       -0.02211636      -1.45400600       0.52653898     -13.24749441      -0.00056561       0.00515410       0.00098428       0.03560651
H        0.88548533      -2.94578744       0.87971603     -13.09961560      -0.00200823      -0.00241127      -0.00364725       0.04759936
H        4.26197101      -0.57474634       0.58479642     -11.32473229       0.00631564      -0.00528672      -0.00188770       0.32020013
H        2.66352181      -2.05999047       2.70420986     -11.41868412       0.00914469      -0.00932242       0.00024678       0.31504317
H        2.15552592      -0.50193533      -3.06183837     -13.15213904      -0.00780192       0.00539521      -0.00210161       0.04019678
H        3.41925070      -0.97917229      -4.23481155     -12.89094302      -0.00648719       0.00376119      -0.00793248       0.07009993
H        1.54339505      -3.52332640      -1.72796115     -11.35285050      -0.00486292       0.00540747      -0.00718212       0.32701716
H      -30.00934663      23.00510293      -1.30048842     -11.87102442      -0.00542273       0.00333301       0.02075361       0.28229452
H       -0.57806169      -2.32419531       2.60846508     -11.60208160       0.00463653      -0.00118369       0.00303702       0.29454218
O        4.60336947      -6.26654012      -2.09640397    -112.50424716      -0.00282277      -0.00468919      -0.00379263      -0.36322999
O        2.81648031      -4.98727466      -1.75075654    -112.41301219      -0.00420795       0.00185581      -0.00361303      -0.41662689
O        6.55194858      -5.64965389       0.13457845    -112.27494718      -0.00434517      -0.00389495       0.00446891      -0.41806209
N        4.38247344      -2.76121997      -2.86821508     -80.02237151       0.00086955       0.00413903      -0.00334464      -0.23019461
N        7.68429432      -5.17685806      -1.75085102     -80.84135471       0.00619551      -0.00027047       0.01020376      -0.26641798
C        4.95517046      -3.96563501      -2.34810898     -59.03296963       0.00029509       0.00246404      -0.00046617       0.03149032
C        5.87141068      -3.71561610      -1.12713584     -59.16340054      -0.00098363       0.00304378       0.00452849      -0.09173310
C        3.98612048      -5.09311996      -2.01946281     -58.81648533      -0.00265673      -0.00000164      -0.00273924       0.36111453
C        6.72085206      -4.94561781      -0.83266946     -59.13879715      -0.00001061      -0.00069111       0.00638413       0.28785674
H        5.57987639      -4.35367966      -3.16628955     -12.77843449       0.00170497       0.00325039      -0.00033960       0.07075607
H        6.50942868      -2.86158872      -1.35998008     -13.02370862       0.00157032       0.00456828       0.00848614       0.06923313
H        5.27948380      -3.48445456      -0.24154011     -13.06752779      -0.00485796       0.00417042       0.00291991       0.07075209
H        4.04313315       0.44239107      -1.89568088     -11.47538729      -0.00075765       0.00216806      -0.00252825       0.31751260
H      -23.30921453       8.11626582      15.94185679     -11.87307869       0.00088092       0.00644793      -0.00134058       0.28234844
H        7.79899460      -4.59917088      -2.56403206     -12.22073398       0.00970128       0.00195462       0.01158983       0.18751675
H        8.25535957      -5.99986620      -1.65852184     -12.12901667       0.00720749      -0.00267677       0.01142736       0.19822826
H        4.01720085      -6.99172055      -1.82494135     -10.82826157      -0.00482142      -0.00640110      -0.00517432       0.34289464
O        7.16615998       4.57247765      -2.81034119    -114.22885896      -0.00484237      -0.00512590       0.00017395      -0.56746679
H        6.32709342       4.14152038      -2.98721504     -11.86160295      -0.00762332      -0.00489843      -0.00117769       0.28630563
H        7.81200040       3.87734639      -2.67071235     -11.90648571      -0.00441460      -0.00836819      -0.00113406       0.28116114
O        4.04384541       0.33804928      -2.86100372    -112.94617427      -0.00319403       0.00375276      -0.00316201      -0.44326032
H      -22.51980539       9.37965694      15.53147975     -11.87230895      -0.00468502      -0.00554157       0.00200762       0.28242303
H      -29.30463464      22.79335590      -2.65496316     -11.87160225       0.01018797      -0.00623398      -0.04141728       0.28237211
47
Properties=species:S:1:pos:R:3:energies:R:1:forces:R:3:charge:R:1 energy=-2290.3530584491236 free_energy=-2290.3530584491236 dipole="0.8301201639789483 -0.4319746745380748 -0.2821586596298765" pbc="F F F"
O        2.95609870      -6.03984406       1.05755053    -113.29254575      -0.00039896      -0.00300864       0.00145353      -0.46917187
O        0.17062660      -4.27947664       2.50840673    -113.35282997      -0.00223283       0.00044685       0.00007852      -0.46341487
O        0.57852522      -3.43455948      -0.01264304    -113.19077009       0.00019140       0.00140884       0.00060434      -0.45505769
O        0.71959024      -6.05003171       4.49999880    -113.08857386      -0.00100759      -0.00167700       0.00096224      -0.43956903
O      -15.40020846       9.63318862       7.56475759    -114.23140171      -0.00087948       0.00052181      -0.00001459      -0.56474038
O      -40.92194015      28.14486654       0.34051154    -114.23226266      -0.00061285      -0.00017213       0.00001281      -0.56472539
C        2.11280599      -4.93353749       1.19173125     -59.07844421      -0.00023702      -0.00150823       0.00123760       0.10104068
C        1.03986818      -5.35137548       2.21235210     -58.93786292      -0.00108724      -0.00139372       0.00052653       0.10071033
C        1.47290842      -4.50692282      -0.16002348     -59.09798330      -0.00063861      -0.00029484       0.00058782       0.09384038
C        1.70228260      -5.82834952       3.51337884     -59.20340747      -0.00009613      -0.00175173       0.00164456       0.06205535
C        2.57593726      -4.04185637      -1.10073668     -58.12504192      -0.00006735      -0.00094654       0.00066515       0.08728442
C        3.32289582      -5.11613781      -1.87646464     -59.26077574       0.00092469      -0.00370965       0.00175739       0.06402333
H        2.64985002      -4.05545806       1.58872280     -13.19636134       0.00062967      -0.00118833       0.00200117       0.02976325
H        0.45937516      -6.18390555       1.77937349     -13.18480918      -0.00171785      -0.00254615      -0.00058809       0.02944191
H        0.96071813      -5.38392889      -0.58787133     -13.15775461      -0.00176017      -0.00036679      -0.00016481       0.03418851
H        2.31029480      -6.71516376       3.32203952     -13.12819784       0.00060735      -0.00316800       0.00207340       0.05097435
H        2.34095211      -5.03255488       3.90367404     -13.00793867       0.00058959      -0.00066398       0.00264092       0.06104340
H        3.64062988      -5.86859475       0.38111566     -11.24948466       0.00023090      -0.00241287       0.00084252       0.33557342
H       -0.08339416      -4.37774655       3.43955044     -11.26285966      -0.00245685       0.00055487       0.00004003       0.32232174
H        3.56368759      -4.78765981      -2.89090883     -13.22467582       0.00119861      -0.00484950       0.00024469       0.03820836
H        2.70341807      -6.01499906      -1.94192482     -13.12717736       0.00036385      -0.00453803       0.00417208       0.04980420
H        0.15445546      -3.50810100       0.85668005     -11.24412220      -0.00040708       0.00245650       0.00139916       0.33467802
H      -40.15090286      28.68761750       0.16449810     -11.87215749       0.00067557       0.00051220       0.00006355       0.28236663
H        0.22689385      -6.84827733       4.27845758     -11.55844491      -0.00111714      -0.00159667       0.00033964       0.29414662
O        1.46772523      -0.70948808      -1.18634039    -112.23382930       0.00008473       0.00640765      -0.00087574      -0.34902698
O        2.91851367       0.32939850      -2.51114993    -112.02181790       0.00356674       0.00477638      -0.00251792      -0.39025125
O        6.11784302      -3.55516332      -2.20121720    -112.73143554       0.00138721      -0.00016158      -0.00653193      -0.45191381
N        2.79063749      -2.80929157      -1.01276967     -79.84645699      -0.00017822       0.00109522       0.00029843      -0.22171918
N        6.68333791      -1.46743455      -2.77782624     -80.84818956      -0.00057999       0.00337673       0.00070491      -0.25926888
C        3.57529932      -1.82122090      -1.62933952     -58.97037348       0.00045903       0.00165347      -0.00104139       0.02068933
C        4.36138835      -2.07544092      -2.93666660     -59.30091488      -0.00021891       0.00008154      -0.00335733      -0.10442034
C        2.60264535      -0.60871833      -1.83212824     -59.08030050       0.00162646       0.00452080      -0.00165104       0.35372265
C        5.78828640      -2.45724129      -2.61763829     -59.04337467       0.00029235       0.00123502      -0.00347486       0.28781147
H        4.27659598      -1.46547243      -0.85793764     -12.84067115       0.00113818       0.00200282      -0.00007446       0.07176389
H        3.87417574      -2.85938225      -3.51392436     -13.08620196      -0.00142383      -0.00173227      -0.00273660       0.06684370
H        4.33443020      -1.14903809      -3.51269989     -13.01469558       0.00018079       0.00019904      -0.00539284       0.07355925
H        5.20172746      -4.84062063      -1.41895908     -11.28586885       0.00238497      -0.00413896      -0.00145667       0.33990292
H      -15.78650573       9.41175631       8.41434842     -11.87317651       0.00014329      -0.00029402       0.00051213       0.28230889
H        6.41670948      -0.55487123      -3.10265290     -12.13472131      -0.00153345       0.00423647       0.00318917       0.19682516
H        7.64956461      -1.64171878      -2.55211456     -12.08692990      -0.00020409       0.00438331       0.00106318       0.20089096
H        1.39419448      -1.60185631      -0.75166117     -10.67402001      -0.00005647       0.00641300      -0.00062591       0.36634550
O       20.20386828      11.43124661      -4.56709474    -114.23759066      -0.00037606      -0.00064464      -0.00002717      -0.56479418
H       20.49200972      11.69353266      -5.44359202     -11.86993499       0.00030986       0.00009325      -0.00064727       0.28238047
H       20.15351726      12.22752106      -4.03466577     -11.86962354      -0.00006828       0.00041757       0.00067744       0.28241371
O        4.49331204      -5.47205391      -1.17176140    -113.25279081       0.00166396      -0.00350927       0.00199727      -0.46363920
H      -15.00696966       8.83170105       7.21397684     -11.87205100       0.00075920      -0.00017259      -0.00054185       0.28243149
H      -40.90494569      27.41648606      -0.28338864     -11.87220605      -0.00005196      -0.00034716      -0.00006970       0.28235876
47
Properties=species:S:1:pos:R:3:energies:R:1:forces:R:3:charge:R:1 energy=-2290.471142319105 free_energy=-2290.471142319105 dipole="0.34901132886627345 0.98769957521297 -0.8118673576808845" pbc="F F F"
O        2.81539708      -6.72007559       1.81714515    -113.08279291      -0.00063166       0.00002017      -0.00048388      -0.43975229
O        1.49658136      -5.96453204       4.47697697    -113.22865194      -0.00122095      -0.00001841      -0.00002869      -0.45634274
O        0.77494777      -3.88636874       2.77740936    -113.23396996       0.00179603       0.00157727       0.00086249      -0.45284701
O        3.37425090      -4.41219643       5.96407301    -112.94132075      -0.00070172      -0.00277009       0.00168068      -0.43779994
O      -20.11557826      -2.32827488      -7.39354459    -114.23405582       0.00032238      -0.00012187       0.00036909      -0.56474198
O      -35.48585355      29.92492338       4.87893747    -114.23330650       0.00003054      -0.00011014      -0.00013518      -0.56471075
C        2.65426847      -5.44522242       2.38258307     -59.02444910       0.00015205      -0.00022590       0.00040895       0.08440208
C        2.71526137      -5.52656298       3.92384853     -59.11351971      -0.00025717      -0.00128437       0.00051770       0.08749428
C        1.31320949      -4.81141678       1.87406327     -59.14422317       0.00065282       0.00103495       0.00058789       0.09024777
C        3.16904069      -4.21744602       4.58832814     -59.32415265       0.00143202      -0.00195276       0.00133487       0.05906788
C        1.59759456      -4.14861377       0.54289527     -58.19190389       0.00064571       0.00067608       0.00040890       0.07977324
C        1.76591588      -5.09775255      -0.61922314     -59.42468016       0.00030775       0.00068867       0.00049714       0.06378578
H        3.49750520      -4.84556907       2.02622352     -13.10864269       0.00078410      -0.00065898       0.00099098       0.04885528
H        3.44655188      -6.30480950       4.17843932     -12.91035660      -0.00128407      -0.00257950       0.00057496       0.06297186
H        0.58858539      -5.62745890       1.74938277     -13.03319720      -0.00021782       0.00179446       0.00083833       0.04969972
H        4.12132724      -3.88671856       4.17007065     -13.17008187       0.00278047      -0.00348858       0.00273795       0.04744889
H        2.41176535      -3.43917462       4.42152267     -13.14865905       0.00292830      -0.00035531       0.00027275       0.03975434
H        2.24816631      -7.33598401       2.30016559     -11.37276945      -0.00175533      -0.00014919      -0.00106441       0.30900293
H        0.83271462      -5.28856144       4.27162895     -11.39185518      -0.00020212       0.00131193      -0.00019978       0.31641472
H        0.77800443      -5.52786115      -0.84241437     -13.14437414      -0.00009951       0.00105558       0.00024399       0.04057194
H        2.40214107      -5.91787839      -0.26168233     -12.73826304       0.00000053       0.00037337       0.00079971       0.08755509
H        1.02410765      -3.01165402       2.42637145     -11.24663874       0.00228843       0.00162481       0.00026401       0.32289130
H      -34.65745060      29.98801337       4.39950829     -11.87159779       0.00007685      -0.00011044      -0.00006846       0.28235602
H        2.63410183      -4.94025251       6.29275681     -11.50940703      -0.00201440      -0.00181308       0.00040032       0.30372583
O        3.24984126      -0.85629591       1.12484106    -112.38486861      -0.00072671       0.00239313       0.00001099      -0.35013596
O        2.52509334       0.30466449      -0.63422641    -112.55846431      -0.00122842       0.00081495      -0.00104563      -0.42802379
O        0.94346972      -2.80180416      -3.46615248    -112.62946682       0.00049154      -0.00077109      -0.00119665      -0.44735786
N        1.69693713      -2.89041581       0.61856527     -80.23350280       0.00060341       0.00080311       0.00008588      -0.24706979
N        1.53552762      -0.62803779      -3.27978400     -80.90970966      -0.00099577      -0.00037193      -0.00137884      -0.26460283
C        1.97907497      -2.03510266      -0.49832805     -58.89189258       0.00015571       0.00047146      -0.00034059       0.03690964
C        0.70354121      -1.75259475      -1.32764379     -59.19098271      -0.00033079      -0.00067984      -0.00077684      -0.09357552
C        2.59071342      -0.73122999      -0.01735770     -58.86562559      -0.00062879       0.00137488      -0.00059831       0.35629776
C        1.05929789      -1.78716627      -2.80335476     -59.10226833      -0.00025057      -0.00077545      -0.00122915       0.28506752
H        2.74283264      -2.49023140      -1.15068256     -12.74624196       0.00071765       0.00057423      -0.00029350       0.08378867
H       -0.03307112      -2.53041309      -1.12353698     -13.02542117       0.00020132      -0.00125825      -0.00059256       0.07079394
H        0.28534956      -0.78525150      -1.05143797     -13.10272101      -0.00138556      -0.00097280      -0.00092672       0.06440619
H        1.73882123      -4.18182244      -2.37475313     -11.43740159       0.00099506       0.00020126      -0.00051060       0.32178409
H      -19.56582239      -1.91898499      -8.06460545     -11.87149424       0.00001983       0.00014850      -0.00039859       0.28235541
H        1.76963992       0.11788863      -2.64061509     -11.99794544      -0.00151370      -0.00015626      -0.00120623       0.21621390
H        1.88136468      -0.59158787      -4.22507613     -12.13291471      -0.00101789      -0.00033401      -0.00160804       0.19834842
H        3.65344635      -0.01279565       1.38795373     -10.82311200      -0.00141262       0.00331454      -0.00027946       0.33964048
O       30.34084931      18.42847458      -8.71297600    -114.23438233      -0.00021733      -0.00000640      -0.00007460      -0.56472049
H       30.71159990      18.00627778      -9.49039561     -11.87107979       0.00009924      -0.00004314       0.00004881       0.28236402
H       30.35283587      19.37457071      -8.87059657     -11.87113360       0.00010646       0.00004937       0.00002414       0.28235647
O        2.38383921      -4.59004394      -1.76937097    -113.02482123       0.00089443       0.00052520       0.00024908      -0.44940582
H      -20.14007726      -3.26863582      -7.58118483     -11.87120616      -0.00027953      -0.00004355       0.00002234       0.28238657
H      -35.60493122      30.75180676       5.35027583     -11.87161635      -0.00011022       0.00022341       0.00020478       0.28235473
47
Properties=species:S:1:pos:R:3:energies:R:1:forces:R:3:charge:R:1 energy=-2290.458482697653 free_energy=-2290.458482697653 dipole="0.018001180392203265 -0.2180501732459089 -0.11719558659254892" pbc="F F F"
O        3.23248691      -4.18332879       1.62642601    -113.13098493      -0.00016009      -0.00067663      -0.00005226      -0.43902461
O        1.84083939      -3.64777398       4.97254785    -113.17101094       0.00048286       0.00077592      -0.00005196      -0.46046445
O       -0.06493107      -3.55814010       3.09623995    -113.19292964       0.00020697       0.00027797       0.00015480      -0.44706919
O        4.23708647      -4.94413021       5.56300314    -112.91874643       0.00000926      -0.00002188       0.00005373      -0.43483701
O      -17.42945025      -5.88531729     -12.36890497    -114.23372704       0.00000676       0.00000510       0.00008561      -0.56474035
O      -14.52526307      19.50880458       3.31218438    -114.23564952       0.00032419      -0.00083859      -0.00000022      -0.56472043
C        2.33379715      -3.65910301       2.56777389     -59.06041998       0.00007009      -0.00016846      -0.00012035       0.08143933
C        2.54834925      -4.30574158       3.95360409     -59.04856145       0.00002011       0.00015310       0.00006197       0.09613454
C        0.85780516      -3.84593501       2.08046710     -59.15223795       0.00000071       0.00001614       0.00011418       0.08984851
C        4.02955666      -4.25341041       4.36316757     -59.23407718       0.00014214      -0.00037596      -0.00018781       0.07448155
C        0.60424578      -2.93872370       0.88842214     -58.17112985      -0.00001637       0.00005582       0.00012786       0.08101498
C        1.17965798      -3.41529834      -0.42251654     -59.42208367      -0.00000406       0.00002712       0.00005175       0.06334358
H        2.55000189      -2.58783566       2.63855023     -12.96424827       0.00040687      -0.00022752      -0.00040664       0.06351600
H        2.23372413      -5.36452795       3.89734521     -13.27620762      -0.00041952       0.00023777       0.00043889       0.01975908
H        0.72706189      -4.89912651       1.79620609     -13.12470839      -0.00022503       0.00010022       0.00015921       0.04139806
H        4.66279212      -4.72619294       3.61134121     -13.10904697      -0.00017751      -0.00095797      -0.00009775       0.05242783
H        4.31858704      -3.19795811       4.46230020     -13.17342296       0.00063526      -0.00046638      -0.00062179       0.03642952
H        3.20753837      -5.14760320       1.67263448     -11.44246607      -0.00045268      -0.00067343       0.00014598       0.29891685
H        0.91383570      -3.59202258       4.68741708     -11.40721334       0.00044107       0.00089681       0.00013351       0.32034036
H        0.69793624      -4.37274629      -0.67280035     -13.17578628      -0.00026480       0.00026486      -0.00008875       0.03698800
H        2.24064381      -3.62281140      -0.22859611     -12.69712431      -0.00017120      -0.00028633       0.00012888       0.09116472
H       -0.35873582      -2.64378911       2.91802153     -11.17495120       0.00011341       0.00023457       0.00008230       0.32725783
H      -14.20929444      19.61347506       4.21179034     -11.87045299      -0.00012698       0.00043393       0.00002415       0.28235807
H        3.58816296      -4.60708427       6.19418573     -11.48032804       0.00024653       0.00051178       0.00001546       0.30847549
O        0.14429747       0.58140008       2.01917837    -112.36722443      -0.00075527      -0.00003217       0.00019865      -0.34895471
O       -1.29962826       1.34067101       0.50071613    -112.56634354      -0.00059212      -0.00016570       0.00007588      -0.42877742
O       -1.29301597      -1.77329404      -2.76330670    -112.62406018       0.00061096       0.00030695      -0.00024306      -0.44694994
N       -0.03634228      -1.89023050       1.18685480     -80.20224940      -0.00008505       0.00007214      -0.00000238      -0.24378383
N       -1.94680035       0.32455558      -2.23169758     -80.90637953       0.00002342       0.00007270      -0.00002815      -0.26431480
C       -0.43125053      -0.88630242       0.24133629     -58.89214539      -0.00005528      -0.00007395       0.00011411       0.03663951
C       -1.75033342      -1.28761122      -0.46355524     -59.18433908       0.00013669      -0.00016173      -0.00026877      -0.09346121
C       -0.59749582       0.45665714       0.92929977     -58.86669885      -0.00044728      -0.00000455       0.00017651       0.35647432
C       -1.64778403      -0.94938624      -1.94044427     -59.10165843       0.00027329       0.00008283      -0.00020907       0.28528356
H        0.35387113      -0.72823210      -0.51646674     -12.74465810       0.00005546       0.00021945       0.00018642       0.08428800
H       -1.89748305      -2.36300888      -0.35734867     -13.02335712       0.00036097      -0.00022515      -0.00045432       0.07101924
H       -2.59129506      -0.76769965      -0.00586841     -13.09859378      -0.00008104      -0.00044328      -0.00029372       0.06465949
H        0.29854989      -2.54816139      -1.97094114     -11.43791682       0.00042843       0.00035827      -0.00002226       0.32114976
H      -17.43308266      -6.52255383     -13.08584679     -11.87133423      -0.00001906       0.00014608      -0.00004774       0.28238806
H       -2.07001621       0.99411715      -1.48590078     -11.99934103      -0.00023440      -0.00006119       0.00005832       0.21603687
H       -1.81893635       0.65574565      -3.17423681     -12.13143048       0.00009202       0.00023648       0.00004089       0.19849498
H        0.03719862       1.46219985       2.41454118     -10.82803041      -0.00097641      -0.00004205       0.00032861       0.33935095
O       22.08131912      19.52766320      -7.82494928    -114.23399201      -0.00018377      -0.00007304       0.00003197      -0.56473417
H       22.50914185      18.76457359      -7.43156382     -11.87129983       0.00007342       0.00005260       0.00000867       0.28237247
H       21.93724078      19.32619276      -8.75163097     -11.87140554       0.00009214       0.00000178      -0.00003286       0.28236171
O        1.15232568      -2.52503748      -1.50259580    -113.02640715       0.00029752       0.00014894       0.00025904      -0.44869574
H      -17.09959649      -6.33662896     -11.58942105     -11.87167283       0.00006586      -0.00014245      -0.00002024       0.28235229
H      -13.81458889      19.78051283       2.72806050     -11.87042950      -0.00016847       0.00042905      -0.00000726       0.28236235
47
Properties=species:S:1:pos:R:3:energies:R:1:forces:R:3:charge:R:1 energy=-2290.740462808986 free_energy=-2290.740462808986 dipole="-0.9718688297350557 -0.22054915860987517 0.02014510470550747" pbc="F F F"
O        1.01260446      -0.40179112       1.76167148    -113.11317870       0.00066302      -0.00047596      -0.00053273      -0.44412076
O        0.57320931      -3.22980386       4.00252109    -113.14458540      -0.00050754       0.00063231       0.00017080      -0.46056376
O       -0.63381766      -3.67246458       1.55340671    -113.17489255      -0.00059630       0.00051911       0.00043322      -0.44571316
O        2.20990959      -1.60925845       5.53037335    -112.86915424       0.00018440      -0.00026556      -0.00030398      -0.43412436
O       -0.82855011      -0.79351269      -4.05411213    -114.57593552       0.00108347       0.00029847       0.00066549      -0.60051019
O       -4.11463882      12.00469203       4.23423187    -114.23822646      -0.00003477      -0.00073048       0.00037263      -0.56493671
C        0.38484458      -1.56851339       2.22827221     -58.96264558       0.00021700       0.00008856      -0.00025427       0.09114321
C        1.22058260      -2.14079419       3.38567761     -59.04976363      -0.00006723       0.00000233      -0.00016276       0.10017135
C        0.21325331      -2.64245672       1.10434347     -59.10109466      -0.00053430       0.00015295       0.00007277       0.08954061
C        1.44789759      -1.08648657       4.47879893     -59.24821024       0.00064747      -0.00005829      -0.00050867       0.07535618
C       -0.35170670      -1.95258400      -0.11339322     -58.09231019      -0.00040819       0.00002208       0.00002716       0.08791528
C        0.65974038      -1.48378857      -1.13638323     -59.37723996      -0.00043201      -0.00043972      -0.00013167       0.05780257
H       -0.62363015      -1.34383608       2.61049134     -13.19975057       0.00045369       0.00066373      -0.00029395       0.03038693
H        2.20061069      -2.45203062       2.99039884     -13.12078630      -0.00043362      -0.00064296      -0.00010864       0.03728714
H        1.18281559      -3.08944607       0.86559547     -12.90175979      -0.00064563      -0.00025892      -0.00006657       0.07039558
H        1.99513651      -0.23763602       4.06861335     -13.03862934       0.00117479      -0.00066071      -0.00071721       0.06125483
H        0.46706984      -0.74704052       4.84464983     -13.23858206       0.00101657       0.00071756      -0.00069676       0.02747543
H        0.38585577       0.10932009       1.23689377     -11.46476442       0.00087269      -0.00044392      -0.00034812       0.30311219
H        0.18582479      -3.78605211       3.30998931     -11.47046928      -0.00076782       0.00074460       0.00037037       0.31653122
H        1.55451980      -1.11972714      -0.62506832     -12.99490774      -0.00071845      -0.00029722      -0.00019340       0.06644367
H        0.26001051      -0.68423044      -1.77225305     -13.15698914      -0.00016976      -0.00098875      -0.00041104       0.04528002
H       -1.53781365      -3.37479581       1.36974419     -11.32755063      -0.00045782       0.00074771       0.00033536       0.31442593
H       -4.02506751      12.93069914       4.46789720     -11.86956583      -0.00025089      -0.00050956      -0.00080704       0.28251041
H        1.82571815      -2.46817236       5.74949783     -11.50616675      -0.00031717       0.00013983      -0.00014831       0.30840015
O       -2.29975821       0.68348397       0.10338508    -112.67737234      -0.00125647       0.00006863       0.00014908      -0.37859783
O       -4.26801880       0.17261806      -0.81955317    -112.13808270      -0.00092245      -0.00066859       0.00007784      -0.39309351
O       -1.53180326      -3.31560326      -3.00349265    -112.89964150       0.00006264       0.00069211      -0.00030395      -0.46152845
N       -1.61313731      -1.90148269      -0.15667159     -80.36165063      -0.00032526       0.00021351       0.00016314      -0.25624608
N       -3.16342029      -4.66397379      -2.28552574     -80.84772028       0.00089248       0.00047130      -0.00007043      -0.25428814
C       -2.36945272      -1.27830506      -1.20893918     -58.92439412      -0.00035175       0.00009638       0.00006244       0.03263080
C       -3.34919164      -2.31127720      -1.77666364     -59.32248666      -0.00003973      -0.00019266       0.00004159      -0.09354128
C       -3.11206500      -0.08323140      -0.63301411     -58.84533849      -0.00081274      -0.00024810       0.00014985       0.35977166
C       -2.58941570      -3.45824334      -2.41087856     -58.96664089       0.00027450       0.00036246      -0.00014964       0.29424551
H       -1.75367446      -0.87760545      -2.02757724     -12.66993958      -0.00047302       0.00024485       0.00025785       0.09352110
H       -4.00136525      -2.67445130      -0.98277254     -13.03851713       0.00015945      -0.00059504      -0.00007944       0.06722898
H       -3.96251015      -1.82524719      -2.53806062     -12.80006863      -0.00031282      -0.00040515       0.00025572       0.09139935
H        0.29391944      -2.93690848      -2.38539442     -11.50726062      -0.00005050      -0.00056413       0.00035010       0.31616791
H       -0.09326887      -0.77684824      -4.66896798     -11.98735700       0.00161776       0.00033216       0.00147551       0.27877988
H       -4.03165896      -4.79820886      -1.79900009     -12.13090592       0.00114855       0.00026074       0.00010512       0.19364062
H       -2.70810202      -5.46566898      -2.69232131     -12.00085943       0.00112324       0.00082112      -0.00011718       0.20639051
H       -2.78123315       1.45834542       0.43637626     -10.86869534      -0.00148960      -0.00018181       0.00014977       0.33907200
O       14.45983755      15.30694467      -7.90148349    -114.22994735       0.00053827       0.00042091      -0.00001176      -0.56475186
H       14.12940257      16.05323762      -7.39755400     -11.87374133      -0.00013521      -0.00036192       0.00024290       0.28233720
H       14.88823781      14.71313163      -7.28183740     -11.87305454      -0.00042785      -0.00012694      -0.00024491       0.28241466
O        1.06669901      -2.59104710      -1.91023491    -112.91956534      -0.00018296      -0.00047599       0.00050217      -0.44083051
H       -1.03515562      -1.72819832      -3.90030085     -11.74995661       0.00035989       0.00040601      -0.00032120       0.30738740
H       -3.63651444      11.49807061       4.89364748     -11.87010742       0.00063196       0.00047293       0.00055277       0.28242630
47
Properties=species:S:1:pos:R:3:energies:R:1:forces:R:3:charge:R:1 energy=-2291.6028801653174 free_energy=-2291.6028801653174 dipole="0.6714739391286297 -0.34009781739156425 0.4681139241732472" pbc="F F F"
O       -1.12256526       0.78783316       2.17431878    -113.34366510       0.00045777      -0.00061207       0.00216470      -0.46608557
O        2.50080473       0.41172904       2.53291452    -113.23482026       0.00486847      -0.01031442       0.00204616      -0.46475220
O        1.71449299      -0.00418461      -0.01921877    -113.49657617      -0.00300238      -0.00412166       0.00116889      -0.46574495
O        1.14660505       2.38600775       4.68066186    -113.27849089      -0.01242592       0.00599687      -0.00445129      -0.44959003
O       -1.08348253       4.15509522       0.03019659    -114.43561952       0.01736655      -0.03697682      -0.00922163      -0.59798503
O       -0.81261671       3.44224742       2.92826519    -114.87225875      -0.01459459       0.02105662      -0.00289363      -0.59917369
C        0.14467086       0.31067659       1.83623958     -59.12637347       0.00087942      -0.00287834       0.00085070       0.08679092
C        1.24856567       1.03770132       2.64028091     -59.12636919       0.00558802      -0.00447775       0.00112122       0.08802621
C        0.41787852       0.45353269       0.30499017     -59.07555202      -0.00065541      -0.00294185       0.00123751       0.08594803
C        0.88870043       1.10699917       4.13557246     -59.18889124       0.00625243      -0.00112640       0.00051517       0.05977155
C       -0.60137687      -0.35995509      -0.46165755     -58.12785243      -0.00084677      -0.00005540       0.00065359       0.08830998
C       -1.95731617       0.27440901      -0.65089111     -59.35258543       0.00161798      -0.00070262       0.00165412       0.06039464
H        0.16123619      -0.75765615       2.08691911     -13.07872844      -0.00056133      -0.00443011      -0.00083865       0.05028862
H        1.30883099       2.06933593       2.24796057     -13.09950700       0.00956706      -0.00391350       0.00040771       0.03653005
H        0.34770649       1.50978114       0.02228967     -12.86722027       0.00119000      -0.00393998       0.00198791       0.07476571
H       -0.17809623       0.92776632       4.28051558     -12.93826754       0.00901454      -0.01656611       0.00223342       0.07004944
H        1.45606829       0.33286535       4.66081458     -13.08653307       0.01844045       0.01038464       0.00384123       0.05170196
H       -1.08134036       1.76292480       2.26395161     -11.24819571      -0.00036223       0.00179706      -0.00019966       0.33004654
H        2.66157472       0.25365104       1.58837317     -11.42142301       0.00495078      -0.01015360      -0.00018762       0.31762242
H       -2.32536112       0.58409852       0.33192954     -12.86150459       0.00276447      -0.00382068       0.00234195       0.07971785
H       -2.66810637      -0.43076010      -1.09275628     -13.25613712       0.00220830       0.00202333      -0.00085539       0.03536520
H        1.59042145      -0.95906576      -0.18932898     -11.15661814      -0.00461645      -0.00341511       0.00200427       0.32874509
H       -1.55550372       3.81560737       3.40676033     -11.77300499      -0.01607990       0.01902550      -0.00298349       0.29178515
H        2.09837570       2.53577181       4.64653743     -11.47132664      -0.01528708       0.02394036      -0.00489501       0.30440600
O       -0.80095531      -3.75957084       0.19424584    -112.48296600      -0.00006533       0.00373657      -0.00365371      -0.36561274
O       -0.82963331      -4.79904226      -1.77784523    -112.18931013      -0.00069429       0.00765089      -0.00449898      -0.40208629
O       -1.36262709      -0.35708860      -3.60712899    -112.70842754      -0.00273394       0.00362236       0.00362933      -0.45721911
N       -0.15425730      -1.46540477      -0.87545762     -80.23565787      -0.00281793       0.00147975       0.00022074      -0.24598851
N        0.64809365      -0.61246776      -4.57772667     -80.90062686      -0.00639828       0.00552896       0.00525852      -0.26497964
C       -0.83461676      -2.38392463      -1.73368013     -58.89529228      -0.00293660       0.00331803      -0.00121744       0.04313803
C       -0.10629559      -2.34843579      -3.08482736     -59.26946923      -0.00589679       0.00538071      -0.00097565      -0.09642428
C       -0.80960789      -3.78266167      -1.13917726     -58.91509496      -0.00107916       0.00526143      -0.00352216       0.35681101
C       -0.34442636      -1.00669833      -3.76113980     -59.06953202      -0.00499225       0.00473890       0.00282310       0.29115101
H       -1.89575950      -2.13885586      -1.90529523     -12.92090625      -0.00141553       0.00259325      -0.00018562       0.06482044
H        0.96169683      -2.50015099      -2.92998241     -12.96098640      -0.00765011       0.00440402      -0.00152312       0.07712859
H       -0.49203248      -3.14935086      -3.71785279     -12.86938278      -0.00687365       0.00861473      -0.00286834       0.08689578
H       -1.72805002       1.15024419      -2.35836327     -11.47585325      -0.00054099       0.00269254       0.00472035       0.32229719
H       -1.49906990       3.39849653      -0.39676134     -11.93673067       0.01403012      -0.03571143      -0.00615906       0.29323284
H        1.57373726      -0.99462440      -4.47231628     -12.00550342      -0.00820592       0.00619867       0.00600997       0.21334442
H        0.57234383       0.29967751      -5.00084417     -12.13944681      -0.00574032       0.00505830       0.00819301       0.19739050
H       -0.81111296      -4.66325024       0.54992905     -10.91057302       0.00099664       0.00512801      -0.00540346       0.33635215
O        2.79141302      -0.49851833      -2.67502620    -114.73886727       0.01052398       0.00131050       0.00086702      -0.59765109
H        2.33020593      -0.14012094      -1.90413349     -11.66367403       0.00798925       0.00549353      -0.00204932       0.30683281
H        3.70579464      -0.22376651      -2.58797287     -11.90434842       0.01238960      -0.00100594       0.00417096       0.28022929
O       -1.85441289       1.43977438      -1.44018669    -113.09002537       0.00042864      -0.00036737       0.00534697      -0.45185168
H       -1.04283665       3.96801282       0.97414405     -11.94012634       0.01290828      -0.03221256      -0.00783795       0.29091887
H       -0.11502851       3.28113666       3.58678315     -11.46255827      -0.01795956       0.01330816       0.00095266       0.32433648
47
Properties=species:S:1:pos:R:3:energies:R:1:forces:R:3:charge:R:1 energy=-2290.5234931559926 free_energy=-2290.5234931559926 dipole="0.5272204511283756 -1.7071151850716644 0.43997951204762353" pbc="F F F"
O        1.17276795      -1.03588735       2.86380551    -113.21089895      -0.00189647       0.00220994       0.00025246      -0.45415285
O       -2.01174191       0.71766056       3.05206802    -113.20956300       0.00164023      -0.00159145       0.00011199      -0.45612340
O        1.48965951       0.74899349       0.78557229    -112.85678617      -0.00388815      -0.00190045       0.00095042      -0.43016330
O       -2.28451156      -0.84723923       5.36116115    -113.05282808       0.00118528       0.00110781       0.00000373      -0.43875042
O       -6.83371141      21.19374012      -5.65296742    -114.22874231       0.00016282      -0.00064214       0.00002258      -0.56480346
O       10.37843430      -7.53782766      -1.64407222    -114.26248477      -0.00057076       0.00041021      -0.00001883      -0.56529046
C        0.28453256       0.04151276       2.74701039     -59.13232325      -0.00157364       0.00018806       0.00021680       0.08916633
C       -1.09824707      -0.31880268       3.31668711     -59.09461727       0.00035343       0.00027410       0.00014574       0.08933259
C        0.19831843       0.48698100       1.26276665     -59.18962565      -0.00145057      -0.00172753       0.00036936       0.09363089
C       -1.00937072      -0.57389587       4.82669904     -59.23342806      -0.00048815       0.00060290       0.00007149       0.06115430
C       -0.48528297      -0.62318558       0.48530138     -57.99709731       0.00039073      -0.00044636      -0.00000729       0.09365301
C       -1.85389468      -0.29607585      -0.07482322     -59.35628414       0.00344108      -0.00105243       0.00075658       0.06600783
H        0.71504716       0.86400034       3.32830809     -12.93524355      -0.00293392      -0.00013439       0.00022339       0.06156492
H       -1.44370712      -1.24824421       2.82413215     -13.32593252       0.00135202       0.00164681       0.00008503       0.01534172
H       -0.37399987       1.41142889       1.17430487     -12.84334052      -0.00058003      -0.00366515       0.00044638       0.07869896
H       -0.29801005      -1.38254787       5.02559610     -13.20821894      -0.00176276       0.00178369       0.00009115       0.03998819
H       -0.66750686       0.33378155       5.32934932     -12.98860236      -0.00116538      -0.00089569       0.00009996       0.06328453
H        0.93651614      -1.67859121       2.16691897     -11.39153022      -0.00210095       0.00269050       0.00023151       0.31427310
H       -2.64872329       0.72789934       3.78182234     -11.31686537       0.00244682      -0.00142436       0.00060901       0.31743916
H       -2.39788382       0.28699994       0.67429843     -12.93889494       0.00375348      -0.00260702       0.00097197       0.07135628
H       -2.42490975      -1.21000750      -0.29453431     -13.34656515       0.00436955       0.00098925       0.00028239       0.02068640
H        2.06144428       0.03553704       1.10358467     -11.39873884      -0.00457198      -0.00125593       0.00001075       0.31091389
H       10.58928181      -7.70516296      -0.72335616     -11.85987535       0.00041574       0.00001019      -0.00091911       0.28259065
H       -2.60025779      -1.68663899       5.00736251     -11.59107843       0.00147147       0.00265969      -0.00017404       0.29102568
O       -0.65129161      -3.72074786       1.81024455    -112.66172868       0.00104600       0.00414328      -0.00433363      -0.37675042
O       -0.14336955      -5.19954638       0.22067785    -112.18552945      -0.00008748       0.00465200      -0.00171710      -0.39830816
O       -0.33468487      -1.40544882      -2.73401645    -112.61060535      -0.00008803      -0.00078904      -0.00142421      -0.44333871
N        0.17789827      -1.69636315       0.38051918     -80.32130971      -0.00093286       0.00061133      -0.00033461      -0.25216667
N        1.77218754      -1.89940437      -3.31739363     -80.84339744      -0.00039146      -0.00052167      -0.00023948      -0.26080578
C       -0.22821763      -2.85608142      -0.36024367     -58.87572700       0.00040851       0.00134108      -0.00086466       0.04190178
C        0.81140931      -3.10156049      -1.46084948     -59.25545870      -0.00077395       0.00052338      -0.00069162      -0.09298699
C       -0.31756013      -4.06189635       0.55983393     -58.87376063       0.00039587       0.00354910      -0.00239849       0.35456292
C        0.67725093      -2.05068818      -2.55100543     -59.04100266      -0.00042175      -0.00035138      -0.00083772       0.29324731
H       -1.21632714      -2.75863423      -0.84043095     -12.89024429       0.00213681       0.00129534      -0.00011135       0.06751991
H        1.81184254      -3.06776555      -1.02861024     -13.02817690      -0.00124018       0.00012168      -0.00062800       0.06849487
H        0.64497104      -4.09195031      -1.89040856     -12.87269862      -0.00142765       0.00117530      -0.00042146       0.08527447
H       -1.29944879       0.00652435      -1.90996856     -11.49811990       0.00378884      -0.00031626       0.00095892       0.32213488
H       -7.50778946      20.51198043      -5.68378403     -11.87455922       0.00121036       0.00022407       0.00014461       0.28236640
H        2.61512512      -2.42205692      -3.16151824     -12.19770934      -0.00075193      -0.00039153       0.00015243       0.18968202
H        1.75661094      -1.21640627      -4.05743184     -12.04448424      -0.00017167      -0.00115674      -0.00030942       0.20505991
H       -0.70420023      -4.51360965       2.36899333     -10.87806858       0.00114346       0.00550884      -0.00541232       0.33747686
O        0.82438982       4.59806381      -5.03690923    -114.23429560      -0.00146126      -0.00581896       0.00369044      -0.56770776
H        0.75178344       4.14111782      -4.19610621     -11.86792815      -0.00180842      -0.00511726       0.00316485       0.28562510
H       -0.00663201       5.05562089      -5.17922863     -11.89903992       0.00035906      -0.00551195       0.00490997       0.28208266
O       -1.74764691       0.51739526      -1.21496632    -112.86710786       0.00422354      -0.00176018       0.00133511      -0.43932605
H       -5.98996358      20.75367650      -5.53220681     -11.87385601      -0.00129078       0.00031294      -0.00014034       0.28243705
H       11.11214907      -7.86682589      -2.16716297     -11.85911974      -0.00186494       0.00104637       0.00067467       0.28269981
47
Properties=species:S:1:pos:R:3:energies:R:1:forces:R:3:charge:R:1 energy=-2290.6835536992257 free_energy=-2290.6835536992257 dipole="1.3453242701834187 0.5017625292608078 0.7206120545276191" pbc="F F F"
O       -0.71507016       2.04270029       2.16094410    -113.16209700       0.00129983       0.00030981      -0.00453549      -0.45302311
O        0.25038012      -1.09352339       3.44331536    -113.28962189       0.00091885       0.00560426       0.00293685      -0.46088808
O       -2.87908054      -0.01244927       1.23918968    -113.02429423      -0.00108072      -0.00364027       0.00080921      -0.45051837
O        0.75754226       0.10252495       5.85130834    -113.06127661      -0.00965860       0.00540633       0.00412306      -0.43722791
O       -0.55397508       3.08449736      -0.85213608    -114.47669614       0.01552980      -0.00535948       0.00553038      -0.57674551
O        3.82976509       1.11028922      -0.95662165    -114.50626727      -0.02455121       0.01267277      -0.01293415      -0.57729827
C       -1.11897648       0.78276461       2.63964074     -59.08291413      -0.00217950       0.00251043      -0.00117506       0.09256650
C        0.02487920       0.29292739       3.55674416     -59.08801516      -0.00432091       0.00467180       0.00265879       0.09170043
C       -1.51802520      -0.20521916       1.51252424     -59.27681766       0.00025954      -0.00006149       0.00107395       0.08761101
C       -0.24974845       0.64296773       5.02575525     -59.25761785      -0.00933054       0.00247331       0.00192145       0.05871608
C       -0.69258626      -0.08064990       0.24742259     -58.17927576       0.00183909       0.00260375       0.00419145       0.08586805
C        0.79263173       0.06352376       0.48011816     -59.33079309       0.00173192      -0.01219644       0.00669036       0.05020132
H       -2.03525587       0.88790155       3.24219362     -12.97436473      -0.00428165       0.00448534      -0.00427950       0.04830375
H        0.93543505       0.83325371       3.24433067     -13.06434982      -0.00599424       0.00788107       0.00454104       0.03660723
H       -1.35950157      -1.22385268       1.90602538     -12.76274941       0.00155939       0.00025057      -0.00017774       0.07185453
H       -0.33481258       1.72804893       5.14109293     -13.22415919      -0.01442983       0.00194390       0.00269934       0.03867436
H       -1.17930267       0.16927516       5.34953087     -12.98965316      -0.00795112      -0.00165018      -0.00091027       0.06323799
H       -1.32561550       2.32510475       1.46797799     -11.35090866       0.00904840      -0.00542449      -0.01310259       0.31952053
H        0.48421931      -1.41166829       4.32877411     -11.28713065      -0.00170298       0.00637219       0.00377473       0.31929986
H        1.03641000      -0.45758346       1.40591879     -12.85008064      -0.00228584      -0.02853793      -0.00084386       0.07857122
H        0.98959138       1.13588232       0.60735765     -12.94356055       0.01279087      -0.01516492       0.01639688       0.06665096
H       -2.97688018      -0.07302280       0.27239583     -11.30668612       0.00056384       0.00191752       0.00063395       0.32540427
H        3.96226712       0.16170547      -0.88149304     -11.71423368       0.03441789       0.02247950      -0.01032890       0.29362855
H        1.58614405       0.56594070       5.68271344     -11.54502934      -0.01097742       0.00780790       0.00471891       0.29378083
O       -1.13990003       1.74740559      -3.70689765    -112.58394224      -0.01076685       0.01011352       0.01195613      -0.37793113
O       -2.99868350       0.76655126      -2.95328298    -111.92192194      -0.02767599      -0.01320328      -0.01258064      -0.37984421
O       -0.48285157      -0.85548072      -5.15286675    -112.38867618       0.00121363       0.02909319       0.01275498      -0.43543322
N       -1.35739928      -0.10279124      -0.82187093     -80.03702473       0.00110434       0.01149323       0.00171624      -0.23075134
N        1.33474102      -1.49353126      -3.97961553     -81.02658713      -0.00743498      -0.02175002      -0.00333415      -0.28573640
C       -0.83711781       0.00742209      -2.14787394     -58.82284453      -0.00241666       0.01036023       0.00026711       0.04650631
C       -0.77156403      -1.38233047      -2.82096731     -59.21098685       0.00248864       0.00756207       0.00907191      -0.09715654
C       -1.80675849       0.85833099      -2.96168024     -58.87045917       0.03610111       0.00630146      -0.00078155       0.36618023
C        0.01473256      -1.24328489      -4.11859425     -59.20034553       0.00038025       0.00532173       0.00997214       0.28428632
H        0.14514843       0.49508230      -2.21420747     -13.18004082       0.00067756       0.00955920       0.00313679       0.03534849
H       -0.28876887      -2.09159936      -2.15010178     -13.00648769       0.00303367       0.01036532       0.01140084       0.07425593
H       -1.78756847      -1.71508441      -3.03470789     -12.97626490       0.00225385       0.00544563       0.01194039       0.08031883
H        1.73531514       0.08463007      -1.25392416     -11.34245568       0.03056736       0.01652561       0.02660104       0.31547542
H        0.09847383       3.05028310      -1.55578796     -11.77830940      -0.02117770      -0.00202246      -0.02762027       0.29060216
H        1.68859259      -2.01486625      -3.18787036     -11.98629321      -0.01102440      -0.02359904      -0.00362516       0.22207274
H        1.90557745      -1.45296870      -4.80906126     -12.28234301      -0.00781817      -0.02281998      -0.00345612       0.18793381
H       -1.74504897       2.19182041      -4.32157498     -10.97586993      -0.00094203       0.00269465      -0.00219654       0.33628537
O        2.05729434      -2.96473574      -1.52686260    -114.76660635      -0.00232154      -0.01374205      -0.02269161      -0.60359603
H        1.81259584      -2.20578105      -0.97119258     -11.61165430       0.02441920      -0.00399792      -0.02483954       0.31511138
H        2.74987184      -3.43301839      -1.05880642     -11.93451816      -0.01290828      -0.03211328      -0.02778036       0.27874560
O        1.64810341      -0.50350308      -0.49252571    -113.39865411      -0.00552457      -0.01053320       0.00011300      -0.46193706
H       -1.13923417       3.81552964      -1.06107851     -11.82323948      -0.01381770      -0.02602882       0.02294070       0.28684198
H        3.65674334       1.43040243      -0.06864863     -11.80943563       0.04037440       0.02761894      -0.00737812       0.28592516
