47
Properties=species:S:1:pos:R:3 pbc="F F F"
O        2.40778929      -2.42894916       2.77053721
O        1.20880905       0.02045749       0.40633540
O        0.13257004      -3.25181512       1.72424583
O        1.26269710       1.63185708       2.76697809
O       -4.64812019      -0.90049523       5.40266078
O      -18.55704181      14.81182359     -13.80710270
C        2.04836424      -1.86150945       1.55855414
C        1.29682979      -0.53656934       1.69950573
C        1.02838057      -2.89782456       0.87630593
C        1.99599340       0.43574852       2.65846427
C        0.74233288      -2.26686390      -0.44730588
C        6.41903880      -0.97678471      -0.27042410
H        2.95740169      -1.72060088       0.96962636
H        0.28571206      -0.75636662       2.08508833
H        1.58028005      -3.80705374       0.49796112
H        2.14665923      -0.04416299       3.63131068
H        2.96807261       0.71486739       2.24547735
H        1.58527043      -2.78593626       3.15537183
H        0.90848048       0.93442213       0.51352874
H        6.53954377       0.01548972      -0.72992466
H        7.31250179      -1.36815210       0.23787579
H       -4.25389288      -1.52118009       4.78512606
H      -19.47109458      14.88919831     -13.53122077
H        0.44785342       1.46143855       3.25401759
O        4.01234584      -2.61023416      -3.92299445
O        2.06240287      -1.50801865      -3.88458570
O        1.83190185      -4.40670140      -3.47470875
N        1.46270739      -2.14599880      -1.47732523
N        2.20209325      -6.10814768      -2.04645451
C        2.83651811      -2.49785763      -1.84783325
C        3.22020980      -3.95108470      -1.58961274
C        2.90305786      -2.18086393      -3.34877990
C        2.34428231      -4.84067179      -2.46601035
H        3.53953121      -1.83478126      -1.32877086
H        4.26067284      -4.08011080      -1.89605439
H        3.14937259      -4.21105112      -0.53336744
H        1.04679623      -1.64320277      -2.28373586
H       -5.51892012      -1.23450154       5.62827224
H        2.64091672      -6.45721127      -1.21327089
H        1.64398992      -6.74060367      -2.59700856
H        4.00974827      -2.39352532      -4.86951097
O        5.95819728       3.29999235      -5.18334535
H        5.42240775       4.02862961      -4.86305970
H        6.25238151       3.53651399      -6.06543702
O        5.39173133      -1.58800554      -0.32149341
H      -25.01684593      17.00916310      18.57002564
H      -31.79720073      29.12705565      18.30709154
