44
Properties=species:S:1:pos:R:3:forces:R:3:charge:R:1:energies:R:1 product=T mapped+aligned=T onto=T reactant=T energy=-2153.6383617512797 dipole="0.04698952530909826 0.9450735435372423 0.3246785386905768" pbc="F F F"
O       -2.99928350       0.15268938      -1.45889703       0.01979140       0.01819174      -0.00258779      -0.45359057    -113.16416694
O       -2.70268294       1.18351058       1.97219810      -0.00037854      -0.01232182      -0.01801159      -0.46055012    -113.28752924
O       -1.63483773      -2.09392822      -0.10344669      -0.00782175       0.00091385       0.02689296      -0.45625709    -112.99481705
O       -5.10898531       2.52923982       1.42645842       0.01912546      -0.00965516      -0.00101354      -0.43865305    -113.05009347
O       -0.16926801      -0.55549003      -1.72136844      -0.02592585      -0.00922793       0.00478159      -0.45420381    -113.13754125
O        0.89089364       1.93997827      -1.00003052       0.01197750      -0.03666262      -0.00878735      -0.46060428    -113.28573131
C       -2.88014556      -0.11007565      -0.08455951       0.01282102       0.00832254      -0.00627409       0.09540474     -59.13036901
C       -3.23456155       1.18450226       0.66789706       0.00223771       0.00300645      -0.01751867       0.09011398     -59.14146524
C       -1.51492446      -0.74135609       0.27053569       0.00063982       0.00708819       0.00712314       0.09008625     -59.06194469
C       -4.76051672       1.36467908       0.71160193       0.00289681      -0.01026948      -0.00809540       0.05947334     -59.24011832
C       -0.25371408      -0.12070247      -0.38421166      -0.00952009      -0.00338975       0.00173007       0.18238074     -58.89874877
C       -0.26044639       1.42130267      -0.38122229      -0.00160665      -0.00440523      -0.00592016       0.05047200     -59.30075149
H       -3.60874366      -0.88390555       0.21220808       0.02190973       0.00309561      -0.00283056       0.04781595     -12.95313359
H       -2.82001792       2.03626143       0.10655695      -0.00270336       0.02003257       0.00547525       0.03224990     -13.11773904
H       -1.40237429      -0.65650907       1.36336808       0.01863327       0.02246163       0.00035000       0.04201882     -13.07163276
H       -5.14464180       1.38020842      -0.31273838      -0.03704839      -0.01262911       0.00520026       0.04269720     -13.18783549
H       -5.21961295       0.53766320       1.25807852       0.03143587      -0.01445545       0.00753746       0.06208649     -13.00050925
H       -2.63743846      -0.61893286      -1.91632732       0.01485097       0.02935937      -0.01998963       0.32429153     -11.30468309
H       -3.30387863       1.71803109       2.51332437      -0.01035228      -0.02792133      -0.02033852       0.31868945     -11.28699260
H       -0.38878651       1.78416175       0.64237057       0.00755959       0.02201286      -0.01358066       0.03675058     -13.24798865
H       -1.10005385       1.74697894      -0.99802810       0.00298263      -0.00480971      -0.00963134       0.06934274     -12.92479031
H       -0.78166293      -2.45867439      -0.39749093      -0.01218399       0.01450017       0.02036155       0.32732116     -11.42795625
H        1.61838956       1.95396945      -0.35615865      -0.01543391       0.01007847       0.01698798       0.32167477     -11.32207058
H       -4.89084199       3.30442623       0.89691614       0.02608509      -0.01395346      -0.00157145       0.29325596     -11.57297476
O        2.40152867      -2.21324118      -2.40200576      -0.01195258       0.01672652      -0.00876499      -0.35807199    -112.44749120
O        0.94495124      -3.07596296      -0.94036761      -0.01300326      -0.03872617      -0.00917177      -0.42727629    -112.46868092
O        5.25441995      -2.04046382      -0.56098856       0.00636264      -0.00363660       0.00333795      -0.42149925    -112.29395146
N        0.90914271      -0.59513529       0.40849638      -0.00498476       0.00231761      -0.00375684      -0.31055572     -81.23666173
N        4.88820862       0.11691727      -0.01359345      -0.01362734      -0.00074152      -0.00778105      -0.27519746     -80.92662177
C        2.06115689      -1.01832912      -0.38326127      -0.00387290      -0.00742721       0.00149760       0.03343840     -58.82326525
C        3.19281730      -1.47138897       0.56091835       0.00348218      -0.00322614       0.00112650      -0.10508626     -59.30664450
C        1.71468916      -2.20799656      -1.27182973       0.02501974       0.03723181      -0.01987067       0.36557626     -58.84628528
C        4.55373289      -1.18857857      -0.06792746       0.00928325      -0.00189782       0.00857998       0.28605121     -59.17963579
H        2.39659627      -0.19074484      -1.01433354      -0.00664035       0.00186829       0.01400641       0.07357951     -12.90799427
H        3.12175065      -0.92454982       1.50056064      -0.00980212      -0.01087184       0.00539686       0.07470861     -12.92620720
H        3.10086946      -2.53816770       0.76925284       0.02527966      -0.00544054      -0.01012356       0.06981574     -13.07242285
H        0.62253487      -1.40092148       0.96147632      -0.00647038       0.02323934       0.02054265       0.17050859     -12.36979664
H        0.24303837       0.15735342      -2.23131664      -0.01600363      -0.01163524       0.01481300       0.32172405     -11.30177611
H        4.27516716       0.80444769       0.39652565      -0.00749985      -0.00659883       0.00998610       0.21054335     -12.04717707
H        5.76202166       0.41352171      -0.41426097      -0.01178097       0.00768120      -0.01065497       0.19331257     -12.20927964
H        2.23690376      -3.01906787      -2.91795732      -0.03231622       0.00864367       0.01362567       0.34061680     -10.89462354
O        2.47957228       1.55992017       1.31121934       0.00438059      -0.00821195       0.00530824      -0.60411344    -114.97220291
H        1.84644129       0.81776830       1.24698881       0.00652051      -0.01110433       0.02136830       0.31432239     -11.47798701
H        2.30259484       2.01658940       2.13537159      -0.01234629       0.01244735      -0.00975492       0.28533624     -11.81807348
