44
Properties=species:S:1:pos:R:3 product=T mapped+aligned=T onto=T reactant=T pbc="F F F"
O       -2.99928350       0.15268938      -1.45889703
O       -2.70268294       1.18351058       1.97219810
O       -1.63483773      -2.09392822      -0.10344669
O       -5.10898531       2.52923982       1.42645842
O       -0.16926801      -0.55549003      -1.72136844
O        0.89089364       1.93997827      -1.00003052
C       -2.88014556      -0.11007565      -0.08455951
C       -3.23456155       1.18450226       0.66789706
C       -1.51492446      -0.74135609       0.27053569
C       -4.76051672       1.36467908       0.71160193
C       -0.25371408      -0.12070247      -0.38421166
C       -0.26044639       1.42130267      -0.38122229
H       -3.60874366      -0.88390555       0.21220808
H       -2.82001792       2.03626143       0.10655695
H       -1.40237429      -0.65650907       1.36336808
H       -5.14464180       1.38020842      -0.31273838
H       -5.21961295       0.53766320       1.25807852
H       -2.63743846      -0.61893286      -1.91632732
H       -3.30387863       1.71803109       2.51332437
H       -0.38878651       1.78416175       0.64237057
H       -1.10005385       1.74697894      -0.99802810
H       -0.78166293      -2.45867439      -0.39749093
H        1.61838956       1.95396945      -0.35615865
H       -4.89084199       3.30442623       0.89691614
O        2.40152867      -2.21324118      -2.40200576
O        0.94495124      -3.07596296      -0.94036761
O        5.25441995      -2.04046382      -0.56098856
N        0.90914271      -0.59513529       0.40849638
N        4.88820862       0.11691727      -0.01359345
C        2.06115689      -1.01832912      -0.38326127
C        3.19281730      -1.47138897       0.56091835
C        1.71468916      -2.20799656      -1.27182973
C        4.55373289      -1.18857857      -0.06792746
H        2.39659627      -0.19074484      -1.01433354
H        3.12175065      -0.92454982       1.50056064
H        3.10086946      -2.53816770       0.76925284
H        0.62253487      -1.40092148       0.96147632
H        0.24303837       0.15735342      -2.23131664
H        4.27516716       0.80444769       0.39652565
H        5.76202166       0.41352171      -0.41426097
H        2.23690376      -3.01906787      -2.91795732
O        2.47957228       1.55992017       1.31121934
H        1.84644129       0.81776830       1.24698881
H        2.30259484       2.01658940       2.13537159
44
Properties=species:S:1:pos:R:3 product=T mapped+aligned=T onto=T reactant=T pbc="F F F"
O       -2.98478620       0.14947214      -1.43350734
O       -2.69847610       1.22116397       1.98614563
O       -1.70108112      -2.09335010      -0.03162961
O       -5.10884876       2.54435379       1.43612521
O       -0.17551668      -0.61585887      -1.85537646
O        0.91265783       1.92492290      -0.99371471
C       -2.88635660      -0.09877407      -0.05592595
C       -3.23403995       1.20266687       0.68345315
C       -1.53284196      -0.73168273       0.31800960
C       -4.76012566       1.37523128       0.72980966
C       -0.28087643      -0.10413578      -0.36881614
C       -0.25336956       1.42808236      -0.39001737
H       -3.61869787      -0.86896018       0.24249547
H       -2.82188840       2.04608143       0.10801430
H       -1.42641544      -0.62306428       1.41138996
H       -5.14835911       1.38032404      -0.29312952
H       -5.21350813       0.55130006       1.28588486
H       -2.62478856      -0.62698698      -1.88380228
H       -3.30812503       1.74744215       2.52560905
H       -0.40944571       1.80973585       0.62287602
H       -1.08586729       1.71081332      -1.03563988
H       -0.92600996      -2.54972168      -0.40629629
H        1.62553706       1.95671384      -0.33358257
H       -4.88819808       3.31550920       0.90171363
O        2.44868856      -2.19746797      -2.42653694
O        1.01568625      -3.14733610      -1.01607177
O        5.25068541      -2.03460674      -0.53015990
N        0.93142777      -0.52123316       0.34954045
N        4.87765546       0.12786311       0.00582568
C        2.09848466      -1.01128399      -0.41780122
C        3.19339538      -1.46253587       0.57856953
C        1.76376689      -2.23382343      -1.29609966
C        4.55039355      -1.17886258      -0.04461342
H        2.40723586      -0.16799715      -1.03594349
H        3.10496604      -0.90472507       1.51092768
H        3.10891590      -2.52969935       0.79461350
H        0.58327940      -1.64218821       0.77384531
H        0.25844342       0.10159617      -2.33981200
H        4.26333474       0.81740963       0.41022149
H        5.75154962       0.42288358      -0.39527100
H        2.30050609      -3.01134984      -2.93601102
O        2.48199725       1.59316850       1.34871449
H        1.84151840       0.85647992       1.33246082
H        2.31749908       2.07242801       2.16351506
44
Properties=species:S:1:pos:R:3 product=T mapped+aligned=T onto=T reactant=T pbc="F F F"
O       -2.97328938       0.14718245      -1.41422781
O       -2.69651447       1.25026299       1.99649023
O       -1.79567391      -2.09304662       0.05049407
O       -5.10928333       2.55642112       1.44160669
O       -0.18106983      -0.66581487      -1.96286841
O        0.93341821       1.91582709      -0.99029490
C       -2.89438956      -0.08796862      -0.03432699
C       -3.23503981       1.21773419       0.69512626
C       -1.55913772      -0.71845996       0.36767221
C       -4.76098018       1.38372000       0.74228568
C       -0.30657775      -0.04784055      -0.31097981
C       -0.24848375       1.45933429      -0.39627906
H       -3.63222360      -0.85311387       0.26595128
H       -2.82572113       2.05470282       0.10857738
H       -1.43849550      -0.60032380       1.45980270
H       -5.15203737       1.38046219      -0.27970796
H       -5.20991585       0.56245681       1.30606376
H       -2.61409372      -0.63338446      -1.85768048
H       -3.31247164       1.77085342       2.53394646
H       -0.42736705       1.84274033       0.61195832
H       -1.07607504       1.69031015      -1.06696556
H       -1.15344380      -2.70778059      -0.34509638
H        1.63342522       1.96040680      -0.31672774
H       -4.88681621       3.32416220       0.90299483
O        2.50095339      -2.18306757      -2.47005613
O        1.13710713      -3.26966760      -1.11253627
O        5.25032103      -2.03069571      -0.50609200
N        0.94988656      -0.45308042       0.37819817
N        4.87190769       0.13696183       0.02059547
C        2.15639854      -0.99125242      -0.43505016
C        3.20084051      -1.45714406       0.60280030
C        1.86156002      -2.29137943      -1.32665367
C        4.55198611      -1.17149485      -0.02463873
H        2.41515292      -0.13848557      -1.05251180
H        3.09281095      -0.88862431       1.52580490
H        3.11233254      -2.52334513       0.82265193
H        0.52460637      -1.79699198       0.44592153
H        0.27269780       0.05637808      -2.42030511
H        4.25711970       0.82866414       0.42031903
H        5.74536370       0.43029791      -0.38217009
H        2.35632418      -3.00883115      -2.96488941
O        2.48883046       1.62579381       1.37723173
H        1.84396580       0.89623177       1.40827153
H        2.33209377       2.12088716       2.18529599
44
Properties=species:S:1:pos:R:3 product=T mapped+aligned=T onto=T reactant=T pbc="F F F"
O       -2.96808640       0.14725863      -1.40419563
O       -2.69758071       1.26540969       2.00272825
O       -1.86219215      -2.09985766       0.12429499
O       -5.11014120       2.56259347       1.44413319
O       -0.19321396      -0.68369392      -2.05401255
O        0.94828448       1.91227640      -0.98760209
C       -2.90345779      -0.08089037      -0.02346104
C       -3.23790111       1.22668166       0.70180462
C       -1.58909125      -0.70761672       0.41226098
C       -4.76297667       1.38827285       0.74816388
C       -0.34357059       0.03593274      -0.22056981
C       -0.24588740       1.49990492      -0.39868697
H       -3.64384517      -0.84375628       0.27723506
H       -2.83109363       2.06106919       0.10990075
H       -1.44703957      -0.59015517       1.49941692
H       -5.15514494       1.38091594      -0.27353728
H       -5.20916000       0.56809523       1.31570089
H       -2.61066727      -0.63645770      -1.84324365
H       -3.31678710       1.78309919       2.53867025
H       -0.43860239       1.87556162       0.61082858
H       -1.07142784       1.68700132      -1.08552097
H       -1.30695180      -2.83253728      -0.19438542
H        1.63993863       1.95968491      -0.30627048
H       -4.88671067       3.32856512       0.90333828
O        2.53775456      -2.17578288      -2.50913103
O        1.26090240      -3.39440572      -1.15019247
O        5.25204750      -2.02903415      -0.49362083
N        0.94366461      -0.44575658       0.45621382
N        4.87057163       0.14170531       0.02859482
C        2.21662313      -0.97279372      -0.42653787
C        3.20804536      -1.45838357       0.62483931
C        1.99571732      -2.37616882      -1.34247800
C        4.55554242      -1.16860110      -0.01189336
H        2.42488508      -0.12022531      -1.05490380
H        3.08652961      -0.88073319       1.53847792
H        3.10221079      -2.52170365       0.84242141
H        0.43565687      -1.81478058      -0.02145848
H        0.28538588       0.04180655      -2.47503431
H        4.25574798       0.83480149       0.42571966
H        5.74329829       0.43410521      -0.37606514
H        2.38846817      -3.01012634      -2.99189067
O        2.49310855       1.64329242       1.39216780
H        1.84664199       0.91977534       1.45127532
H        2.34050637       2.14564950       2.19650718
44
Properties=species:S:1:pos:R:3 product=T mapped+aligned=T onto=T reactant=T pbc="F F F"
O       -2.96691823       0.14910627      -1.39688392
O       -2.69944247       1.27361805       2.00685801
O       -1.88122109      -2.10729590       0.18800461
O       -5.11092416       2.56579724       1.44535051
O       -0.22204987      -0.66817588      -2.15994063
O        0.95771480       1.91101506      -0.98457992
C       -2.90797430      -0.07841281      -0.01576715
C       -3.24065258       1.23148763       0.70587179
C       -1.60559241      -0.70789895       0.44987375
C       -4.76473897       1.39054835       0.75119478
C       -0.36811511       0.09989049      -0.10042592
C       -0.24457229       1.52866307      -0.39829607
H       -3.64910305      -0.84093444       0.28334571
H       -2.83615405       2.06532325       0.11138747
H       -1.45248682      -0.58819456       1.53097376
H       -5.15746981       1.38101948      -0.27038897
H       -5.20898992       0.57073062       1.32061288
H       -2.61511620      -0.63678797      -1.83553463
H       -3.32038005       1.78994063       2.54152366
H       -0.44475806       1.90655171       0.61165147
H       -1.06817547       1.68482004      -1.09530548
H       -1.32495764      -2.87958527      -0.02173544
H        1.64437859       1.95605978      -0.29918680
H       -4.88701507       3.33080619       0.90332463
O        2.55835079      -2.17722888      -2.52353620
O        1.34526980      -3.47409859      -1.11332777
O        5.25355298      -2.02772960      -0.48645478
N        0.91828730      -0.52223031       0.50157823
N        4.86975280       0.14405373       0.03289082
C        2.23650794      -0.96593444      -0.39653928
C        3.21076953      -1.46126724       0.63994094
C        2.11601361      -2.45529847      -1.32151197
C        4.55689382      -1.16745087      -0.00413147
H        2.43861930      -0.11907347      -1.04224654
H        3.08244873      -0.87673620       1.54687451
H        3.09024189      -2.52154892       0.85503542
H        0.32430743      -1.74082872      -0.55420858
H        0.29825760       0.05299452      -2.52497799
H        4.25475536       0.83782812       0.42857068
H        5.74193881       0.43600957      -0.37309031
H        2.40425825      -3.01304379      -3.00426515
O        2.48932865       1.64446925       1.39941982
H        1.84217815       0.92469724       1.46741383
H        2.34298349       2.15432299       2.20063969
44
Properties=species:S:1:pos:R:3 product=T mapped+aligned=T onto=T reactant=T pbc="F F F"
O       -2.96542562       0.15328411      -1.38643365
O       -2.69960921       1.28083931       2.01047600
O       -1.86728568      -2.10624098       0.23414716
O       -5.11088597       2.56840526       1.44719886
O       -0.27112253      -0.61904365      -2.30488621
O        0.96109537       1.90733939      -0.97643537
C       -2.90367206      -0.07838859      -0.00542917
C       -3.24071050       1.23415084       0.70966633
C       -1.59923624      -0.70977857       0.47425088
C       -4.76466167       1.39232711       0.75467294
C       -0.33829333       0.08946600      -0.01197034
C       -0.24165226       1.51246447      -0.39235416
H       -3.64747165      -0.83989380       0.28990025
H       -2.83755749       2.06726261       0.11326763
H       -1.45943251      -0.58411088       1.55534985
H       -5.15873306       1.38103875      -0.26644949
H       -5.20745724       0.57282403       1.32555140
H       -2.62499411      -0.63526561      -1.82750481
H       -3.32279064       1.79551055       2.54390837
H       -0.45233296       1.91598223       0.60621432
H       -1.06021520       1.66638897      -1.09499882
H       -1.25916566      -2.85557187       0.10728104
H        1.64732728       1.95271993      -0.29171933
H       -4.88646113       3.33265001       0.90426660
O        2.57454109      -2.18336313      -2.50827487
O        1.38590744      -3.48848490      -1.04735006
O        5.25195531      -2.02547856      -0.47930393
N        0.89564796      -0.59235061       0.47629357
N        4.86608573       0.14529986       0.03658802
C        2.20452744      -0.97904418      -0.37381498
C        3.20534008      -1.45943699       0.64515420
C        2.16126904      -2.47812041      -1.28047462
C        4.55229445      -1.16601640       0.00132582
H        2.43810008      -0.13159725      -1.02009762
H        3.07504762      -0.87247945       1.55007431
H        3.08624490      -2.51832384       0.86746148
H        0.22358119      -1.71672786      -0.96200702
H        0.31872926       0.08038439      -2.58754650
H        4.25082473       0.83926308       0.43102769
H        5.73849949       0.43719793      -0.36907943
H        2.41791710      -3.01373105      -2.99682753
O        2.48329433       1.64276789       1.40834664
H        1.83614746       0.92469992       1.48539317
H        2.34479138       2.16117992       2.20514339
44
Properties=species:S:1:pos:R:3 product=T mapped+aligned=T onto=T reactant=T pbc="F F F"
O       -2.96117783       0.15852827      -1.36973217
O       -2.69750751       1.29316873       2.01570824
O       -1.83391856      -2.10038614       0.27918377
O       -5.11021967       2.57301939       1.45102971
O       -0.31978821      -0.55748524      -2.46487072
O        0.96550179       1.89515112      -0.96485233
C       -2.89484111      -0.07848869       0.01096731
C       -3.23882620       1.23838300       0.71569938
C       -1.58255962      -0.71022793       0.49654261
C       -4.76315540       1.39548783       0.76136947
C       -0.29911978       0.04156190       0.03111770
C       -0.23591486       1.47579207      -0.38615367
H       -3.64211963      -0.83830580       0.30178373
H       -2.83674585       2.06941658       0.11564018
H       -1.46506493      -0.57248136       1.58015875
H       -5.15962818       1.38108867      -0.25882295
H       -5.20395882       0.57680104       1.33489260
H       -2.63477855      -0.63371285      -1.81235288
H       -3.32454454       1.80461691       2.54780505
H       -0.46155047       1.90991590       0.59541615
H       -1.04683724       1.63813595      -1.09624488
H       -1.14642007      -2.78468367       0.22259765
H        1.64937798       1.94497375      -0.27921056
H       -4.88486145       3.33604351       0.90673913
O        2.59660519      -2.18683894      -2.48415723
O        1.41172106      -3.47031732      -0.97888003
O        5.24723458      -2.02181729      -0.46673062
N        0.87094128      -0.67093231       0.43523191
N        4.85840731       0.14746902       0.04350723
C        2.15415244      -1.00347503      -0.36360897
C        3.19218372      -1.45419213       0.64820990
C        2.16855615      -2.47106864      -1.23993845
C        4.54294788      -1.16332940       0.01029309
H        2.42180359      -0.15034966      -0.99778649
H        3.06092468      -0.86581003       1.55213039
H        3.08089816      -2.51197577       0.88299943
H        0.11315805      -1.74203324      -1.35511028
H        0.34451711       0.09959454      -2.65964282
H        4.24210375       0.84131419       0.43577365
H        5.73161054       0.43936416      -0.36076777
H        2.44455113      -3.01052496      -2.98468074
O        2.47334877       1.64049486       1.42350454
H        1.82582728       0.92501745       1.51261590
H        2.34716806       2.17309558       2.21262808
44
Properties=species:S:1:pos:R:3 product=T mapped+aligned=T onto=T reactant=T pbc="F F F"
O       -2.95213682       0.16328611      -1.34846864
O       -2.69362787       1.31048389       2.02272698
O       -1.78936005      -2.09288950       0.31936363
O       -5.10904177       2.57959532       1.45691254
O       -0.35003648      -0.51520591      -2.60215784
O        0.97203817       1.87515510      -0.95171165
C       -2.88393835      -0.07795903       0.03191204
C       -3.23569655       1.24457306       0.72395304
C       -1.56470032      -0.70723197       0.51936738
C       -4.76056642       1.40004910       0.77122407
C       -0.26873639      -0.01705172       0.03758719
C       -0.22782011       1.43009500      -0.38163330
H       -3.63460716      -0.83576020       0.31844044
H       -2.83454402       2.07222067       0.11836196
H       -1.46897163      -0.55451664       1.60565876
H       -5.16021819       1.38118277      -0.24766972
H       -5.19874072       0.58264719       1.34858161
H       -2.63718112      -0.63292167      -1.78935146
H       -3.32581827       1.81720564       2.55344420
H       -0.47158276       1.89628450       0.58021417
H       -1.02903580       1.60157323      -1.10179931
H       -1.01865814      -2.68520438       0.29721328
H        1.65060865       1.93408818      -0.26248576
H       -4.88236298       3.34096926       0.91083895
O        2.61742509      -2.18409030      -2.45737198
O        1.42229926      -3.43341699      -0.92835971
O        5.23982330      -2.01722180      -0.44945795
N        0.84514801      -0.74990539       0.39175097
N        4.84773787       0.15079718       0.05362969
C        2.10727760      -1.02833704      -0.36444535
C        3.17430227      -1.44691256       0.65111270
C        2.14770691      -2.44389195      -1.21275506
C        4.53054289      -1.15952444       0.02260937
H        2.39629705      -0.16791929      -0.98214534
H        3.04135816      -0.85689963       1.55383059
H        3.07306250      -2.50358601       0.89928702
H        0.00459143      -1.80797436      -1.71873404
H        0.36856396       0.09273985      -2.73028992
H        4.22984316       0.84449938       0.44289571
H        5.72202394       0.44262908      -0.34861309
H        2.48162426      -3.00188410      -2.97142859
O        2.46140603       1.64037695       1.44484560
H        1.81283587       0.92877207       1.54977434
H        2.35086754       2.19107934       2.22334447
44
Properties=species:S:1:pos:R:3 product=T mapped+aligned=T onto=T reactant=T pbc="F F F"
O       -2.93605795       0.16514360      -1.32225095
O       -2.68789960       1.33479315       2.03223776
O       -1.73762857      -2.08444503       0.35648981
O       -5.10726144       2.58899476       1.46537280
O       -0.36861039      -0.51318383      -2.71196328
O        0.98222447       1.84722004      -0.93732559
C       -2.87157436      -0.07606297       0.05867449
C       -3.23133049       1.25359149       0.73516918
C       -1.54896260      -0.70017169       0.54807930
C       -4.75681577       1.40657058       0.78526838
C       -0.25024419      -0.07591627       0.02157495
C       -0.21757445       1.38051250      -0.37913483
H       -3.62553936      -0.83142525       0.34132258
H       -2.83135557       2.07604132       0.12129007
H       -1.47135703      -0.53183040       1.63550114
H       -5.16049630       1.38115287      -0.23187627
H       -5.19136018       0.59118645       1.36826992
H       -2.62495729      -0.63559886      -1.75511158
H       -3.32666900       1.83501769       2.56151861
H       -0.48309976       1.88233033       0.55881301
H       -1.00625102       1.55434390      -1.11401252
H       -0.89720742      -2.57483187       0.31641285
H        1.65126568       1.92039497      -0.24063764
H       -4.87882033       3.34804732       0.91678902
O        2.63509824      -2.17356578      -2.43197001
O        1.42036079      -3.39006251      -0.90500588
O        5.22941880      -2.01152729      -0.42613774
N        0.81638590      -0.82778630       0.34647322
N        4.83374258       0.15581333       0.06770143
C        2.07067402      -1.04733104      -0.37070855
C        3.15217561      -1.43799970       0.65561267
C        2.10873092      -2.40561532      -1.20485776
C        4.51490646      -1.15424691       0.03932469
H        2.36708466      -0.18016579      -0.97388535
H        3.01564306      -0.84495469       1.55601586
H        3.06017276      -2.49327544       0.91597256
H       -0.09534350      -1.89456758      -2.07060650
H        0.39354751       0.05164302      -2.80308070
H        4.21382094       0.84961874       0.45292139
H        5.70929245       0.44741809      -0.33218139
H        2.52980151      -2.98695299      -2.95858235
O        2.44775899       1.64455957       1.47395873
H        1.79736569       0.93907324       1.60057595
H        2.35694753       2.21804856       2.23799058
44
Properties=species:S:1:pos:R:3 product=T mapped+aligned=T onto=T reactant=T pbc="F F F"
O       -2.91311302       0.15970092      -1.29465411
O       -2.68131245       1.36444702       2.04323509
O       -1.68925874      -2.07693072       0.39096154
O       -5.10502967       2.60064651       1.47518225
O       -0.37409536      -0.55538408      -2.78104416
O        0.99571233       1.81623113      -0.92338321
C       -2.85918621      -0.07293483       0.08853601
C       -3.22642184       1.26443495       0.74813081
C       -1.53706299      -0.69210528       0.58428769
C       -4.75243989       1.41449362       0.80206605
C       -0.24090998      -0.12269358       0.00730685
C       -0.20693310       1.33732807      -0.37739666
H       -3.61656903      -0.82528027       0.36812997
H       -2.82857375       2.08040344       0.12380674
H       -1.47426490      -0.50883184       1.67066770
H       -5.16056764       1.38055969      -0.21300650
H       -5.18246367       0.60190369       1.39238939
H       -2.59187658      -0.64558956      -1.71354754
H       -3.32722193       1.85733749       2.57102342
H       -0.49638138       1.87617408       0.53297285
H       -0.98139367       1.50155062      -1.13102714
H       -0.81143824      -2.48432253       0.28487459
H        1.65215754       1.90634309      -0.21664479
H       -4.87470467       3.35670461       0.92324864
O        2.65060157      -2.15894194      -2.41278786
O        1.40727263      -3.35254859      -0.91197870
O        5.21713675      -2.00537420      -0.39937567
N        0.78778542      -0.89472403       0.30525526
N        4.81806351       0.16208741       0.08328212
C        2.04556113      -1.05800887      -0.37640356
C        3.12867333      -1.42873511       0.66185175
C        2.06243925      -2.36730235      -1.21618612
C        4.49764883      -1.14798725       0.05832983
H        2.34002876      -0.18617599      -0.97088586
H        2.98704258      -0.83066267       1.55856323
H        3.04241271      -2.48237076       0.93155781
H       -0.16933479      -1.96935880      -2.41244671
H        0.41061787      -0.01794506      -2.87955448
H        4.19617708       0.85655196       0.46368432
H        5.69477285       0.45322979      -0.31460690
H        2.58372338      -2.96992141      -2.94716335
O        2.43459955       1.65424917       1.50726589
H        1.78244456       0.95704650       1.66150032
H        2.36568388       2.25270395       2.25398518
44
Properties=species:S:1:pos:R:3 product=T mapped+aligned=T onto=T reactant=T pbc="F F F"
O       -2.88322934       0.14242909      -1.26822040
O       -2.67446090       1.39926743       2.05469474
O       -1.65402723      -2.07080926       0.43377227
O       -5.10260855       2.61430179       1.48493069
O       -0.35755584      -0.64418833      -2.79904547
O        1.01145585       1.78471811      -0.91037282
C       -2.84725490      -0.06912439       0.11965461
C       -3.22138064       1.27656949       0.76180947
C       -1.52910728      -0.68531673       0.63031519
C       -4.74781531       1.42339087       0.82053039
C       -0.23465968      -0.15073322       0.02224435
C       -0.19699717       1.30386640      -0.37596434
H       -3.60848613      -0.81737601       0.39786531
H       -2.82684874       2.08467669       0.12490563
H       -1.47953730      -0.48405561       1.71395105
H       -5.16065943       1.37870317      -0.19213852
H       -5.17247321       0.61462444       1.42004715
H       -2.54026083      -0.66399086      -1.67016928
H       -3.32762130       1.88451492       2.58091234
H       -0.51167484       1.87952260       0.50357655
H       -0.95599903       1.44455754      -1.15109157
H       -0.76770092      -2.43062913       0.25173268
H        1.65344547       1.89283717      -0.19267524
H       -4.87053370       3.36649254       0.92845298
O        2.66347738      -2.14248652      -2.40253213
O        1.37750472      -3.32263829      -0.95537918
O        5.20325915      -1.99870419      -0.37036957
N        0.75968154      -0.95147180       0.27024848
N        4.80116759       0.16959923       0.09854300
C        2.02614681      -1.06567717      -0.38041398
C        3.10403581      -1.41939418       0.66888485
C        2.00588249      -2.33031073      -1.24679478
C        4.47891797      -1.14072162       0.07829453
H        2.31560871      -0.18974725      -0.96942318
H        2.95690018      -0.81404993       1.56058285
H        3.01990510      -2.47119594       0.94531688
H       -0.18665870      -2.00778753      -2.80230418
H        0.41574461      -0.10586783      -2.96242815
H        4.17753634       0.86538845       0.47333115
H        5.67882180       0.46008307      -0.29802479
H        2.63993906      -2.95512159      -2.93601564
O        2.42220613       1.66936337       1.54177614
H        1.76936149       0.98228917       1.72864710
H        2.37655477       2.29420058       2.26834485
44
Properties=species:S:1:pos:R:3 product=T mapped+aligned=T onto=T reactant=T pbc="F F F"
O       -2.85383967       0.12425360      -1.24603093
O       -2.66906713       1.43190992       2.06420318
O       -1.63860344      -2.06585281       0.49056232
O       -5.10091877       2.62655820       1.49237452
O       -0.30940503      -0.78984918      -2.80205707
O        1.02578175       1.75698424      -0.89940872
C       -2.83775839      -0.06525510       0.14617995
C       -3.21734850       1.28772635       0.77343929
C       -1.52545347      -0.67822055       0.67794170
C       -4.74410141       1.43114593       0.83645854
C       -0.22624470      -0.16222070       0.06633252
C       -0.18931736       1.27905157      -0.37556506
H       -3.60282813      -0.80917884       0.42433002
H       -2.82611494       2.08802211       0.12452733
H       -1.48680306      -0.45902063       1.75852174
H       -5.16108859       1.37603577      -0.17394081
H       -5.16368396       0.62623171       1.44479455
H       -2.49148869      -0.68050347      -1.63829658
H       -3.32867660       1.91020749       2.58889854
H       -0.52688463       1.88599003       0.47474186
H       -0.93215443       1.38830934      -1.17194986
H       -0.75297167      -2.40985696       0.27752099
H        1.65456078       1.88159510      -0.17239527
H       -4.86740823       3.37491194       0.93133091
O        2.66059296      -2.12455268      -2.40691687
O        1.35776443      -3.31216086      -1.01452358
O        5.19108348      -1.99203623      -0.34414193
N        0.73434024      -0.99682372       0.24480289
N        4.78615857       0.17736074       0.11187884
C        2.01166314      -1.07527121      -0.38290981
C        3.08342101      -1.41084914       0.67689340
C        1.96113318      -2.30696834      -1.28219227
C        4.46273299      -1.13339463       0.09637164
H        2.29668576      -0.19396159      -0.96655415
H        2.93040838      -0.79759291       1.56299239
H        3.00029134      -2.46066108       0.95951658
H       -0.16160351      -1.95495447      -3.21921372
H        0.40463268      -0.19535634      -3.03639392
H        4.16107204       0.87457014       0.48132382
H        5.66450272       0.46720241      -0.28390324
H        2.66952332      -2.94201110      -2.93213427
O        2.41149505       1.68591417       1.57231335
H        1.75947663       1.00898964       1.79055057
H        2.38644589       2.33358015       2.27972863
44
Properties=species:S:1:pos:R:3 product=T mapped+aligned=T onto=T reactant=T pbc="F F F"
O       -2.82671571       0.11065798      -1.22728680
O       -2.66482445       1.45999589       2.07212975
O       -1.63318425      -2.06037020       0.55071070
O       -5.09962554       2.63677527       1.49881573
O       -0.26830220      -0.95659505      -2.88188847
O        1.03860119       1.73114824      -0.88935481
C       -2.82942084      -0.06128109       0.16782829
C       -3.21375211       1.29743041       0.78322673
C       -1.52288336      -0.67017377       0.72056122
C       -4.74083471       1.43784075       0.84987614
C       -0.21620764      -0.17042232       0.11151850
C       -0.18292364       1.25598350      -0.37689939
H       -3.59836379      -0.80100532       0.44582251
H       -2.82508523       2.09073794       0.12411391
H       -1.49437790      -0.43588383       1.79851682
H       -5.16132609       1.37408403      -0.15853470
H       -5.15616806       0.63614036       1.46545159
H       -2.44967456      -0.69044876      -1.61548704
H       -3.33020623       1.93169287       2.59566712
H       -0.54060781       1.88944944       0.44648085
H       -0.90831120       1.33219090      -1.19334675
H       -0.74575441      -2.39940997       0.33628792
H        1.65487480       1.87101348      -0.15406541
H       -4.86464744       3.38198996       0.93420853
O        2.65719155      -2.10743249      -2.41832810
O        1.37507219      -3.32227867      -1.05056014
O        5.18140046      -1.98576228      -0.32032613
N        0.71019836      -1.03482335       0.22192352
N        4.77305718       0.18446637       0.12526999
C        2.00003022      -1.08453323      -0.38385332
C        3.06684415      -1.40317404       0.68650488
C        1.95463666      -2.30330659      -1.30183907
C        4.44954963      -1.12673988       0.11357752
H        2.28075063      -0.19835282      -0.96356611
H        2.90663083      -0.78281592       1.56681527
H        2.98534251      -2.45098570       0.97613247
H       -0.17786543      -1.81591023      -3.57371197
H        0.38722480      -0.29017599      -3.10243041
H        4.14649467       0.88263566       0.49008031
H        5.65209804       0.47373435      -0.26956332
H        2.68435973      -2.92634326      -2.93949508
O        2.40133480       1.70036386       1.60091907
H        1.75093729       1.03313312       1.84679885
H        2.39443492       2.36675837       2.29130081
44
Properties=species:S:1:pos:R:3 product=T mapped+aligned=T onto=T reactant=T charge=0 multiplicity=1 pbc="F F F"
O       -2.80135757       0.10046076      -1.20933935
O       -2.66091966       1.48552022       2.08017940
O       -1.62978789      -2.05422378       0.60879014
O       -5.09821421       2.64617229       1.50612303
O       -0.25843436      -1.10539892      -3.05521300
O        1.05116820       1.70649726      -0.87796850
C       -2.82128932      -0.05695887       0.18784202
C       -3.21017362       1.30660973       0.79305321
C       -1.52016998      -0.66173893       0.75988142
C       -4.73760350       1.44441273       0.86294883
C       -0.20551552      -0.17938060       0.15229851
C       -0.17667989       1.23338350      -0.37735732
H       -3.59422633      -0.79265373       0.46498734
H       -2.82381043       2.09373149       0.12510391
H       -1.50202099      -0.41440177       1.83549532
H       -5.16137758       1.37337037      -0.14358715
H       -5.14910752       0.64537240       1.48463661
H       -2.41317310      -0.69694178      -1.59593882
H       -3.33179531       1.95054457       2.60287029
H       -0.55322191       1.89058160       0.41985715
H       -0.88443438       1.27943652      -1.21175961
H       -0.73919699      -2.38885063       0.39941715
H        1.65523633       1.86026493      -0.13497429
H       -4.86159380       3.38881275       0.93880520
O        2.66613842      -2.09214117      -2.42699650
O        1.41091639      -3.33888634      -1.07045753
O        5.17249518      -1.97999488      -0.29756223
N        0.68438864      -1.06978458       0.19647160
N        4.76045623       0.19060591       0.13933359
C        1.98758053      -1.09261160      -0.38493856
C        3.05071444      -1.39628998       0.69579349
C        1.96779815      -2.30669694      -1.31189087
C        4.43704286      -1.12093947       0.13049161
H        2.26431998      -0.20258491      -0.96191845
H        2.88302367      -0.76984611       1.57064544
H        2.97132021      -2.44219648       0.99259107
H       -0.22011919      -1.66293253      -3.83525718
H        0.37188039      -0.39262095      -3.18701567
H        4.13239188       0.88936582       0.50005278
H        5.64032915       0.47940353      -0.25414082
H        2.71110003      -2.90987924      -2.94813472
O        2.39122116       1.71270065       1.63037486
H        1.74294975       1.05512588       1.90179385
H        2.40175341       2.39557928       2.30461473
