44
Properties=species:S:1:pos:R:3:energies:R:1:forces:R:3:charge:R:1 product=T mapped+aligned=T onto=T reactant=T charge=0 multiplicity=1 energy=-2152.9322266127 free_energy=-2152.9322266127 dipole="-0.08120236735497914 0.8467327209900493 0.024161113519352875" pbc="F F F"
O       -2.55026293      -0.06635048      -1.09445005    -113.40924722       0.00432338      -0.00153269      -0.00172975      -0.48478619
O       -2.64149791       1.91763967       1.85497543    -113.28554113       0.00008969       0.00324933      -0.00566033      -0.46343870
O       -1.18262395      -1.58003598       1.50963068    -112.99603233       0.00144625       0.00235236       0.00130806      -0.44436928
O       -5.18583673       2.62161574       1.11457176    -113.05427557      -0.00128598      -0.00130491      -0.00627045      -0.43940554
O       -1.60165926      -2.47511937      -1.93536385    -114.64251825      -0.00127385      -0.00974286       0.01670112      -0.59234333
O        1.30068176       1.90445658      -0.76840551    -113.18351882       0.00500135       0.00366562       0.01193786      -0.45721974
C       -2.58464827       0.00963550       0.30265000     -59.10288487       0.00158532       0.00041004      -0.00198618       0.09282185
C       -3.14396549       1.41030708       0.63871749     -59.07144252       0.00020735       0.00039011      -0.00440933       0.09259369
C       -1.21632248      -0.27785549       0.99647218     -59.28945768       0.00070281       0.00147836       0.00030117       0.08201458
C       -4.67693225       1.37419895       0.69804770     -59.24473295       0.00028730      -0.00148624      -0.00349078       0.06043404
C       -0.01970626      -0.00147949       0.11291883     -58.23667592       0.00099405       0.00182895       0.00085106       0.08017585
C        0.02088875       1.37657650      -0.50715294     -59.37283885       0.00350948       0.00371606       0.00517936       0.05894430
H       -3.26564695      -0.75132443       0.71505196     -13.05424104       0.00120554       0.00059692      -0.00239056       0.04173914
H       -2.84154399       2.08206995      -0.18209380     -13.10004433      -0.00086334      -0.00096505      -0.00592589       0.03611621
H       -1.16887807       0.39565355       1.86318119     -12.74239158      -0.00077330       0.00154251       0.00001752       0.07789617
H       -5.07962211       1.06981847      -0.27302168     -13.22598179       0.00013605      -0.00438814      -0.00248975       0.03907592
H       -4.99577171       0.65986775       1.46126800     -13.01463330       0.00172674      -0.00003371      -0.00156947       0.06054324
H       -2.26447860      -0.97053534      -1.35584823     -11.31689378       0.00328731      -0.00273069       0.00113163       0.33570784
H       -3.37640602       2.38328236       2.28219015     -11.33556846       0.00003591       0.00437172      -0.00694000       0.31734159
H       -0.54800690       2.06105334       0.13373171     -13.15604057       0.00131824       0.00198780       0.00513958       0.04164176
H       -0.49630738       1.30962302      -1.47103356     -12.81822529       0.00745632       0.00685155       0.00292334       0.08219932
H       -0.70271699      -2.12785156       0.87045695     -11.33284161      -0.01052792      -0.00156864      -0.00556966       0.32064905
H        1.76125138       1.99635407       0.08171159     -11.46516867       0.00260512      -0.00178444       0.01383164       0.31125218
H       -5.01719314       3.27446762       0.42547579     -11.57622837      -0.00270721      -0.00282775      -0.00796552       0.29367754
O        3.15407143      -1.63322393      -2.59831056    -112.34557386      -0.00288685       0.00296068      -0.00505528      -0.35271642
O        1.15712140      -2.54113687      -2.22872085    -112.49960043      -0.00502792       0.00710009      -0.00702443      -0.42554506
O        5.36896929      -1.79256387      -0.49088696    -112.28198103      -0.00084431       0.00262670      -0.00393477      -0.42113283
N        0.79893638      -0.95951901       0.02177486     -80.15981811      -0.00083970       0.00087497      -0.00332257      -0.24809405
N        4.72625791       0.22473825       0.28104060     -80.88330544      -0.00159794      -0.00056589       0.00061840      -0.27278807
C        2.06649642      -0.93321436      -0.64927961     -58.96860470      -0.00132366       0.00182793      -0.00414937       0.03057729
C        3.11014691      -1.54474501       0.31934625     -59.17155377      -0.00123616       0.00014866      -0.00583421      -0.09461526
C        2.04524133      -1.79471739      -1.89512447     -58.84367812      -0.00260640       0.00460368      -0.00558046       0.36668108
C        4.51982485      -1.07601028      -0.01534266     -59.18071576      -0.00131711       0.00112999      -0.00300890       0.28752476
H        2.38569612       0.06653062      -0.96861833     -12.84146212      -0.00123712       0.00228437      -0.00254989       0.07747176
H        2.86047520      -1.23338549       1.33398719     -12.99627105      -0.00193169      -0.00279991      -0.00594069       0.06929996
H        3.06821704      -2.63313637       0.27651198     -13.03757459      -0.00060732       0.00096949      -0.00869713       0.07206344
H       -0.63381095      -2.55109065      -1.89510683     -11.60596139       0.00328821      -0.00054331       0.00414058       0.32262645
H       -1.83423310      -2.57865498      -2.86025000     -11.87578108      -0.01277642      -0.02390903       0.01816032       0.28632827
H        4.01908981       0.79071849       0.72011214     -12.11851993      -0.00183413      -0.00194561       0.00134112       0.20379533
H        5.62215729       0.63454168       0.07798485     -12.22127917      -0.00151054      -0.00025858       0.00286045       0.19261287
H        3.19286681      -2.24044138      -3.35466971     -10.86615032      -0.00420935       0.00463839      -0.00656784       0.34109044
O        2.20810837       1.44051484       1.87283060    -114.75850738       0.00493228      -0.00289240       0.01001833      -0.57834833
H        1.62146166       0.68855046       2.00629761     -11.60897515       0.00499431       0.00112033       0.01475854       0.30256252
H        2.02011332       2.07017521       2.57274413     -11.63948829       0.01008520      -0.00144679       0.00684316       0.29734431
