44
Properties=species:S:1:pos:R:3:energies:R:1:forces:R:3:charge:R:1 product=T mapped+aligned=T onto=T reactant=T energy=-2152.9322266165314 free_energy=-2152.9322266165314 dipole="-0.08124269006716205 0.8467475435453948 0.02418523107837144" pbc="F F F"
O       -2.55026293      -0.06635048      -1.09445005    -113.40932678       0.00434328      -0.00155230      -0.00178678      -0.48479363
O       -2.64149791       1.91763967       1.85497543    -113.28558774       0.00009979       0.00325442      -0.00563791      -0.46344258
O       -1.18262395      -1.58003598       1.50963068    -112.99608664       0.00142083       0.00234528       0.00132350      -0.44437320
O       -5.18583673       2.62161574       1.11457176    -113.05426573      -0.00129893      -0.00129330      -0.00624725      -0.43940441
O       -1.60165926      -2.47511937      -1.93536385    -114.64242838      -0.00126923      -0.00972614       0.01674364      -0.59233461
O        1.30068176       1.90445658      -0.76840551    -113.18349119       0.00501816       0.00366689       0.01193401      -0.45721726
C       -2.58464827       0.00963550       0.30265000     -59.10288583       0.00157734       0.00040948      -0.00189912       0.09282089
C       -3.14396549       1.41030708       0.63871749     -59.07144587       0.00019246       0.00037890      -0.00444591       0.09259313
C       -1.21632248      -0.27785549       0.99647218     -59.28949024       0.00072590       0.00150410       0.00027477       0.08201163
C       -4.67693225       1.37419895       0.69804770     -59.24473217       0.00029263      -0.00150456      -0.00350060       0.06043399
C       -0.01970626      -0.00147949       0.11291883     -58.23638382       0.00099297       0.00183274       0.00084430       0.08020183
C        0.02088875       1.37657650      -0.50715294     -59.37286052       0.00349565       0.00368682       0.00520470       0.05894251
H       -3.26564695      -0.75132443       0.71505196     -13.05417592       0.00122272       0.00061542      -0.00239287       0.04174534
H       -2.84154399       2.08206995      -0.18209380     -13.10001217      -0.00086703      -0.00098343      -0.00591807       0.03611910
H       -1.16887807       0.39565355       1.86318119     -12.74236823      -0.00077919       0.00153819       0.00000470       0.07789827
H       -5.07962211       1.06981847      -0.27302168     -13.22596235       0.00014620      -0.00439359      -0.00247315       0.03907760
H       -4.99577171       0.65986775       1.46126800     -13.01461071       0.00173236      -0.00002112      -0.00158490       0.06054512
H       -2.26447860      -0.97053534      -1.35584823     -11.31690323       0.00328250      -0.00272586       0.00111620       0.33570764
H       -3.37640602       2.38328236       2.28219015     -11.33556170       0.00003571       0.00437308      -0.00693837       0.31734212
H       -0.54800690       2.06105334       0.13373171     -13.15602772       0.00131449       0.00197867       0.00513232       0.04164276
H       -0.49630738       1.30962302      -1.47103356     -12.81824161       0.00746007       0.00685224       0.00293265       0.08219761
H       -0.70271699      -2.12785156       0.87045695     -11.33281653      -0.01050694      -0.00157794      -0.00558700       0.32065026
H        1.76125138       1.99635407       0.08171159     -11.46520406       0.00260877      -0.00178278       0.01382551       0.31124929
H       -5.01719314       3.27446762       0.42547579     -11.57626242      -0.00270336      -0.00282243      -0.00797671       0.29367465
O        3.15407143      -1.63322393      -2.59831056    -112.34566688      -0.00273815       0.00294552      -0.00520758      -0.35272502
O        1.15712140      -2.54113687      -2.22872085    -112.49937727      -0.00497897       0.00714220      -0.00699978      -0.42552989
O        5.36896929      -1.79256387      -0.49088696    -112.28188016      -0.00087108       0.00265391      -0.00391922      -0.42112654
N        0.79893638      -0.95951901       0.02177486     -80.15993172      -0.00088921       0.00090534      -0.00329589      -0.24810394
N        4.72625791       0.22473825       0.28104060     -80.88341992      -0.00159290      -0.00053508       0.00062241      -0.27279863
C        2.06649642      -0.93321436      -0.64927961     -58.96865994      -0.00135020       0.00181791      -0.00415590       0.03057280
C        3.11014691      -1.54474501       0.31934625     -59.17160810      -0.00121339       0.00014778      -0.00583124      -0.09462034
C        2.04524133      -1.79471739      -1.89512447     -58.84375845      -0.00276725       0.00455318      -0.00550311       0.36667417
C        4.51982485      -1.07601028      -0.01534266     -59.18074662      -0.00132257       0.00106381      -0.00302026       0.28752355
H        2.38569612       0.06653062      -0.96861833     -12.84142457      -0.00123871       0.00228073      -0.00254641       0.07747546
H        2.86047520      -1.23338549       1.33398719     -12.99620501      -0.00192681      -0.00281474      -0.00596933       0.06930633
H        3.06821704      -2.63313637       0.27651198     -13.03759190      -0.00061038       0.00098645      -0.00868897       0.07206177
H       -0.63381095      -2.55109065      -1.89510683     -11.60605595       0.00325997      -0.00054227       0.00414413       0.32261917
H       -1.83423310      -2.57865498      -2.86025000     -11.87577165      -0.01277595      -0.02391556       0.01812362       0.28632769
H        4.01908981       0.79071849       0.72011214     -12.11848613      -0.00183166      -0.00194287       0.00134154       0.20379873
H        5.62215729       0.63454168       0.07798485     -12.22126643      -0.00151143      -0.00025699       0.00286266       0.19261429
H        3.19286681      -2.24044138      -3.35466971     -10.86627512      -0.00419168       0.00468154      -0.00652745       0.34108377
O        2.20810837       1.44051484       1.87283060    -114.75845370       0.00494219      -0.00289099       0.01000577      -0.57834345
H        1.62146166       0.68855046       2.00629761     -11.60899326       0.00498744       0.00110644       0.01476463       0.30256061
H        2.02011332       2.07017521       2.57274413     -11.63952229       0.01008361      -0.00143908       0.00685269       0.29734139
