44
Properties=species:S:1:pos:R:3:energies:R:1:forces:R:3:charge:R:1 product=T mapped+aligned=T onto=T reactant=T energy=-2153.638361758955 free_energy=-2153.638361758955 dipole="0.04689902960672415 0.9449951095859971 0.3247606631107628" pbc="F F F"
O       -2.99928350       0.15268938      -1.45889703    -113.16431257       0.01980807       0.01815393      -0.00255636      -0.45360271
O       -2.70268294       1.18351058       1.97219810    -113.28756735      -0.00039088      -0.01233409      -0.01804420      -0.46055145
O       -1.63483773      -2.09392822      -0.10344669    -112.99501741      -0.00776485       0.00094706       0.02690899      -0.45627103
O       -5.10898531       2.52923982       1.42645842    -113.05024314       0.01914239      -0.00959672      -0.00103761      -0.43866632
O       -0.16926801      -0.55549003      -1.72136844    -113.13807115      -0.02591594      -0.00919174       0.00473835      -0.45424789
O        0.89089364       1.93997827      -1.00003052    -113.28594711       0.01201860      -0.03666962      -0.00874743      -0.46062237
C       -2.88014556      -0.11007565      -0.08455951     -59.13019789       0.01282988       0.00833442      -0.00627764       0.09541898
C       -3.23456155       1.18450226       0.66789706     -59.14135722       0.00224448       0.00299675      -0.01748088       0.09012334
C       -1.51492446      -0.74135609       0.27053569     -59.06185789       0.00062653       0.00708649       0.00706386       0.09009380
C       -4.76051672       1.36467908       0.71160193     -59.24013019       0.00291013      -0.01031132      -0.00809805       0.05947135
C       -0.25371408      -0.12070247      -0.38421166     -58.89862900      -0.00943219      -0.00343347       0.00191549       0.18238970
C       -0.26044639       1.42130267      -0.38122229     -59.30060550      -0.00164321      -0.00444376      -0.00595517       0.05048365
H       -3.60874366      -0.88390555       0.21220808     -12.95320455       0.02188048       0.00308276      -0.00283650       0.04780943
H       -2.82001792       2.03626143       0.10655695     -13.11781190      -0.00269766       0.02005719       0.00545478       0.03224302
H       -1.40237429      -0.65650907       1.36336808     -13.07169065       0.01863087       0.02245106       0.00037189       0.04201332
H       -5.14464180       1.38020842      -0.31273838     -13.18785140      -0.03704341      -0.01262169       0.00518331       0.04269590
H       -5.21961295       0.53766320       1.25807852     -13.00049882       0.03141770      -0.01446367       0.00755221       0.06208766
H       -2.63743846      -0.61893286      -1.91632732     -11.30460154       0.01484030       0.02938378      -0.02000033       0.32429833
H       -3.30387863       1.71803109       2.51332437     -11.28696195      -0.01035304      -0.02791383      -0.02032957       0.31869152
H       -0.38878651       1.78416175       0.64237057     -13.24802470       0.00756921       0.02201014      -0.01355588       0.03674718
H       -1.10005385       1.74697894      -0.99802810     -12.92482799       0.00296832      -0.00479544      -0.00965687       0.06933920
H       -0.78166293      -2.45867439      -0.39749093     -11.42775820      -0.01220189       0.01450349       0.02035348       0.32733404
H        1.61838956       1.95396945      -0.35615865     -11.32196375      -0.01543711       0.01009007       0.01694959       0.32168384
H       -4.89084199       3.30442623       0.89691614     -11.57287088       0.02606541      -0.01397516      -0.00153750       0.29326506
O        2.40152867      -2.21324118      -2.40200576    -112.44834129      -0.01174059       0.01674819      -0.00910015      -0.35814731
O        0.94495124      -3.07596296      -0.94036761    -112.46874937      -0.01247960      -0.03811054      -0.00944864      -0.42725241
O        5.25441995      -2.04046382      -0.56098856    -112.29463325       0.00647584      -0.00378018       0.00324909      -0.42155484
N        0.90914271      -0.59513529       0.40849638     -81.23667317      -0.00503080       0.00240252      -0.00378718      -0.31055232
N        4.88820862       0.11691727      -0.01359345     -80.92662513      -0.01363288      -0.00089961      -0.00778053      -0.27519458
C        2.06115689      -1.01832912      -0.38326127     -58.82308053      -0.00380404      -0.00750071       0.00138665       0.03345275
C        3.19281730      -1.47138897       0.56091835     -59.30661782       0.00352031      -0.00319598       0.00107384      -0.10508108
C        1.71468916      -2.20799656      -1.27182973     -58.84504651       0.02416628       0.03655304      -0.01910464       0.36566233
C        4.55373289      -1.18857857      -0.06792746     -59.17895085       0.00914614      -0.00160610       0.00870541       0.28610281
H        2.39659627      -0.19074484      -1.01433354     -12.90821323      -0.00662231       0.00196744       0.01399835       0.07355980
H        3.12175065      -0.92454982       1.50056064     -12.92636477      -0.00979088      -0.01083524       0.00545968       0.07469365
H        3.10086946      -2.53816770       0.76925284     -13.07246529       0.02525679      -0.00548836      -0.01012862       0.06981148
H        0.62253487      -1.40092148       0.96147632     -12.36978440      -0.00647215       0.02321800       0.02052941       0.17050839
H        0.24303837       0.15735342      -2.23131664     -11.30152126      -0.01601764      -0.01164543       0.01479538       0.32174477
H        4.27516716       0.80444769       0.39652565     -12.04718491      -0.00749909      -0.00658936       0.00997437       0.21054208
H        5.76202166       0.41352171      -0.41426097     -12.20932545      -0.01178564       0.00768782      -0.01065987       0.19330887
H        2.23690376      -3.01906787      -2.91795732     -10.89451131      -0.03228972       0.00861263       0.01355565       0.34062522
O        2.47957228       1.55992017       1.31121934    -114.97243616       0.00433567      -0.00822955       0.00533508      -0.60413300
H        1.84644129       0.81776830       1.24698881     -11.47788564       0.00652868      -0.01110340       0.02133534       0.31432990
H        2.30259484       2.01658940       2.13537159     -11.81794868      -0.01233652       0.01244822      -0.00976657       0.28534597
44
Properties=species:S:1:pos:R:3:energies:R:1:forces:R:3:charge:R:1 product=T mapped+aligned=T onto=T reactant=T energy=-2153.7104850445726 free_energy=-2153.7104850445726 dipole="-0.3777044932704088 0.9300375902851546 0.12371680013916866" pbc="F F F"
O       -2.92030218       0.10574937      -1.40157271    -113.26060542       0.00078651      -0.00133454      -0.00184372      -0.46560855
O       -2.69365857       1.39377561       1.93728806    -113.31913875       0.00037788      -0.00232200      -0.00107921      -0.46220714
O       -1.47343603      -2.01309121       0.61222231    -112.97785623      -0.00040615      -0.00235304      -0.00968818      -0.43872704
O       -5.13620391       2.56149392       1.35848615    -113.06000068       0.00063509      -0.00071848      -0.00211570      -0.43795420
O       -0.36130814      -0.79751034      -1.63923055    -113.39557797       0.00615330       0.00520711      -0.00130299      -0.47174227
O        1.07143590       1.76216304      -1.06387582    -113.26765195      -0.00072188       0.00268739       0.00176408      -0.45807827
C       -2.82495871      -0.08596268      -0.01078465     -59.14446905       0.00035628      -0.00123130      -0.00164480       0.08727734
C       -3.22819784       1.25466862       0.64218751     -59.09930119       0.00064179      -0.00140539      -0.00123286       0.09032166
C       -1.45983585      -0.61327442       0.48929047     -59.17153071       0.00009625      -0.00209721      -0.00248494       0.07894106
C       -4.75745390       1.37586056       0.69778043     -59.25000240       0.00063140      -0.00101698      -0.00158776       0.05995682
C       -0.23002846      -0.19875858      -0.35354454     -58.82174768       0.00142723       0.00212644       0.00109550       0.18090781
C       -0.14628303       1.33431243      -0.51233254     -59.34544451       0.00034375       0.00252177       0.00445146       0.05084738
H       -3.55221209      -0.85330816       0.30497939     -12.99474547       0.00011213      -0.00122966      -0.00179899       0.04504301
H       -2.83982228       2.06536425       0.00371151     -13.11986406       0.00094924      -0.00113242      -0.00068805       0.03313111
H       -1.32507218      -0.23308715       1.50684988     -12.79093049      -0.00131813      -0.00630264      -0.00061635       0.07756674
H       -5.17010486       1.31702087      -0.31408799     -13.19101216       0.00103374      -0.00128514      -0.00171928       0.04255516
H       -5.16470796       0.56131166       1.30187635     -12.99606744       0.00022495      -0.00072650      -0.00145159       0.06187197
H       -2.29198586      -0.49136323      -1.83499591     -11.34745952       0.00028362      -0.00146607      -0.00150446       0.32149066
H       -3.35921500       1.86902826       2.45791708     -11.26090685       0.00122425      -0.00085975      -0.00138843       0.32067187
H       -0.34088433       1.80249196       0.45695777     -13.21517823       0.00288829       0.00057490       0.00638148       0.03832171
H       -0.92915846       1.63504494      -1.21430138     -12.96183763      -0.00169799       0.00407258       0.00675674       0.06495680
H       -1.35008809      -2.40973828      -0.26170715     -11.40327979       0.00620814      -0.00058156      -0.00548558       0.31580513
H        1.71816271       1.84230512      -0.34311050     -11.28228912       0.00147826       0.00162697       0.00021103       0.32398205
H       -4.90573454       3.31681002       0.80557927     -11.55287376       0.00019709      -0.00090446      -0.00265536       0.29422778
O        2.25873846      -1.96142120      -2.64270550    -112.59250425      -0.01230833      -0.00661408      -0.00077127      -0.37500271
O        1.20138577      -3.23220335      -1.13596540    -112.23054659      -0.00411683      -0.00222077       0.01078115      -0.40815153
O        5.38100309      -1.78366336      -0.61961475    -112.31222564       0.00021160       0.00321186      -0.00285719      -0.42515776
N        0.93276425      -0.72230700       0.37045389     -81.19808767       0.00124631       0.00273358       0.00239915      -0.30102285
N        4.76654560       0.25027995       0.13565008     -80.93886993      -0.00038657       0.00178367      -0.00010337      -0.27772858
C        2.08696323      -1.08387082      -0.45198307     -58.86570286      -0.00028422      -0.00062113       0.00078857       0.02751431
C        3.23419055      -1.56130648       0.46257823     -59.31759618       0.00117705       0.00068762      -0.00022974      -0.10590391
C        1.77474205      -2.21757586      -1.42642235     -58.88134237      -0.00657349      -0.00447984       0.00555582       0.36062537
C        4.57746330      -1.06915828      -0.06693064     -59.19247851      -0.00000197       0.00253918      -0.00098375       0.28532662
H        2.39745305      -0.21085886      -1.03336709     -12.88765893      -0.00045000      -0.00225033      -0.00236758       0.07618466
H        3.08203347      -1.16666663       1.46695709     -12.94787703       0.00179522       0.00016029      -0.00001759       0.07335050
H        3.24475832      -2.65051901       0.51482863     -13.03327952       0.00247724       0.00079846      -0.00040910       0.07434264
H        0.62901901      -1.56651188       0.85983685     -12.21776018       0.00100784       0.00382296       0.00418502       0.18773583
H        0.16454441      -0.27683055      -2.26069880     -11.32327825       0.00339304       0.01228555       0.00030478       0.32012280
H        4.08261667       0.81862957       0.61201060     -12.03117459      -0.00026489       0.00111922       0.00097413       0.21366870
H        5.61523713       0.67709214      -0.19512524     -12.23704596      -0.00087884       0.00265138      -0.00035720       0.19153691
H        2.13868371      -2.72129989      -3.23392133     -10.98281018      -0.01690290      -0.00826097       0.00192060       0.33487181
O        2.32351400       1.44367403       1.45176150    -114.97601238       0.00267304       0.00103116       0.00027036      -0.60494014
H        1.76544602       0.64982718       1.32177486     -11.49131464       0.00271645       0.00125181      -0.00138380       0.31374171
H        2.01395356       1.88338169       2.24530202     -11.82314834       0.00356522      -0.00147964       0.00192900       0.28532703
44
Properties=species:S:1:pos:R:3:energies:R:1:forces:R:3:charge:R:1 product=T mapped+aligned=T onto=T reactant=T energy=-2153.5292509974006 free_energy=-2153.5292509974006 dipole="-0.2880938992279902 0.8193016549079307 0.121237594044114" pbc="F F F"
O       -3.06622545       0.05787337      -1.24542305    -113.26775751       0.00161054      -0.00865916       0.00216660      -0.46749987
O       -2.65758790       1.51737368       2.00913215    -113.30014960       0.00417089       0.00269315      -0.00288708      -0.46124053
O       -1.50222303      -1.92100295       0.91595668    -113.02123790       0.01605665      -0.00283875       0.00305309      -0.43975514
O       -5.08130591       2.72651987       1.38204016    -113.05910618       0.00282642      -0.00163018       0.00069856      -0.43855495
O       -0.66336973      -1.06863277      -1.60582889    -113.28524026       0.00819603      -0.00313952       0.01357383      -0.46902566
O        1.07645805       1.64316380      -1.13325370    -113.22470021      -0.00128307       0.00243675      -0.00643513      -0.45558095
C       -2.85783049      -0.05210853       0.14025781     -59.14715246       0.00194351      -0.00363210       0.00307569       0.08768133
C       -3.21138219       1.33106427       0.72820237     -59.08071370       0.00193794      -0.00171641      -0.00121957       0.09182732
C       -1.45785673      -0.55788888       0.57762376     -59.13355824       0.00238381      -0.00142638       0.00496333       0.07898236
C       -4.73608465       1.49732337       0.78563964     -59.25081128       0.00193727      -0.00188885       0.00091558       0.06016903
C       -0.30909556      -0.32357232      -0.44265320     -58.88578623       0.00463509       0.00651930       0.00970039       0.17875185
C       -0.19638908       1.19020917      -0.76086424     -59.35736741      -0.00058216       0.00603264       0.00744797       0.05129080
H       -3.56211599      -0.79000541       0.56196026     -13.00038867       0.00149867      -0.00196213       0.00557230       0.04382080
H       -2.80709019       2.09560520       0.04386526     -13.12654657       0.00064637      -0.00390334      -0.00447440       0.03272735
H       -1.20636053      -0.04500056       1.51027219     -12.79256127      -0.00346228      -0.00616826       0.00991428       0.07682897
H       -5.15383468       1.39427199      -0.22050703     -13.17912078       0.00024303      -0.00252045       0.00160677       0.04391404
H       -5.16222759       0.72728801       1.43354815     -13.00656965       0.00289251      -0.00143023       0.00209212       0.06078257
H       -2.50294894      -0.59394096      -1.69041146     -11.33830781       0.00909376      -0.00345057       0.00329777       0.32430860
H       -3.31270305       2.01306979       2.52280983     -11.28266199       0.00362880       0.00100450      -0.00187072       0.31954954
H       -0.55800551       1.74427085       0.11035140     -13.20124298       0.00909035       0.00584581       0.01434397       0.03641543
H       -0.86309798       1.39573721      -1.60350883     -12.95725983      -0.01135281       0.00851251       0.01345834       0.06568996
H       -1.52376380      -2.43908083       0.10155859     -11.39109872      -0.05987493      -0.02806102      -0.12306104       0.31371607
H        1.59913275       1.77427362      -0.32376484     -11.28822542       0.00687790       0.00222388      -0.01017245       0.32294317
H       -4.83795262       3.44379001       0.78579832     -11.56173509       0.00317316      -0.00170364       0.00071480       0.29396142
O        2.86282666      -1.65164690      -2.68114485    -112.57219384      -0.02674048      -0.01078567      -0.00536619      -0.37454307
O        1.44508963      -3.08155914      -1.70613560    -112.17398856       0.00933569      -0.02429540       0.04093985      -0.40314736
O        5.40253979      -1.81599184      -0.50290023    -112.31290267       0.00248149       0.00864074      -0.00456513      -0.42440058
N        0.87773797      -0.85488680       0.21135157     -81.10366373       0.00710979       0.01645664       0.01314345      -0.29363562
N        4.76358857       0.20702343       0.26505593     -80.91664623       0.00069950       0.00644332      -0.00016765      -0.27424867
C        2.11107249      -1.04673895      -0.54341540     -58.93644482       0.00135481      -0.00086990       0.00503461       0.02043185
C        3.18703274      -1.58365871       0.42678508     -59.28104112       0.00470691       0.00366016       0.00391994      -0.10455182
C        2.06476746      -2.05263230      -1.68977731     -58.90653473      -0.01383260      -0.02668333       0.01491433       0.35256857
C        4.57103357      -1.10221115       0.00744332     -59.18431530       0.00286427       0.00646731      -0.00030692       0.28641621
H        2.42370466      -0.08986174      -0.96794927     -12.76022127       0.00564596      -0.00585830      -0.00957810       0.08845095
H        2.97231538      -1.22073126       1.43149148     -12.92912274       0.00648775       0.00460081       0.00393723       0.07500499
H        3.17094493      -2.67449920       0.43766901     -13.05734526       0.00684883       0.00332870       0.00569260       0.07138469
H        0.61065469      -1.74529250       0.63246557     -12.23565559       0.00694255       0.02510012       0.03932120       0.18499333
H       -0.04201604      -0.87253122      -2.31370311     -11.54533002       0.01412204       0.06186452      -0.02764315       0.30422745
H        4.04474867       0.77362009       0.68727304     -12.04327876       0.00073267       0.00441910       0.00332473       0.21076251
H        5.63368993       0.63489884      -0.00212239     -12.21861668      -0.00025527       0.00856278      -0.00117248       0.19285407
H        2.96309223      -2.33572865      -3.36192949     -10.97464681      -0.02466989      -0.02218805       0.00353210       0.33563051
O        2.12701414       1.36173999       1.48294758    -114.95256864      -0.00191945      -0.00106089      -0.00692124      -0.60024472
H        1.58423582       0.56135887       1.35858347     -11.49749151       0.00395683      -0.00500966      -0.02223361       0.31258711
H        1.77978953       1.82872609       2.24521224     -11.78794297      -0.01215885      -0.01393056      -0.00228054       0.28775607
44
Properties=species:S:1:pos:R:3:energies:R:1:forces:R:3:charge:R:1 product=T mapped+aligned=T onto=T reactant=T energy=-2153.23169736796 free_energy=-2153.23169736796 dipole="0.2081751329624931 0.6408960547231021 0.7392274820866134" pbc="F F F"
O       -3.09792137       0.16843981      -1.23258510    -113.17543575      -0.00078355       0.00049481      -0.00509289      -0.46381705
O       -2.70824869       1.51923447       2.06793157    -113.28398125       0.00260317      -0.00886401       0.00159260      -0.46199047
O       -1.65137867      -1.83900500       0.95807827    -112.94171023       0.00059665      -0.00801472      -0.01362255      -0.44040825
O       -5.13219858       2.75661903       1.37520662    -113.05633226       0.00468522       0.00124132       0.00520965      -0.44053364
O       -0.83657486      -1.09438698      -1.71594636    -113.28312786       0.01208854       0.01637373      -0.01042110      -0.48590271
O        1.11424853       1.60670998      -1.05613642    -113.17573602      -0.00021501       0.00760843      -0.00141076      -0.45340550
C       -2.87312024       0.01030443       0.13977287     -59.18061775      -0.00132164      -0.00163070      -0.00517003       0.09792642
C       -3.23651819       1.37027744       0.76958603     -59.04612098       0.00032087      -0.00304898       0.00099972       0.09351758
C       -1.46668244      -0.50014843       0.54707529     -58.92572768      -0.00111646      -0.00333052      -0.00622482       0.08240217
C       -4.76220556       1.52370408       0.79927573     -59.25125606       0.00058757       0.00028375       0.00340001       0.05971967
C       -0.36636868      -0.40556309      -0.56829940     -58.96212461       0.00412027       0.00785003      -0.00188115       0.18124683
C       -0.18831439       1.10385090      -0.92739989     -59.28141105      -0.00226621       0.00803209      -0.00365820       0.05420997
H       -3.55923538      -0.75213395       0.54599745     -12.92336116      -0.00222917      -0.00223377      -0.00594678       0.05052372
H       -2.82466962       2.15802003       0.11575449     -13.14398424       0.00073509      -0.00121646       0.00375534       0.03121946
H       -1.12799648       0.10109438       1.40027965     -13.12965374      -0.00211293      -0.00493465      -0.00353297       0.03735927
H       -5.15765570       1.40517827      -0.21372847     -13.16549263      -0.00164915       0.00258807       0.00379383       0.04598737
H       -5.19118813       0.75452847       1.44625448     -13.02084583      -0.00074899       0.00108469       0.00342162       0.05962900
H       -2.59923987      -0.52164575      -1.69711430     -11.28165622       0.01492360       0.01403829      -0.00820758       0.33639842
H       -3.35842410       2.03536112       2.56685575     -11.33380260       0.00615632      -0.00500038       0.00295432       0.31638404
H       -0.73517248       1.69390290      -0.18707185     -13.24757675      -0.00803511       0.00593162      -0.00152753       0.02958072
H       -0.66911690       1.23935728      -1.89855952     -12.85098312      -0.00204633       0.00775886      -0.00776437       0.07753281
H       -0.92792845      -2.10336091       1.53489158     -11.53223354      -0.01593173       0.00653161       0.02396118       0.29515447
H        1.49109974       1.74435373      -0.17111047     -11.35845380      -0.00011777      -0.00095080       0.00150372       0.31614997
H       -4.89930355       3.46585822       0.76554803     -11.58652255       0.00416519       0.00143888       0.00520595       0.29326653
O        3.28616260      -1.51457460      -2.60482270    -112.37186337      -0.00334120      -0.00471746      -0.00319015      -0.35148214
O        1.37843747      -2.62978722      -2.29827786    -112.49777879       0.00584276      -0.01675120       0.01043064      -0.42811859
O        5.39815221      -1.89961094      -0.43429449    -112.29746816       0.00423013       0.00211534       0.00369629      -0.42142417
N        0.80188380      -1.03933936       0.02558885     -81.17434694       0.00615565       0.01757754       0.00302204      -0.30017040
N        4.74540616       0.12997932       0.30179380     -80.91597027       0.00090914       0.00308075      -0.00052504      -0.27267148
C        2.10436343      -1.02777135      -0.63079864     -58.97746518       0.00309890       0.00650763      -0.00352564       0.01639683
C        3.13083307      -1.63906367       0.34706463     -59.27584216       0.00148719       0.00316116      -0.00381044      -0.10287630
C        2.19374332      -1.81686436      -1.92866793     -58.85056725      -0.00134936      -0.00652617       0.00068427       0.35785553
C        4.54561220      -1.17264394       0.01842555     -59.17045057       0.00263050       0.00271146       0.00034520       0.28757667
H        2.37955964      -0.00004916      -0.86962687     -12.59831287       0.00726585       0.00389776      -0.01020764       0.10527797
H        2.88011076      -1.32200805       1.35944743     -12.97000923       0.00051961       0.00032445      -0.00328240       0.07030709
H        3.09670483      -2.72896098       0.30225535     -13.11549918       0.00070503       0.00311607      -0.00702187       0.06441748
H        0.54676336      -2.01550963       0.17573197     -12.34303373       0.01294401       0.01608172       0.02092370       0.16854588
H       -0.22022699      -1.80049585      -1.97350816     -11.42625326      -0.01578271      -0.01829011       0.02979263       0.32757852
H        4.01395155       0.70972854       0.68038417     -12.05526918      -0.00064472       0.00230473      -0.00212162       0.20826636
H        5.63358162       0.54580128       0.07882112     -12.19268564       0.00162796       0.00366636       0.00298603       0.19446438
H        3.37945698      -2.05758769      -3.40433738     -10.85211988      -0.00035159      -0.01386887       0.00215566       0.34293425
O        2.10769621       1.33685685       1.58804506    -114.85893527      -0.00675685      -0.01077782      -0.00335867      -0.58269505
H        1.51102879       0.57841203       1.59890721     -11.49420777      -0.00881794      -0.01813414      -0.02295957       0.30844863
H        1.85089507       1.92293634       2.30331485     -11.65547096      -0.02278080      -0.01751042       0.00462935       0.29521772
44
Properties=species:S:1:pos:R:3:energies:R:1:forces:R:3:charge:R:1 product=T mapped+aligned=T onto=T reactant=T energy=-2152.7216565329086 free_energy=-2152.7216565329086 dipole="0.49743802983059104 0.8172857349859248 0.3422840815531706" pbc="F F F"
O       -2.99515117       0.16459202      -1.10149600    -113.26901574      -0.26326068       0.05574370       0.03494602      -0.48776330
O       -2.83593471       1.72130429       2.08900710    -113.17643085      -0.02435896      -0.02893822       0.05625456      -0.45581640
O       -1.35750451      -1.52832334       1.43427728    -113.01414042      -0.13075877       0.02662177       0.04579689      -0.45118122
O       -5.34809067       2.59624490       1.14579800    -113.03638729      -0.02268888       0.04933701       0.02352910      -0.44077094
O       -1.14394983      -1.36247807      -1.43792063    -113.25501612       0.41274584       0.79540083       0.07462164      -0.49204285
O        1.14927040       1.55258891      -0.74077003    -113.13618945      -0.08110261      -0.21172821      -0.00291653      -0.44668101
C       -2.76842720       0.04744806       0.27843383     -59.14043122      -0.11134682       0.00349451       0.02159945       0.09779511
C       -3.25605415       1.40924068       0.78736550     -59.02885449      -0.03865974       0.00748900       0.05961090       0.09982801
C       -1.32990587      -0.32156807       0.71388902     -59.01098545      -0.08060247      -0.04495353      -0.11322167       0.08901007
C       -4.78477774       1.39319674       0.67952204     -59.24581747      -0.03394207       0.03991681       0.04710046       0.05955643
C       -0.40441758      -0.48929235      -0.52137483     -58.78010531      -0.23950507      -0.29140486      -0.34842798       0.17511456
C       -0.08099239       0.94497305      -1.07184562     -59.28272203      -0.07418620      -0.17648064      -0.14654445       0.05388308
H       -3.38811047      -0.75749590       0.69852301     -12.98625747      -0.09462888       0.00900916       0.05697520       0.04722774
H       -2.86354265       2.16869503       0.08519818     -13.18124706      -0.01204804       0.00145812       0.06603508       0.02497532
H       -0.95185686       0.46652051       1.38584624     -13.11863296       0.10262089       0.02078071      -0.22996882       0.03615946
H       -5.06286816       1.17743008      -0.35743876     -13.15258117      -0.01811131       0.03307648       0.04492838       0.04664310
H       -5.17384838       0.60186503       1.32434276     -13.04759990      -0.05019302       0.04863431       0.04720062       0.05723252
H       -2.58710863      -0.61188784      -1.52487903     -11.31489349      -0.15150735       0.15483898      -0.03501673       0.33881016
H       -3.57803117       2.18107129       2.50605010     -11.37690398      -0.00163861      -0.00261693       0.05992177       0.31464443
H       -0.89190121       1.61408123      -0.76072016     -13.08703316      -0.05288144      -0.21013174      -0.11358509       0.04861597
H       -0.08495472       0.88929733      -2.16002571     -12.98143476       0.00282365      -0.02026043      -0.14985847       0.06438935
H       -0.45002458      -1.87388569       1.38920807     -11.41312249      -0.19702059       0.01860724       0.24079395       0.30804573
H        1.22919972       1.75754530       0.20446080     -11.39133052      -0.17255290      -0.15897383       0.00572293       0.31451091
H       -5.12834840       3.29508790       0.52000599     -11.61253222      -0.00615956       0.03360537       0.01156421       0.29225704
O        3.25557020      -1.39441048      -2.67861723    -112.39690375       0.03092051      -0.01484684      -0.01082929      -0.35223754
O        1.15631233      -2.13257360      -2.68277825    -112.59537306       0.06867465      -0.08451379      -0.05150091      -0.43609643
O        5.37081103      -2.00026093      -0.45585534    -112.28136698      -0.01035958       0.00360217      -0.02094319      -0.42091307
N        0.69673998      -1.33129535      -0.09865918     -80.97484175      -0.06200013      -0.18832956      -0.03592644      -0.29636281
N        4.69441964      -0.02073354       0.36847632     -80.90711041      -0.03978598      -0.01229691      -0.00994404      -0.27271915
C        2.01808095      -1.12950620      -0.67316750     -59.06544628      -0.03979788      -0.12511990      -0.01114578       0.01400994
C        3.06905552      -1.80373040       0.22473856     -59.32129814      -0.00700483      -0.05058677       0.00315644      -0.10212962
C        2.08801055      -1.61599414      -2.10600775     -58.86689342       0.03940991      -0.07198777      -0.02663127       0.35611990
C        4.49070674      -1.30028257      -0.01208270     -59.16807533      -0.02019906      -0.01332512      -0.01156795       0.28766037
H        2.23788336      -0.05457908      -0.70821159     -12.50350209      -0.12200522      -0.09883390       0.04280746       0.11458917
H        2.79593800      -1.59145619       1.25936321     -12.95573231      -0.01182179      -0.02627233      -0.00520375       0.07214816
H        3.05382626      -2.88164572       0.06816298     -13.07152869       0.03506626      -0.05511189       0.03320122       0.06767666
H        0.24508990      -2.24390467      -0.33642756     -12.02336806       1.34459123       0.24912824       0.42164294       0.19014873
H       -0.54587421      -1.84570715      -2.04358205     -11.39801189       0.20649045       0.38480513       0.01512256       0.32667318
H        3.96109113       0.56697320       0.72986576     -12.10640507      -0.04386663      -0.02149700      -0.00297809       0.20372447
H        5.60798617       0.37786756       0.22584357     -12.19589079      -0.04480185      -0.00228578      -0.01190755       0.19368041
H        3.27097314      -1.74610645      -3.58351501     -10.84832552       0.05082751       0.02029667      -0.02335536       0.34192150
O        2.29614098       1.61395474       1.95313519    -114.74870732      -0.01482180      -0.01847940       0.00388771      -0.57526069
H        1.77185249       1.08503227       2.56107465     -11.61042784       0.00276457       0.01100576      -0.02182446       0.29797524
H        2.55271877       2.41210562       2.42278878     -11.64278281      -0.02331675      -0.03787660      -0.03312168       0.29494827
44
Properties=species:S:1:pos:R:3:energies:R:1:forces:R:3:charge:R:1 product=T mapped+aligned=T onto=T reactant=T energy=-2152.9254408085812 free_energy=-2152.9254408085812 dipole="0.2884175989827265 1.1061017224668726 0.7979110413457611" pbc="F F F"
O       -2.68121556       0.08484114      -1.19924075    -113.37292068       0.01547369      -0.00461475      -0.00357213      -0.48185135
O       -2.75652496       1.68644729       1.99995099    -113.28230288       0.00089664       0.00032523      -0.00482528      -0.46216958
O       -1.29684773      -1.68825028       1.18508279    -113.17633869       0.00432294      -0.00389056      -0.00628770      -0.45543397
O       -5.23728995       2.59086015       1.19308496    -113.05744593       0.00131962      -0.00207066      -0.00408030      -0.43966059
O       -1.57886402      -2.32966737      -1.64942800    -114.68992021      -0.02085323      -0.04513573      -0.00552356      -0.60439118
O        1.25095174       1.85935034      -0.85351169    -113.15964681       0.00675830       0.01459555       0.00138486      -0.45498048
C       -2.65961807       0.02696636       0.19588101     -59.16870719       0.00581742      -0.00060961      -0.00281309       0.09899122
C       -3.19814131       1.38407553       0.69591234     -59.04330065       0.00161906      -0.00104438      -0.00503628       0.09482675
C       -1.27522082      -0.33180258       0.80366077     -59.15468792       0.00366278       0.00179466       0.00564410       0.08551650
C       -4.73201385       1.38800238       0.65771608     -59.24720637       0.00142307      -0.00253484      -0.00355341       0.06006158
C       -0.06359831      -0.06061624      -0.06447703     -58.19402228       0.01605161       0.01924951       0.02080097       0.08309502
C       -0.01900742       1.24914190      -0.80746513     -59.36655986       0.00523345       0.01358380       0.01157448       0.06214410
H       -3.32805710      -0.76732790       0.56543156     -12.98924813       0.00449617      -0.00048336      -0.00455660       0.04692799
H       -2.83458021       2.16080948       0.00161242     -13.14192092      -0.00002997      -0.00045178      -0.00512422       0.03179121
H       -1.16227093       0.29296881       1.70661321     -12.80123232      -0.00799302      -0.00312107       0.01423693       0.06682007
H       -5.07611245       1.21467531      -0.36616293     -13.19307584      -0.00010377      -0.00383080      -0.00289815       0.04316876
H       -5.11410655       0.59574898       1.30631717     -13.01435347       0.00236982      -0.00159280      -0.00180276       0.06046898
H       -2.39102437      -0.79408164      -1.54174439     -11.25909532       0.00929021      -0.00991881       0.00110921       0.34092446
H       -3.49434631       2.13288878       2.44205044     -11.32748288       0.00049200       0.00028226      -0.00520292       0.31736803
H       -0.75159615       1.93280964      -0.36669837     -13.14311047       0.00578020       0.01379945       0.01295916       0.04280210
H       -0.31834017       1.06192358      -1.84453112     -12.80119894      -0.00189178       0.00685352       0.01235376       0.08373857
H       -0.37410538      -1.99285642       1.11886131     -11.32101032       0.00483427      -0.00233954      -0.00787398       0.31637333
H        1.57402005       1.96507445       0.05606428     -11.46453176       0.01437686       0.00761077       0.00123839       0.31082472
H       -5.03615966       3.31261568       0.58659497     -11.57829281      -0.00051067      -0.00237474      -0.00513600       0.29354429
O        3.21626851      -1.41666101      -2.64143973    -112.39338557      -0.00583745       0.00063515      -0.00251769      -0.35637081
O        1.14698387      -2.22178802      -2.45837977    -112.37780328      -0.00516084      -0.00022886       0.00731377      -0.41584662
O        5.39413959      -1.96043331      -0.43283917    -112.27143860       0.00130276       0.00336619      -0.00403595      -0.41919704
N        0.82193196      -0.96302790       0.00115790     -80.30463887       0.00550651       0.01617048       0.00445032      -0.25708686
N        4.76659926       0.05333607       0.35832862     -80.90034219       0.00142688       0.00136823       0.00169338      -0.27425295
C        2.10474269      -0.92342397      -0.64175094     -58.96691756       0.00320107       0.00857130      -0.00031447       0.02922588
C        3.10377083      -1.67419745       0.26557133     -59.22061730       0.00140366       0.00265548      -0.00250279      -0.09643718
C        2.07182535      -1.60032863      -2.00085715     -58.85457871      -0.00407566       0.00262021       0.00199733       0.36622110
C        4.53862096      -1.23179590       0.01038417     -59.17163242       0.00162955       0.00221239      -0.00155203       0.28780352
H        2.45856632       0.09691067      -0.83011724     -12.77873890       0.00972243       0.00601296      -0.00558681       0.08226890
H        2.84698130      -1.45599246       1.30339226     -13.01363159       0.00174723      -0.00098902      -0.00163638       0.06648707
H        3.02602545      -2.75032260       0.11011795     -13.04713017      -0.00023346       0.00317852      -0.00626051       0.07110556
H       -1.45906488      -2.49229143      -0.70427721     -11.75565349      -0.07428017      -0.01200139      -0.01249154       0.30249016
H       -0.69318680      -2.33950975      -2.03987337     -11.75157455      -0.00911665      -0.02209460       0.00191880       0.31302806
H        4.03944004       0.64699127       0.72204965     -12.13307579       0.00090525      -0.00021114       0.00333484       0.20148074
H        5.67521038       0.44810931       0.18455700     -12.21317984       0.00078767       0.00276306       0.00156381       0.19291729
H        3.23184701      -1.89046261      -3.48858895     -10.86735700      -0.00785473      -0.00323904      -0.00088233       0.34170222
O        2.25325422       1.53492070       1.81292949    -114.76115458       0.00221137      -0.00236480       0.00047352      -0.57423999
H        1.67830619       0.88811893       2.23095738     -11.60119279      -0.00023166      -0.00113058       0.00159715       0.29926901
H        2.33180923       2.27724871       2.41710487     -11.59378493       0.00411055      -0.00137586       0.00042210       0.29853145
44
Properties=species:S:1:pos:R:3:energies:R:1:forces:R:3:charge:R:1 product=T mapped+aligned=T onto=T reactant=T energy=-2152.9322266165314 free_energy=-2152.9322266165314 dipole="-0.08124269006716205 0.8467475435453948 0.02418523107837144" pbc="F F F"
O       -2.55026293      -0.06635048      -1.09445005    -113.40932678       0.00434328      -0.00155230      -0.00178678      -0.48479363
O       -2.64149791       1.91763967       1.85497543    -113.28558774       0.00009979       0.00325442      -0.00563791      -0.46344258
O       -1.18262395      -1.58003598       1.50963068    -112.99608664       0.00142083       0.00234528       0.00132350      -0.44437320
O       -5.18583673       2.62161574       1.11457176    -113.05426573      -0.00129893      -0.00129330      -0.00624725      -0.43940441
O       -1.60165926      -2.47511937      -1.93536385    -114.64242838      -0.00126923      -0.00972614       0.01674364      -0.59233461
O        1.30068176       1.90445658      -0.76840551    -113.18349119       0.00501816       0.00366689       0.01193401      -0.45721726
C       -2.58464827       0.00963550       0.30265000     -59.10288583       0.00157734       0.00040948      -0.00189912       0.09282089
C       -3.14396549       1.41030708       0.63871749     -59.07144587       0.00019246       0.00037890      -0.00444591       0.09259313
C       -1.21632248      -0.27785549       0.99647218     -59.28949024       0.00072590       0.00150410       0.00027477       0.08201163
C       -4.67693225       1.37419895       0.69804770     -59.24473217       0.00029263      -0.00150456      -0.00350060       0.06043399
C       -0.01970626      -0.00147949       0.11291883     -58.23638382       0.00099297       0.00183274       0.00084430       0.08020183
C        0.02088875       1.37657650      -0.50715294     -59.37286052       0.00349565       0.00368682       0.00520470       0.05894251
H       -3.26564695      -0.75132443       0.71505196     -13.05417592       0.00122272       0.00061542      -0.00239287       0.04174534
H       -2.84154399       2.08206995      -0.18209380     -13.10001217      -0.00086703      -0.00098343      -0.00591807       0.03611910
H       -1.16887807       0.39565355       1.86318119     -12.74236823      -0.00077919       0.00153819       0.00000470       0.07789827
H       -5.07962211       1.06981847      -0.27302168     -13.22596235       0.00014620      -0.00439359      -0.00247315       0.03907760
H       -4.99577171       0.65986775       1.46126800     -13.01461071       0.00173236      -0.00002112      -0.00158490       0.06054512
H       -2.26447860      -0.97053534      -1.35584823     -11.31690323       0.00328250      -0.00272586       0.00111620       0.33570764
H       -3.37640602       2.38328236       2.28219015     -11.33556170       0.00003571       0.00437308      -0.00693837       0.31734212
H       -0.54800690       2.06105334       0.13373171     -13.15602772       0.00131449       0.00197867       0.00513232       0.04164276
H       -0.49630738       1.30962302      -1.47103356     -12.81824161       0.00746007       0.00685224       0.00293265       0.08219761
H       -0.70271699      -2.12785156       0.87045695     -11.33281653      -0.01050694      -0.00157794      -0.00558700       0.32065026
H        1.76125138       1.99635407       0.08171159     -11.46520406       0.00260877      -0.00178278       0.01382551       0.31124929
H       -5.01719314       3.27446762       0.42547579     -11.57626242      -0.00270336      -0.00282243      -0.00797671       0.29367465
O        3.15407143      -1.63322393      -2.59831056    -112.34566688      -0.00273815       0.00294552      -0.00520758      -0.35272502
O        1.15712140      -2.54113687      -2.22872085    -112.49937727      -0.00497897       0.00714220      -0.00699978      -0.42552989
O        5.36896929      -1.79256387      -0.49088696    -112.28188016      -0.00087108       0.00265391      -0.00391922      -0.42112654
N        0.79893638      -0.95951901       0.02177486     -80.15993172      -0.00088921       0.00090534      -0.00329589      -0.24810394
N        4.72625791       0.22473825       0.28104060     -80.88341992      -0.00159290      -0.00053508       0.00062241      -0.27279863
C        2.06649642      -0.93321436      -0.64927961     -58.96865994      -0.00135020       0.00181791      -0.00415590       0.03057280
C        3.11014691      -1.54474501       0.31934625     -59.17160810      -0.00121339       0.00014778      -0.00583124      -0.09462034
C        2.04524133      -1.79471739      -1.89512447     -58.84375845      -0.00276725       0.00455318      -0.00550311       0.36667417
C        4.51982485      -1.07601028      -0.01534266     -59.18074662      -0.00132257       0.00106381      -0.00302026       0.28752355
H        2.38569612       0.06653062      -0.96861833     -12.84142457      -0.00123871       0.00228073      -0.00254641       0.07747546
H        2.86047520      -1.23338549       1.33398719     -12.99620501      -0.00192681      -0.00281474      -0.00596933       0.06930633
H        3.06821704      -2.63313637       0.27651198     -13.03759190      -0.00061038       0.00098645      -0.00868897       0.07206177
H       -0.63381095      -2.55109065      -1.89510683     -11.60605595       0.00325997      -0.00054227       0.00414413       0.32261917
H       -1.83423310      -2.57865498      -2.86025000     -11.87577165      -0.01277595      -0.02391556       0.01812362       0.28632769
H        4.01908981       0.79071849       0.72011214     -12.11848613      -0.00183166      -0.00194287       0.00134154       0.20379873
H        5.62215729       0.63454168       0.07798485     -12.22126643      -0.00151143      -0.00025699       0.00286266       0.19261429
H        3.19286681      -2.24044138      -3.35466971     -10.86627512      -0.00419168       0.00468154      -0.00652745       0.34108377
O        2.20810837       1.44051484       1.87283060    -114.75845370       0.00494219      -0.00289099       0.01000577      -0.57834345
H        1.62146166       0.68855046       2.00629761     -11.60899326       0.00498744       0.00110644       0.01476463       0.30256061
H        2.02011332       2.07017521       2.57274413     -11.63952229       0.01008361      -0.00143908       0.00685269       0.29734139
44
Properties=species:S:1:pos:R:3:energies:R:1:forces:R:3:charge:R:1 product=T mapped+aligned=T onto=T reactant=T energy=-2152.9114686558296 free_energy=-2152.9114686558296 dipole="0.3232867916564195 1.26457410600789 0.11397475342320244" pbc="F F F"
O       -2.56997215       0.00732836      -1.18303176    -113.36825315       0.00397601      -0.00213145      -0.00037987      -0.48173522
O       -2.71618504       1.74397688       1.91559952    -113.28055896       0.00023791       0.00330518      -0.00429196      -0.46416200
O       -1.36694395      -1.80275926       1.24804511    -112.96797848       0.00167211       0.00205717       0.00413163      -0.44659952
O       -5.21448349       2.58153732       1.17431315    -113.04973872      -0.00051788       0.00005617      -0.00753491      -0.43963474
O       -1.50590857      -2.31714153      -2.18718156    -114.57287321      -0.00373533      -0.00799156       0.00882922      -0.59019186
O        1.27229224       1.87758314      -0.53944925    -113.24251319       0.00405823       0.00159889       0.01009099      -0.46368290
C       -2.66822824      -0.03410962       0.21371128     -59.10440831       0.00168942      -0.00016875      -0.00053140       0.09303735
C       -3.19484647       1.35199910       0.64758822     -59.08338243       0.00054297       0.00022601      -0.00337586       0.09208839
C       -1.34539063      -0.43941818       0.93228412     -59.29828340       0.00088517       0.00132331       0.00192616       0.08405781
C       -4.72953058       1.36063826       0.66049513     -59.24303070       0.00065846      -0.00122069      -0.00313969       0.06025298
C       -0.10324652      -0.07413545       0.15068172     -58.23111317       0.00095589       0.00107216       0.00190771       0.08337673
C       -0.01573950       1.37226616      -0.27440404     -59.37686154       0.00289371       0.00201957       0.00491083       0.05919635
H       -3.39305576      -0.80246529       0.52500671     -13.03757109       0.00142120       0.00009392      -0.00051843       0.04322975
H       -2.84679260       2.07915191      -0.10484500     -13.09971391      -0.00014194      -0.00113221      -0.00490957       0.03604845
H       -1.32674808       0.11382509       1.88209374     -12.77877576      -0.00052201       0.00210809       0.00120602       0.07347974
H       -5.11124331       1.15811664      -0.34496610     -13.22636440       0.00070732      -0.00521506      -0.00226042       0.03914616
H       -5.09296629       0.59126180       1.34624068     -13.01566501       0.00164695       0.00086869      -0.00033610       0.06063186
H       -2.26313982      -0.86894147      -1.50172074     -11.31752967       0.00294734      -0.00300965       0.00125390       0.33698875
H       -3.45488317       2.18511830       2.36209587     -11.34582832       0.00053267       0.00556084      -0.00616416       0.31682448
H       -0.52235397       1.98640394       0.48092982     -13.17336495       0.00086239       0.00087476       0.00434650       0.04020542
H       -0.58080522       1.45517239      -1.21041599     -12.80587545       0.00612677       0.00396661       0.00321795       0.08274245
H       -0.72251231      -2.23388979       0.66353794     -11.33688003      -0.00778096      -0.00102612      -0.00290166       0.32238176
H        1.77388308       1.87829252       0.29334196     -11.48968080       0.00159819      -0.00102145       0.01160481       0.31074262
H       -5.00427417       3.28781040       0.55266980     -11.58403648      -0.00148774      -0.00199716      -0.01013982       0.29329424
O        3.17048676      -1.80737814      -2.50863707    -112.40278482      -0.00012073       0.00382900      -0.00225258      -0.35832918
O        1.23897184      -2.81349316      -2.04947174    -112.41793421      -0.00233216       0.00688797      -0.00790214      -0.41999272
O        5.19010862      -2.01679676      -0.39633098    -112.29182672      -0.00022397       0.00091985      -0.00251419      -0.42229478
N        0.68960554      -1.03415080      -0.05373675     -80.11611627      -0.00067512       0.00053464      -0.00160248      -0.24446638
N        4.79725552       0.17115072      -0.03444491     -80.84898144      -0.00100193       0.00074892      -0.00344098      -0.26938434
C        1.98095737      -0.95990035      -0.67059140     -58.95784257      -0.00117863       0.00166344      -0.00215165       0.03364963
C        3.01211240      -1.36414251       0.41069683     -59.18776890      -0.00061708       0.00032440      -0.00330530      -0.09397719
C        2.06384142      -1.96995433      -1.79818439     -58.86103356      -0.00135350       0.00403028      -0.00457478       0.36425931
C        4.44174777      -1.13124746      -0.05419763     -59.17916447      -0.00054329       0.00062719      -0.00321889       0.28815696
H        2.23610996       0.02112055      -1.09147017     -12.90881064      -0.00150972       0.00250955      -0.00045442       0.07146312
H        2.82063947      -0.76370969       1.30044869     -13.01986285      -0.00034145      -0.00070662      -0.00264902       0.06843322
H        2.87416925      -2.41667233       0.65916432     -12.99992681      -0.00065193       0.00016057      -0.00446778       0.07581971
H       -0.60439971      -2.57779388      -1.93996321     -11.63220584       0.00001194       0.00092746      -0.00323860       0.32050239
H       -1.51939939      -2.28309043      -3.14567353     -11.91362428      -0.01713046      -0.02281753       0.01450179       0.28397738
H        4.16886016       0.88588788       0.28870806     -12.15144202      -0.00145187       0.00075245      -0.00443231       0.19835406
H        5.71755100       0.43211198      -0.34544015     -12.21087940      -0.00101907       0.00091407      -0.00339455       0.19293660
H        3.27413689      -2.50929730      -3.17117970     -10.87687300      -0.00060347       0.00563258      -0.00413372       0.34132361
O        2.52703443       1.74440775       1.98004506    -114.72095134       0.00231456      -0.00250136       0.01022423      -0.57213379
H        1.88576438       1.33125828       2.56477234     -11.58576819       0.00392716      -0.00152044       0.01246801       0.30139321
H        2.73752284       2.60406636       2.35286799     -11.59739021       0.00527383      -0.00313368       0.00959747       0.29859010
44
Properties=species:S:1:pos:R:3:energies:R:1:forces:R:3:charge:R:1 product=T mapped+aligned=T onto=T reactant=T energy=-2152.8381459734665 free_energy=-2152.8381459734665 dipole="0.4319623386153603 1.4568380776900234 0.2732192288895218" pbc="F F F"
O       -2.64816479       0.05091397      -1.21843433    -113.32190469       0.00357560      -0.00097084      -0.00054208      -0.47709958
O       -2.61506297       1.71460208       1.89797923    -113.30359302      -0.00027078       0.00258409      -0.00258254      -0.46489381
O       -1.48635496      -1.91783117       1.06851938    -112.99031950       0.00229137       0.00200398       0.00286154      -0.44981053
O       -5.15824727       2.59753264       1.33825686    -113.05647257      -0.00088152      -0.00031242      -0.00388433      -0.43980382
O       -1.27619003      -1.98292447      -2.46581311    -114.50573081      -0.01347455      -0.01651948       0.00732220      -0.58526522
O        1.21711549       1.77986204      -0.61977294    -113.26548041       0.00332562       0.00336010       0.00899678      -0.46486200
C       -2.72630394      -0.04893416       0.17649780     -59.12222478       0.00158986       0.00054291      -0.00061943       0.09402451
C       -3.20168205       1.33641516       0.67102134     -59.07594464       0.00034348       0.00070033      -0.00231931       0.09141478
C       -1.41550873      -0.53496101       0.85864150     -59.28593945       0.00127568       0.00175365       0.00120271       0.08555551
C       -4.72926500       1.36025117       0.81372292     -59.24842009       0.00031096      -0.00048369      -0.00250665       0.05971949
C       -0.15300021      -0.15797990       0.11417109     -58.22988726       0.00099011       0.00203211       0.00099099       0.08339363
C       -0.06504383       1.28761198      -0.30733704     -59.38939150       0.00225852       0.00288740       0.00397274       0.05808939
H       -3.47427087      -0.80496888       0.46339148     -13.02046582       0.00163074       0.00043007      -0.00077603       0.04428007
H       -2.91074712       2.06693554      -0.10243724     -13.07658144      -0.00007022       0.00002154      -0.00309379       0.03793278
H       -1.37663310      -0.04174020       1.84286384     -12.78893237       0.00035347       0.00264968       0.00066174       0.07005653
H       -5.19712054       1.13959522      -0.15065480     -13.22785737       0.00053195      -0.00195076      -0.00227393       0.03900231
H       -5.03786768       0.60928124       1.54528323     -13.01121582       0.00093142       0.00005617      -0.00168917       0.06110188
H       -2.30927175      -0.79206004      -1.58504933     -11.30644880       0.00129344      -0.00288582       0.00122749       0.33696459
H       -3.29941714       2.19515373       2.38829044     -11.33953831      -0.00065315       0.00291178      -0.00348102       0.31670331
H       -0.53867827       1.90062101       0.46978478     -13.14670187      -0.00015155       0.00154615       0.00350631       0.04342308
H       -0.66552403       1.38299168      -1.21988816     -12.78392031       0.00531290       0.00428824       0.00214268       0.08457797
H       -0.71674286      -2.30363464       0.61574087     -11.33814585      -0.00128604       0.00131501      -0.00255879       0.32253318
H        1.73612344       1.81719545       0.20111329     -11.48917015       0.00095154       0.00100922       0.01067752       0.31038188
H       -5.01107038       3.28409213       0.67766534     -11.57770634      -0.00123458      -0.00085042      -0.00453524       0.29350756
O        3.17578584      -2.02326263      -2.41183199    -112.42605448       0.00512794       0.00457295       0.00038518      -0.36050702
O        1.26842204      -3.03339299      -1.86229754    -112.35686390      -0.00130216       0.00990443      -0.01159052      -0.41609610
O        5.17366234      -1.98851936      -0.29904715    -112.28729973       0.00113939      -0.00083625       0.00414895      -0.42161306
N        0.65304931      -1.11337616      -0.05814045     -80.13165037       0.00007363       0.00157649      -0.00231558      -0.24652759
N        4.73825117       0.20850471      -0.06323685     -80.85574669       0.00020114      -0.00031209      -0.00254959      -0.26992548
C        1.95567867      -1.04930277      -0.65107403     -58.94767228      -0.00000056       0.00310371      -0.00197198       0.03458468
C        2.98269398      -1.33314538       0.47081892     -59.18663580      -0.00061857       0.00061423      -0.00208892      -0.09331294
C        2.07348152      -2.15359229      -1.68662220     -58.86963431      -0.00021504       0.00535199      -0.00507382       0.36195211
C        4.40891958      -1.09974301      -0.00550017     -59.17766410       0.00035761      -0.00050866      -0.00009919       0.28799096
H        2.19135367      -0.09938265      -1.14803559     -12.93497987      -0.00009660       0.00448634       0.00046086       0.06901482
H        2.76621357      -0.66656449       1.30611895     -13.03940671      -0.00043213      -0.00024090      -0.00129007       0.06673034
H        2.87138060      -2.36554504       0.80321729     -13.00855111      -0.00183910       0.00028253      -0.00340963       0.07509575
H       -0.58956965      -2.54293524      -2.07529493     -11.64073356      -0.00275367      -0.00461576       0.00667403       0.31833688
H       -0.84823238      -1.46962661      -3.15413137     -11.94018463      -0.02904354      -0.03051245      -0.01419500       0.28188391
H        4.10205796       0.92785782       0.23323437     -12.14746447      -0.00082477       0.00030496      -0.00630250       0.19861297
H        5.65470455       0.46822051      -0.38644895     -12.21026647       0.00085438      -0.00106590      -0.00122058       0.19288541
H        3.29880107      -2.78000653      -3.00741840     -10.87838684       0.00489261       0.00611786      -0.00141405       0.34150343
O        2.52770794       1.86817966       1.87288483    -114.73253944       0.00322046      -0.00163688       0.00899769      -0.57191636
H        1.90764761       1.53773305       2.52858398     -11.57904869       0.00506205      -0.00015633       0.01148506       0.30128425
H        2.74692125       2.76987685       2.12066685     -11.58536937       0.00725265      -0.00254927       0.00866929       0.29909556
44
Properties=species:S:1:pos:R:3:energies:R:1:forces:R:3:charge:R:1 product=T mapped+aligned=T onto=T reactant=T energy=-2152.747348252872 free_energy=-2152.747348252872 dipole="0.39566817751098293 1.4987234336015303 0.41689404849816325" pbc="F F F"
O       -2.68379023       0.04726772      -1.21262111    -113.25309100       0.00494946       0.00275629      -0.00343228      -0.46921929
O       -2.59424991       1.70145869       1.90228740    -113.31772554      -0.00018315       0.00126990      -0.00325205      -0.46503444
O       -1.53343828      -1.95179909       1.04806586    -113.00790813       0.00231081       0.00178170      -0.00192839      -0.45117816
O       -5.13489423       2.61435793       1.37391957    -113.06128409      -0.00152712      -0.00181322      -0.00260055      -0.43958554
O       -0.99271531      -1.68399692      -2.62980128    -114.45294375      -0.02176566      -0.03150057       0.01555678      -0.57864421
O        1.18164266       1.71106545      -0.70952858    -113.26826582       0.00340242       0.00610115       0.00962020      -0.46441430
C       -2.74871876      -0.06319375       0.18341397     -59.12192788       0.00173472       0.00146788      -0.00377349       0.09392129
C       -3.20464939       1.32681490       0.68576377     -59.07101816      -0.00005619       0.00067911      -0.00318202       0.09115190
C       -1.44316116      -0.56676911       0.85798520     -59.28462095       0.00119368       0.00183874      -0.00187478       0.08608549
C       -4.72927639       1.36795446       0.85259579     -59.25235749      -0.00002876      -0.00143555      -0.00240060       0.05945477
C       -0.17282756      -0.19902931       0.12048384     -58.23928215       0.00110017       0.00349140      -0.00076803       0.08120426
C       -0.09139854       1.23358523      -0.34394037     -59.39854185       0.00222100       0.00498722       0.00430940       0.05695374
H       -3.50407125      -0.81182574       0.47109245     -13.00301882       0.00170274       0.00068431      -0.00597660       0.04589857
H       -2.91927879       2.05334801      -0.09347594     -13.06294420      -0.00130044       0.00127382      -0.00309363       0.03900853
H       -1.39837069      -0.08156346       1.84713567     -12.79214753      -0.00041868       0.00151432      -0.00173488       0.06864370
H       -5.21454335       1.14556356      -0.10266209     -13.22280678      -0.00033132      -0.00243737      -0.00201455       0.03951882
H       -5.03467834       0.62626340       1.59486177     -13.00788141       0.00147768      -0.00160268      -0.00194872       0.06138579
H       -2.29379130      -0.75886793      -1.60059547     -11.31581683      -0.00082795      -0.00084382      -0.00337688       0.33343147
H       -3.26375328       2.19624420       2.39907708     -11.32733957      -0.00039161       0.00116420      -0.00344973       0.31715276
H       -0.53908451       1.86768244       0.43210893     -13.14302845      -0.00010789       0.00258352       0.00491604       0.04350183
H       -0.72060142       1.31111999      -1.23868289     -12.76532297       0.00488482       0.00765234       0.00258850       0.08641862
H       -0.71499413      -2.33387151       0.68469478     -11.32918648      -0.00019626       0.00185779      -0.00774161       0.32349783
H        1.72505851       1.77546410       0.09326465     -11.48233968       0.00117722       0.00262282       0.01154990       0.31032776
H       -4.99401887       3.29328777       0.70407598     -11.56897708      -0.00298349      -0.00187112      -0.00298621       0.29384259
O        2.99126983      -2.07439323      -2.48743913    -112.45847788       0.02540422       0.00295463       0.00864830      -0.36391299
O        1.35229494      -3.26581962      -1.55907360    -112.25759495      -0.02726984       0.02237226      -0.03690687      -0.40975197
O        5.11779860      -1.94500756      -0.44961613    -112.30198503       0.00463813      -0.00287693       0.00627354      -0.42293525
N        0.64254271      -1.15333318      -0.00667928     -80.12977792       0.00035183       0.00341235      -0.00553889      -0.24680061
N        4.73007347       0.23476443      -0.03465544     -80.86419580       0.00031326      -0.00181106      -0.00237796      -0.27048087
C        1.93886284      -1.11158427      -0.61377189     -58.92237102       0.00047157       0.00535201      -0.00552478       0.03543592
C        2.98986973      -1.32341324       0.50123409     -59.18328831      -0.00066816      -0.00171294      -0.00550418      -0.09292406
C        2.04640644      -2.28313720      -1.57817097     -58.88210619      -0.00026619       0.01336865      -0.01387032       0.36102335
C        4.38872103      -1.07171380      -0.04100578     -59.18308463       0.00159541      -0.00223458      -0.00044053       0.28688071
H        2.16203083      -0.19239963      -1.16983683     -12.98954388       0.00183364       0.00872857       0.00022006       0.06422604
H        2.77583395      -0.62835921       1.31308370     -13.05785139      -0.00071483      -0.00449765      -0.00298047       0.06503486
H        2.91286793      -2.34463700       0.87502652     -13.00012939      -0.00319031      -0.00295032      -0.00924990       0.07635177
H       -0.50269112      -2.43520109      -2.27668972     -11.72564818      -0.00828798      -0.01550539       0.05065032       0.30745845
H       -0.34860923      -1.03626058      -2.92476060     -11.89841188      -0.03081188      -0.02945980      -0.00296124       0.28498561
H        4.11823991       0.94021320       0.33763004     -12.14435965      -0.00113346      -0.00149984      -0.00530446       0.19919557
H        5.62321281       0.50876211      -0.40790531     -12.20682078       0.00214664      -0.00224716       0.00157510       0.19317028
H        3.12461297      -2.86113760      -3.04059209     -10.89052091       0.01969136       0.00543553       0.00292451       0.34114192
O        2.47859522       1.88334242       1.79283318    -114.74969418       0.00454396      -0.00075962       0.00864423      -0.57239637
H        1.83547202       1.53955264       2.41908830     -11.57163210       0.00692470       0.00236894       0.01292450       0.30165343
H        2.64220162       2.79919938       2.03178395     -11.58007757       0.00839175      -0.00065984       0.00579324       0.29932042
44
Properties=species:S:1:pos:R:3:energies:R:1:forces:R:3:charge:R:1 product=T mapped+aligned=T onto=T reactant=T energy=-2152.6533016146627 free_energy=-2152.6533016146627 dipole="0.29619151582061454 1.4777439746879806 0.3056585417943817" pbc="F F F"
O       -2.71698258       0.02175210      -1.18612671    -113.19437388       0.00356788       0.00602256      -0.00342788      -0.46266217
O       -2.59310359       1.69787028       1.92114288    -113.31670367      -0.00027208       0.00048578      -0.00183629      -0.46470213
O       -1.55090297      -1.96393640       1.06979903    -113.00825712      -0.00046147       0.00107501      -0.00218946      -0.45182526
O       -5.12534082       2.62857038       1.38532309    -113.06173459      -0.00168761      -0.00101995      -0.00236159      -0.43940515
O       -0.82711733      -1.44593550      -2.74563048    -114.42484830      -0.01907463      -0.01474698      -0.00159347      -0.57449321
O        1.16154299       1.66523000      -0.76682472    -113.25965439       0.00474203       0.00315174       0.01006155      -0.46376972
C       -2.76058116      -0.07485366       0.21294034     -59.12027831       0.00091252       0.00187607      -0.00389708       0.09330367
C       -3.20447918       1.32242244       0.70568140     -59.07148182      -0.00034926       0.00079241      -0.00189963       0.09114110
C       -1.45200008      -0.57962915       0.87649401     -59.28998094       0.00001049       0.00098317      -0.00235761       0.08621370
C       -4.72923508       1.37783937       0.86737280     -59.25351102      -0.00032410      -0.00105270      -0.00123349       0.05936381
C       -0.18100496      -0.22562921       0.13087350     -58.23998558       0.00028948       0.00100936      -0.00149386       0.08009669
C       -0.10463379       1.19617269      -0.36823616     -59.40406241       0.00287513       0.00283143       0.00376526       0.05636731
H       -3.51637592      -0.81675116       0.51735436     -12.98837597       0.00064603       0.00089044      -0.00698209       0.04698973
H       -2.91099866       2.04178510      -0.07713112     -13.06035321      -0.00143398       0.00170556      -0.00151236       0.03918175
H       -1.39689965      -0.09018268       1.86371890     -12.79776419      -0.00055931       0.00117115      -0.00244427       0.06749852
H       -5.21253863       1.15828166      -0.08954920     -13.21902420      -0.00049798      -0.00265974      -0.00078445       0.03986157
H       -5.04428309       0.64004158       1.60945086     -13.00744702       0.00108475      -0.00075552      -0.00032698       0.06138160
H       -2.28236780      -0.75802836      -1.56983922     -11.32704660      -0.00093053       0.00450656      -0.00639590       0.33062029
H       -3.26089212       2.19589286       2.41700329     -11.32326284       0.00011899       0.00151927      -0.00237562       0.31733151
H       -0.53802795       1.84739192       0.40226188     -13.15109561       0.00038033       0.00043998       0.00432248       0.04230206
H       -0.74929038       1.25620636      -1.25309002     -12.74710800       0.00608322       0.00597739       0.00149705       0.08829302
H       -0.71601572      -2.34744993       0.74607266     -11.32971919      -0.00086924       0.00064461      -0.00256142       0.32403682
H        1.71894644       1.75109760       0.02385870     -11.48652499       0.00215567      -0.00059450       0.01246526       0.31003026
H       -4.97467161       3.30539470       0.71547796     -11.56618505      -0.00344288      -0.00167173      -0.00345607       0.29392153
O        2.76151287      -2.09785838      -2.56612209    -112.55626342       0.01427282       0.00586358      -0.00175279      -0.37434886
O        1.58451972      -3.46012960      -1.24924288    -112.07178854      -0.01107573       0.00656671      -0.01984804      -0.39355195
O        5.07399638      -1.91568409      -0.51495208    -112.32911627      -0.00201401      -0.00051860      -0.00435197      -0.42627222
N        0.63718623      -1.18107677       0.03639128     -80.10890433      -0.00154049      -0.00028680      -0.00667483      -0.24416739
N        4.72863689       0.25348477      -0.01650341     -80.86482519       0.00059840      -0.00106727       0.00010910      -0.27081725
C        1.93241424      -1.15442123      -0.57290713     -58.90442098      -0.00130860       0.00188192      -0.00616565       0.03663081
C        2.99429149      -1.30478252       0.54120164     -59.18981528      -0.00228188       0.00001862      -0.00537544      -0.09394589
C        2.05733878      -2.38007087      -1.46806934     -58.89423418       0.00048149       0.00489679      -0.01003949       0.36060077
C        4.37372038      -1.04905758      -0.04497407     -59.19081018      -0.00126780      -0.00044337      -0.00335220       0.28599197
H        2.14166036      -0.26276086      -1.17654377     -13.03584760      -0.00114345       0.00385607      -0.00331999       0.06016268
H        2.78085884      -0.58639021       1.33179753     -13.07515698      -0.00294851      -0.00039496      -0.00511287       0.06368830
H        2.93916138      -2.31537325       0.94656568     -12.96881612      -0.00335839      -0.00022362      -0.00605545       0.07982090
H       -0.44359975      -2.32502117      -2.71272088     -11.81104388       0.00051315      -0.02718992       0.06353721       0.29393835
H       -0.11492613      -0.82428113      -2.91338045     -11.79599399      -0.01527529      -0.01903667      -0.00204923       0.29288633
H        4.13077460       0.95585914       0.38352305     -12.14389221       0.00135842      -0.00111348       0.00129185       0.19966769
H        5.60619403       0.53072310      -0.42314641     -12.21140403       0.00139685      -0.00136060       0.00159165       0.19290693
H        2.94791271      -2.90431411      -3.07344051     -10.94463088       0.01437294       0.00736917      -0.00424680       0.33766444
O        2.45251980       1.88887698       1.74320341    -114.74760704       0.00379088       0.00020044       0.01019770      -0.57265468
H        1.79532163       1.52383068       2.34241306     -11.57342614       0.00539192       0.00631501       0.01607198       0.30173061
H        2.58776121       2.80489207       1.99851131     -11.58652551       0.00707384       0.00208559       0.00256320       0.29899115
44
Properties=species:S:1:pos:R:3:energies:R:1:forces:R:3:charge:R:1 product=T mapped+aligned=T onto=T reactant=T energy=-2152.6040477940464 free_energy=-2152.6040477940464 dipole="0.14991216232951354 1.5104364202463139 0.04081766098694418" pbc="F F F"
O       -2.74053429      -0.03171226      -1.15889367    -113.17974704       0.00429234       0.00111552      -0.00198135      -0.45997053
O       -2.59104047       1.69776359       1.93076233    -113.31201129       0.00041608       0.00348851      -0.00445130      -0.46469736
O       -1.54704254      -1.97226645       1.09262483    -112.99398929       0.00062945       0.00224666       0.00722242      -0.45198501
O       -5.11296802       2.63618757       1.39806123    -113.05972268      -0.00152466      -0.00136905      -0.00423835      -0.43916390
O       -0.65967609      -1.33452940      -2.72592693    -114.45189751      -0.01089069      -0.00474989       0.00736521      -0.57742743
O        1.12683852       1.63963409      -0.83799623    -113.25381987       0.00600661       0.00076701       0.01046169      -0.46358041
C       -2.76657956      -0.09114608       0.24433596     -59.11565337       0.00173952       0.00032281      -0.00209626       0.09254476
C       -3.20168860       1.31573577       0.71699732     -59.07808523      -0.00003904       0.00031245      -0.00328253       0.09105334
C       -1.45231204      -0.58765275       0.89937311     -59.29761925       0.00084241       0.00140982       0.00105888       0.08621119
C       -4.72669685       1.38485853       0.87411891     -59.25160611       0.00000420      -0.00188307      -0.00196589       0.05941045
C       -0.18220411      -0.23448365       0.14741786     -58.24634875       0.00067566      -0.00141256      -0.00015456       0.07944504
C       -0.12527433       1.17403635      -0.39266777     -59.40165987       0.00379324       0.00037878       0.00421603       0.05618127
H       -3.52084399      -0.82436382       0.57308114     -12.97995875       0.00147199      -0.00015785      -0.00375709       0.04754768
H       -2.90055464       2.02600419      -0.07096508     -13.06963058      -0.00178605      -0.00055241      -0.00479765       0.03837821
H       -1.39442356      -0.09826738       1.88662797     -12.80906663       0.00062243       0.00555742      -0.00093361       0.06617667
H       -5.20906170       1.17507598      -0.08545958     -13.21963626      -0.00066024      -0.00468774      -0.00107057       0.03974563
H       -5.05171031       0.64635360       1.61112104     -13.00729535       0.00201464      -0.00093020      -0.00006444       0.06140459
H       -2.26769087      -0.80002433      -1.51412613     -11.33261459       0.00668693       0.00260798      -0.00245867       0.32922358
H       -3.26205724       2.18864932       2.42952738     -11.32296776       0.00026843       0.00407102      -0.00524127       0.31745660
H       -0.54034394       1.84327679       0.37310484     -13.15980500       0.00137253      -0.00160848       0.00462275       0.04098783
H       -0.79325908       1.20954765      -1.26072115     -12.74622101       0.00704411       0.00340282       0.00167872       0.08839702
H       -0.70986525      -2.35250008       0.76972740     -11.33387284      -0.00155453       0.00043876       0.00328288       0.32504181
H        1.70399405       1.75213727      -0.06541017     -11.49280310       0.00375756      -0.00416743       0.01318504       0.30986034
H       -4.94898122       3.31673804       0.73514979     -11.56664527      -0.00324175      -0.00251675      -0.00590440       0.29379935
O        2.61314374      -2.14936891      -2.56275617    -112.59800718      -0.00247574       0.00237454      -0.00732732      -0.37906191
O        1.69487982      -3.52363118      -1.06427160    -111.95041723       0.00815675      -0.00387132      -0.00609245      -0.38316111
O        5.08354648      -1.90390416      -0.49671669    -112.33103000      -0.00518124       0.00141763      -0.00913019      -0.42741367
N        0.64946282      -1.18016385       0.09296881     -80.03769739      -0.00219712      -0.00397248      -0.00539457      -0.23771002
N        4.72545384       0.26658034      -0.01559763     -80.86482606      -0.00026925       0.00014510       0.00144841      -0.27192410
C        1.94110231      -1.17119997      -0.52228088     -58.90566744      -0.00225028      -0.00218808      -0.00552935       0.03728614
C        3.01329876      -1.30051712       0.58379647     -59.20629735      -0.00291128       0.00054534      -0.00450444      -0.09560827
C        2.05057469      -2.42568548      -1.38063980     -58.87886060       0.00212316      -0.00111615      -0.00635424       0.36427358
C        4.38188863      -1.03975822      -0.02385307     -59.19759856      -0.00290401       0.00073164      -0.00424333       0.28566138
H        2.14614902      -0.29788695      -1.15310314     -13.05668903      -0.00372722      -0.00150085      -0.00517496       0.05789140
H        2.80565551      -0.57717165       1.37088944     -13.08648008      -0.00460368       0.00168290      -0.00594071       0.06244436
H        2.96996244      -2.30840188       0.99703463     -12.94902990      -0.00251586       0.00103960      -0.00324468       0.08210889
H       -0.46115771      -2.09203782      -3.27942589     -11.82359908      -0.00688611      -0.01155887       0.01532588       0.28917014
H        0.01760072      -0.67440519      -2.89292277     -11.75700788      -0.00978107      -0.00641034       0.00499924       0.29616868
H        4.12453232       0.96820855       0.38139371     -12.15023593       0.00144083      -0.00037439       0.00505807       0.19979641
H        5.59484235       0.54690515      -0.43741688     -12.22582753      -0.00007779       0.00033901       0.00194427       0.19193682
H        2.79886900      -2.96931044      -3.04790572     -10.98676249       0.00198383       0.00357266      -0.00821701       0.33477100
O        2.42805056       1.88819968       1.67096700    -114.73618357       0.00246188       0.00102383       0.01204236      -0.57287072
H        1.76074494       1.47472874       2.22615515     -11.57877283       0.00227444       0.00987691       0.01986833       0.30185533
H        2.53537787       2.78976584       1.98382262     -11.60038026       0.00539858       0.00615916      -0.00022897       0.29834495
44
Properties=species:S:1:pos:R:3:energies:R:1:forces:R:3:charge:R:1 product=T mapped+aligned=T onto=T reactant=T energy=-2152.548554827774 free_energy=-2152.548554827774 dipole="0.07961524753882937 1.5078569583250119 -0.022105146427450022" pbc="F F F"
O       -2.79255991      -0.05146475      -1.13237584    -113.16555981       0.00717726      -0.00200758      -0.00286281      -0.45572475
O       -2.59708699       1.65420746       1.98579002    -113.31260101       0.00258931       0.00833665      -0.01006021      -0.46451861
O       -1.55440829      -2.00176372       0.99885854    -112.98626261       0.00204382       0.00379187       0.02544382      -0.45226795
O       -5.09412825       2.65340765       1.44794197    -113.05904025      -0.00025478      -0.00232511      -0.00518689      -0.43876496
O       -0.49958390      -1.28393900      -2.82415058    -114.43506990      -0.02236438       0.00762376       0.01824297      -0.57814140
O        1.04950948       1.62985065      -0.96872698    -113.23941991       0.00882932      -0.00308453       0.01038774      -0.46209374
C       -2.78819004      -0.09660500       0.27267829     -59.11166769       0.00333787      -0.00115780      -0.00283670       0.09288528
C       -3.20119675       1.31104354       0.75740329     -59.09095887       0.00055584       0.00005424      -0.00704941       0.09110874
C       -1.46368637      -0.60658367       0.88916085     -59.27808317       0.00238158       0.00287104       0.00393568       0.08673147
C       -4.72681894       1.40811916       0.89718894     -59.25079611       0.00067435      -0.00292008      -0.00336489       0.05942223
C       -0.18970772      -0.21495158       0.15437053     -58.25312238       0.00098369      -0.00627938      -0.00256426       0.07865537
C       -0.17373967       1.17085958      -0.44336167     -59.39911012       0.00561007      -0.00384198       0.00280492       0.05597801
H       -3.53939624      -0.82302958       0.62320593     -12.97007987       0.00300685      -0.00136511      -0.00409756       0.04816309
H       -2.87759614       2.03115591      -0.01206099     -13.07904627      -0.00294806      -0.00282240      -0.01142175       0.03754611
H       -1.40461079      -0.17285478       1.90258485     -12.82715814       0.00356678       0.01780589      -0.00164248       0.06402736
H       -5.20038022       1.23241596      -0.07354163     -13.21476026      -0.00171044      -0.00602187      -0.00168086       0.04019789
H       -5.07751055       0.65864538       1.61098063     -13.00599130       0.00409951      -0.00196675      -0.00059412       0.06143727
H       -2.35219327      -0.84201009      -1.47657491     -11.32972394       0.01443192       0.00192470      -0.00357863       0.32633597
H       -3.26613980       2.13879544       2.49332081     -11.31447613       0.00147290       0.00723852      -0.01040080       0.31789636
H       -0.55782089       1.86549610       0.31666251     -13.16443371       0.00235056      -0.00599728       0.00304865       0.04006999
H       -0.88296452       1.16618427      -1.27836939     -12.71873474       0.00954348      -0.00034630      -0.00081448       0.09158090
H       -0.68914982      -2.35827083       0.72668558     -11.33771074      -0.00137315       0.00073035       0.01734064       0.32571396
H        1.65584006       1.80596558      -0.23189692     -11.49109106       0.00597505      -0.00931717       0.01461735       0.30989691
H       -4.90815810       3.34766862       0.80537795     -11.56299179      -0.00267074      -0.00331738      -0.00702905       0.29386435
O        2.61600922      -2.18714155      -2.46779131    -112.57353008      -0.00051233       0.00563706      -0.01612904      -0.37635545
O        1.59672744      -3.47960626      -0.96264600    -111.95170561       0.02314885      -0.01234603      -0.01400624      -0.38385939
O        5.14831457      -1.91500535      -0.38907148    -112.31806738      -0.00675266      -0.00037520      -0.00815769      -0.42607420
N        0.67998143      -1.12652440       0.16892256     -80.01167367      -0.00434825      -0.01225371      -0.01182375      -0.23780484
N        4.73119127       0.26915413      -0.03290273     -80.87261473      -0.00379035      -0.00126232       0.00185469      -0.27311031
C        1.96963008      -1.14231658      -0.44624298     -58.91628151      -0.00339771      -0.00794661      -0.01049947       0.03712829
C        3.05405401      -1.30421890       0.64354442     -59.21162813      -0.00637061      -0.00205804      -0.00655547      -0.09630940
C        2.01994573      -2.41007987      -1.29298724     -58.87126028       0.00737646      -0.00699359      -0.01219641       0.36607174
C        4.42037222      -1.04417960       0.02778002     -59.19769550      -0.00559516      -0.00120247      -0.00398090       0.28568319
H        2.19297778      -0.28020080      -1.08555977     -13.06250863      -0.00575043      -0.00597077      -0.00873791       0.05708755
H        2.86984036      -0.59570799       1.44957592     -13.08401959      -0.01133712       0.00082419      -0.01004255       0.06161533
H        3.00839528      -2.31827886       1.04082395     -12.95890561      -0.00584457      -0.00101404      -0.00371181       0.08129112
H       -0.38918018      -1.91750396      -3.53601905     -11.85390898      -0.00988951       0.00492573       0.02176885       0.28616880
H        0.15950823      -0.59734190      -2.95496775     -11.77309546      -0.01569710       0.00420675       0.02908005       0.29545731
H        4.11004070       0.97645026       0.32169303     -12.14665449      -0.00274636      -0.00218809       0.00549643       0.20081975
H        5.59648115       0.54780875      -0.46410620     -12.23240282      -0.00306448      -0.00036250       0.00387027       0.19157117
H        2.73789695      -3.02463620      -2.94310039     -10.98046178       0.01062128       0.00801067      -0.01810340       0.33503799
O        2.40139112       1.87607857       1.51811413    -114.73566889      -0.00162135       0.00084910       0.01546340      -0.57403064
H        1.74071664       1.34326380       1.97062239     -11.58313921      -0.00654711       0.01693929       0.03104193       0.30191054
H        2.46738562       2.70764242       1.99316871     -11.61544268       0.00480989       0.01497429      -0.00526785       0.29770160
44
Properties=species:S:1:pos:R:3:energies:R:1:forces:R:3:charge:R:1 product=T mapped+aligned=T onto=T reactant=T charge=0 multiplicity=1 energy=-2152.455638503441 free_energy=-2152.455638503441 dipole="0.03504164662515845 1.4253085941400678 -0.06656581093736451" pbc="F F F"
O       -2.84276541      -0.03728028      -1.11242674    -113.16735053       0.00623023      -0.00369743      -0.00163889      -0.45381861
O       -2.61531653       1.59569311       2.05628136    -113.30355307       0.00384748       0.01251668      -0.01224994      -0.46360397
O       -1.56864558      -2.02831460       0.81973184    -112.97385699       0.00128125       0.00441904       0.04438290      -0.45248241
O       -5.09248837       2.66957212       1.48403821    -113.05737603       0.00164503      -0.00088013      -0.00316924      -0.43868849
O       -0.34257673      -1.33828466      -2.95205978    -114.39446350      -0.03060536       0.01791728       0.02036521      -0.57678199
O        0.98778341       1.65177824      -1.04107095    -113.20583256       0.01030875      -0.00829505       0.00831890      -0.45964093
C       -2.81155616      -0.08844449       0.29245838     -59.10778860       0.00328008      -0.00165440      -0.00164477       0.09412179
C       -3.20510940       1.31063613       0.80677362     -59.10565697       0.00079034       0.00088502      -0.00825903       0.09145479
C       -1.48027787      -0.62677750       0.86148845     -59.24379325       0.00247282       0.00438752       0.00710827       0.08777969
C       -4.73155943       1.42846858       0.92071637     -59.24997317       0.00098575      -0.00125026      -0.00298953       0.05950578
C       -0.19671145      -0.17061817       0.17263520     -58.24502173       0.00088749      -0.01272182      -0.00575637       0.07893838
C       -0.21290489       1.19812491      -0.46262014     -59.39325225       0.00570942      -0.00984529      -0.00207335       0.05685751
H       -3.56041247      -0.81345147       0.65171758     -12.96670774       0.00298632      -0.00115360      -0.00152528       0.04762217
H       -2.85696830       2.05094400       0.06803451     -13.09125259      -0.00324932      -0.00351088      -0.01461838       0.03633629
H       -1.42976349      -0.29820807       1.91407609     -12.85388372       0.00621228       0.03085065      -0.00141888       0.06163148
H       -5.18834371       1.27430489      -0.06179461     -13.21072742      -0.00269450      -0.00306911      -0.00092500       0.04046705
H       -5.10619028       0.67235575       1.61515269     -13.00679338       0.00450998      -0.00059249      -0.00040608       0.06124659
H       -2.45310092      -0.85531465      -1.45151153     -11.32273700       0.01206529      -0.00020859      -0.00337444       0.32471874
H       -3.27646936       2.08808686       2.56613711     -11.31294647       0.00180119       0.00979240      -0.01209693       0.31775349
H       -0.57413163       1.90775066       0.29579314     -13.16141793      -0.00037110      -0.01118877      -0.00429754       0.03975333
H       -0.94973620       1.16915261      -1.27225258     -12.71543073       0.01206298      -0.00868686      -0.00799437       0.09255038
H       -0.67962061      -2.36333449       0.60441668     -11.35049542      -0.00293602       0.00035029       0.03344628       0.32644669
H        1.61407446       1.87133824      -0.33386791     -11.49163027       0.00539444      -0.01311352       0.01433673       0.30981793
H       -4.88966426       3.37073779       0.85429010     -11.56363899      -0.00055787      -0.00129409      -0.00438099       0.29376992
O        2.62006916      -2.22673464      -2.35638521    -112.52926392       0.00489901       0.01224875      -0.02297169      -0.37182930
O        1.43617328      -3.38712748      -0.86573675    -111.98437501       0.03776446      -0.02181727      -0.02389447      -0.38744322
O        5.19574017      -1.91241771      -0.33252379    -112.31018027      -0.01694323       0.00916697      -0.00003344      -0.42518402
N        0.71088970      -1.04049286       0.25186982     -79.98909511      -0.00799254      -0.01955497      -0.01776172      -0.24028894
N        4.75796624       0.27809832      -0.04589623     -80.87886995      -0.00688032       0.00080292       0.00170331      -0.27383149
C        1.99347180      -1.08619189      -0.37243994     -58.92138661      -0.00468986      -0.01241691      -0.01452406       0.03720454
C        3.09877485      -1.28957548       0.68934926     -59.21236579      -0.00979608      -0.00415756      -0.00691604      -0.09656175
C        1.96475679      -2.36732631      -1.20400786     -58.85993410       0.01505183      -0.00895591      -0.01971454       0.36786885
C        4.45933719      -1.03542114       0.05565666     -59.19575796       0.00136263      -0.01661239      -0.00770014       0.28582009
H        2.23325970      -0.23816592      -1.02435386     -13.06403168      -0.00791734      -0.00848540      -0.00994619       0.05703346
H        2.94949554      -0.60131563       1.51997079     -13.08378684      -0.01756305      -0.00062122      -0.01247958       0.06069093
H        3.04947716      -2.31107570       1.06673458     -12.97399337      -0.00904577      -0.00287566      -0.00400941       0.07967042
H       -0.32061114      -1.95274842      -3.68876359     -11.86444997      -0.00278011       0.01430189       0.02385904       0.28489881
H        0.26920987      -0.62740927      -3.15965169     -11.79103811      -0.01203289       0.00936607       0.04536141       0.29377118
H        4.12958375       0.99191805       0.28341425     -12.14013433      -0.00712852      -0.00465967       0.00387285       0.20200635
H        5.61813092       0.55046435      -0.49124556     -12.23586301      -0.00703176      -0.00193997       0.00562844       0.19143444
H        2.66252538      -3.08084692      -2.81572366     -10.96505625       0.02582675       0.01529495      -0.02757641       0.33587456
O        2.41311547       1.87026312       1.41010423    -114.74079086      -0.00608144       0.00066633       0.01681903      -0.57617089
H        1.78715154       1.22473461       1.75331081     -11.58369965      -0.01385004       0.01930522       0.03837279       0.30247791
H        2.43393983       2.60245341       2.03018268     -11.63598543       0.00277133       0.02098726      -0.00722845       0.29680243
