44
Properties=species:S:1:pos:R:3:energies:R:1:forces:R:3:charge:R:1 product=T mapped+aligned=T onto=T reactant=T energy=-2152.7216565329086 free_energy=-2152.7216565329086 dipole="0.49743802983059104 0.8172857349859248 0.3422840815531706" pbc="F F F"
O       -2.99515117       0.16459202      -1.10149600    -113.26901574      -0.26326068       0.05574370       0.03494602      -0.48776330
O       -2.83593471       1.72130429       2.08900710    -113.17643085      -0.02435896      -0.02893822       0.05625456      -0.45581640
O       -1.35750451      -1.52832334       1.43427728    -113.01414042      -0.13075877       0.02662177       0.04579689      -0.45118122
O       -5.34809067       2.59624490       1.14579800    -113.03638729      -0.02268888       0.04933701       0.02352910      -0.44077094
O       -1.14394983      -1.36247807      -1.43792063    -113.25501612       0.41274584       0.79540083       0.07462164      -0.49204285
O        1.14927040       1.55258891      -0.74077003    -113.13618945      -0.08110261      -0.21172821      -0.00291653      -0.44668101
C       -2.76842720       0.04744806       0.27843383     -59.14043122      -0.11134682       0.00349451       0.02159945       0.09779511
C       -3.25605415       1.40924068       0.78736550     -59.02885449      -0.03865974       0.00748900       0.05961090       0.09982801
C       -1.32990587      -0.32156807       0.71388902     -59.01098545      -0.08060247      -0.04495353      -0.11322167       0.08901007
C       -4.78477774       1.39319674       0.67952204     -59.24581747      -0.03394207       0.03991681       0.04710046       0.05955643
C       -0.40441758      -0.48929235      -0.52137483     -58.78010531      -0.23950507      -0.29140486      -0.34842798       0.17511456
C       -0.08099239       0.94497305      -1.07184562     -59.28272203      -0.07418620      -0.17648064      -0.14654445       0.05388308
H       -3.38811047      -0.75749590       0.69852301     -12.98625747      -0.09462888       0.00900916       0.05697520       0.04722774
H       -2.86354265       2.16869503       0.08519818     -13.18124706      -0.01204804       0.00145812       0.06603508       0.02497532
H       -0.95185686       0.46652051       1.38584624     -13.11863296       0.10262089       0.02078071      -0.22996882       0.03615946
H       -5.06286816       1.17743008      -0.35743876     -13.15258117      -0.01811131       0.03307648       0.04492838       0.04664310
H       -5.17384838       0.60186503       1.32434276     -13.04759990      -0.05019302       0.04863431       0.04720062       0.05723252
H       -2.58710863      -0.61188784      -1.52487903     -11.31489349      -0.15150735       0.15483898      -0.03501673       0.33881016
H       -3.57803117       2.18107129       2.50605010     -11.37690398      -0.00163861      -0.00261693       0.05992177       0.31464443
H       -0.89190121       1.61408123      -0.76072016     -13.08703316      -0.05288144      -0.21013174      -0.11358509       0.04861597
H       -0.08495472       0.88929733      -2.16002571     -12.98143476       0.00282365      -0.02026043      -0.14985847       0.06438935
H       -0.45002458      -1.87388569       1.38920807     -11.41312249      -0.19702059       0.01860724       0.24079395       0.30804573
H        1.22919972       1.75754530       0.20446080     -11.39133052      -0.17255290      -0.15897383       0.00572293       0.31451091
H       -5.12834840       3.29508790       0.52000599     -11.61253222      -0.00615956       0.03360537       0.01156421       0.29225704
O        3.25557020      -1.39441048      -2.67861723    -112.39690375       0.03092051      -0.01484684      -0.01082929      -0.35223754
O        1.15631233      -2.13257360      -2.68277825    -112.59537306       0.06867465      -0.08451379      -0.05150091      -0.43609643
O        5.37081103      -2.00026093      -0.45585534    -112.28136698      -0.01035958       0.00360217      -0.02094319      -0.42091307
N        0.69673998      -1.33129535      -0.09865918     -80.97484175      -0.06200013      -0.18832956      -0.03592644      -0.29636281
N        4.69441964      -0.02073354       0.36847632     -80.90711041      -0.03978598      -0.01229691      -0.00994404      -0.27271915
C        2.01808095      -1.12950620      -0.67316750     -59.06544628      -0.03979788      -0.12511990      -0.01114578       0.01400994
C        3.06905552      -1.80373040       0.22473856     -59.32129814      -0.00700483      -0.05058677       0.00315644      -0.10212962
C        2.08801055      -1.61599414      -2.10600775     -58.86689342       0.03940991      -0.07198777      -0.02663127       0.35611990
C        4.49070674      -1.30028257      -0.01208270     -59.16807533      -0.02019906      -0.01332512      -0.01156795       0.28766037
H        2.23788336      -0.05457908      -0.70821159     -12.50350209      -0.12200522      -0.09883390       0.04280746       0.11458917
H        2.79593800      -1.59145619       1.25936321     -12.95573231      -0.01182179      -0.02627233      -0.00520375       0.07214816
H        3.05382626      -2.88164572       0.06816298     -13.07152869       0.03506626      -0.05511189       0.03320122       0.06767666
H        0.24508990      -2.24390467      -0.33642756     -12.02336806       1.34459123       0.24912824       0.42164294       0.19014873
H       -0.54587421      -1.84570715      -2.04358205     -11.39801189       0.20649045       0.38480513       0.01512256       0.32667318
H        3.96109113       0.56697320       0.72986576     -12.10640507      -0.04386663      -0.02149700      -0.00297809       0.20372447
H        5.60798617       0.37786756       0.22584357     -12.19589079      -0.04480185      -0.00228578      -0.01190755       0.19368041
H        3.27097314      -1.74610645      -3.58351501     -10.84832552       0.05082751       0.02029667      -0.02335536       0.34192150
O        2.29614098       1.61395474       1.95313519    -114.74870732      -0.01482180      -0.01847940       0.00388771      -0.57526069
H        1.77185249       1.08503227       2.56107465     -11.61042784       0.00276457       0.01100576      -0.02182446       0.29797524
H        2.55271877       2.41210562       2.42278878     -11.64278281      -0.02331675      -0.03787660      -0.03312168       0.29494827
