44
Properties=species:S:1:pos:R:3 product=T mapped+aligned=T onto=T reactant=T charge=0 multiplicity=1 pbc="F F F"
O       -3.10958525      -0.23443002      -0.86753196
O       -2.49778323       2.00675984       1.86843501
O       -1.18013327      -1.33449345       1.63991493
O       -4.98828734       2.98265791       1.10816393
O       -0.92829559      -1.78460018      -1.17997992
O        0.72360391       1.69433551      -0.95573115
C       -2.72437175       0.04612202       0.45249085
C       -3.10617254       1.51641922       0.70038271
C       -1.23358493      -0.22452249       0.77982986
C       -4.62948308       1.65621854       0.79815249
C       -0.27832943      -0.43517319      -0.40509693
C       -0.21921229       0.74043800      -1.37433050
H       -3.28462647      -0.58631260       1.15840554
H       -2.75800799       2.10674302      -0.16518248
H       -0.85836149       0.66609430       1.31431677
H       -5.09254819       1.31059670      -0.13173103
H       -4.99338213       1.05167344       1.63177804
H       -2.79861073      -1.12455943      -1.08445798
H       -3.12823759       2.61774889       2.27706750
H       -1.21658680       1.17970016      -1.47905040
H        0.11242591       0.40723836      -2.36003195
H       -0.26581455      -1.66102165       1.60445504
H        0.57861648       1.91804340      -0.02777079
H       -4.78037641       3.54936891       0.35610470
O        3.31392159      -1.22777998      -2.67664916
O        1.16777034      -1.78556136      -2.77422421
O        5.53110065      -1.48501520      -0.41558304
N        0.85583325      -1.08184384       0.03677785
N        4.50335700       0.14934686       0.74658553
C        2.10876802      -0.94382366      -0.67952938
C        3.18779878      -1.74936104       0.08079302
C        2.11984515      -1.37432138      -2.13777490
C        4.53307122      -1.02977198       0.09701870
H        2.41538315       0.11396400      -0.71399589
H        2.84715052      -1.88594176       1.10761864
H        3.32686198      -2.73408683      -0.36667129
H       -0.02256171      -2.15629220      -0.51016277
H       -0.52130742      -1.81153186      -2.07565243
H        3.67399985       0.49198557       1.21342283
H        5.34665758       0.69692463       0.78772891
H        3.33562849      -1.51834689      -3.60285310
O        1.88293851       0.70326768       1.96750378
H        1.46258656       0.03228011       1.39419007
H        1.58834323       0.53086197       2.86285659
