44
Properties=species:S:1:pos:R:3 product=T mapped+aligned=T onto=T reactant=T charge=0 multiplicity=1 pbc="F F F"
O       -2.84276541      -0.03728028      -1.11242674
O       -2.61531653       1.59569311       2.05628136
O       -1.56864558      -2.02831460       0.81973184
O       -5.09248837       2.66957212       1.48403821
O       -0.34257673      -1.33828466      -2.95205978
O        0.98778341       1.65177824      -1.04107095
C       -2.81155616      -0.08844449       0.29245838
C       -3.20510940       1.31063613       0.80677362
C       -1.48027787      -0.62677750       0.86148845
C       -4.73155943       1.42846858       0.92071637
C       -0.19671145      -0.17061817       0.17263520
C       -0.21290489       1.19812491      -0.46262014
H       -3.56041247      -0.81345147       0.65171758
H       -2.85696830       2.05094400       0.06803451
H       -1.42976349      -0.29820807       1.91407609
H       -5.18834371       1.27430489      -0.06179461
H       -5.10619028       0.67235575       1.61515269
H       -2.45310092      -0.85531465      -1.45151153
H       -3.27646936       2.08808686       2.56613711
H       -0.57413163       1.90775066       0.29579314
H       -0.94973620       1.16915261      -1.27225258
H       -0.67962061      -2.36333449       0.60441668
H        1.61407446       1.87133824      -0.33386791
H       -4.88966426       3.37073779       0.85429010
O        2.62006916      -2.22673464      -2.35638521
O        1.43617328      -3.38712748      -0.86573675
O        5.19574017      -1.91241771      -0.33252379
N        0.71088970      -1.04049286       0.25186982
N        4.75796624       0.27809832      -0.04589623
C        1.99347180      -1.08619189      -0.37243994
C        3.09877485      -1.28957548       0.68934926
C        1.96475679      -2.36732631      -1.20400786
C        4.45933719      -1.03542114       0.05565666
H        2.23325970      -0.23816592      -1.02435386
H        2.94949554      -0.60131563       1.51997079
H        3.04947716      -2.31107570       1.06673458
H       -0.32061114      -1.95274842      -3.68876359
H        0.26920987      -0.62740927      -3.15965169
H        4.12958375       0.99191805       0.28341425
H        5.61813092       0.55046435      -0.49124556
H        2.66252538      -3.08084692      -2.81572366
O        2.41311547       1.87026312       1.41010423
H        1.78715154       1.22473461       1.75331081
H        2.43393983       2.60245341       2.03018268
