44
Properties=species:S:1:pos:R:3 charge=0 multiplicity=1 source=products.log spin=1 pbc="F F F"
O       -2.74092117       0.02912894      -1.82874434
O       -2.82713441       1.59207302       1.39448470
O       -1.71002393      -2.01334375       0.17367892
O       -5.10338910       2.86520002       0.39108424
O       -0.02252860      -0.86773829      -1.59105442
O        1.12051167       1.67797934      -1.20053651
C       -2.83250414      -0.02787899      -0.42794452
C       -3.22335435       1.37843080       0.05965479
C       -1.56662911      -0.61349876       0.23569031
C       -4.73841651       1.58576817      -0.07474536
C       -0.21266788      -0.18220657      -0.37330448
C       -0.12978527       1.33122325      -0.65880907
H       -3.63134056      -0.72798947      -0.13181325
H       -2.72611233       2.11824023      -0.58794203
H       -1.57917029      -0.28569616       1.28690860
H       -5.04049490       1.42588012      -1.11458774
H       -5.26491801       0.87659224       0.56824885
H       -2.34530543      -0.80354191      -2.12012265
H       -3.49027275       2.18181214       1.78425017
H       -0.86682676       1.56159631      -1.43084637
H       -0.36137777       1.89150523       0.25110284
H       -0.86251145      -2.44887844      -0.02109654
H        1.75301478       1.80204493      -0.47303149
H       -4.75935220       3.52906721      -0.21760071
O        2.48571447      -2.63339210      -1.73991755
O        0.88558507      -3.22749513      -0.29647697
O        5.19453596      -2.24754603       0.41395209
N        0.83075060      -0.54107267       0.61786129
N        4.82908630      -0.02398133       0.52011468
C        2.03446348      -1.13796223       0.04479232
C        3.03607204      -1.47121900       1.16838366
C        1.71309017      -2.43844795      -0.68324014
C        4.46784437      -1.31514242       0.66405903
H        2.47875795      -0.43686722      -0.66719359
H        2.88147036      -0.79016817       2.00498396
H        2.88608819      -2.49372106       1.51713412
H        0.44234778      -1.21670886       1.27326768
H        1.73907889       0.95584803       1.33310625
H        4.20252288       0.73057906       0.75415661
H        5.74954856       0.18973765       0.17508232
H        2.31903029      -3.50154986      -2.14101625
O        2.38798294       1.68716320       1.32773138
H        2.11393944       2.31948774       1.99417092
H        0.48360071      -0.28331126      -2.17387577
44
Properties=species:S:1:pos:R:3 charge=0 multiplicity=1 source=products.log spin=1 pbc="F F F"
O       -2.71979481      -0.07351802      -1.76080302
O       -2.86145586       1.67784962       1.35450621
O       -1.72670005      -1.98597596       0.33340611
O       -5.08608109       2.92116896       0.21715487
O       -0.02974432      -0.85351743      -1.59404652
O        1.16062271       1.70522795      -1.09453103
C       -2.82774487      -0.03522527      -0.36754112
C       -3.21603809       1.39600510       0.02476043
C       -1.56732038      -0.58030470       0.31804955
C       -4.72529621       1.61390822      -0.16712221
C       -0.21392815      -0.16363921      -0.30441250
C       -0.10371502       1.33629481      -0.60430487
H       -3.63873221      -0.71268867      -0.03700120
H       -2.69388539       2.08773218      -0.65017171
H       -1.61495601      -0.21469208       1.34663950
H       -4.99588944       1.40058018      -1.20629045
H       -5.28146802       0.94854059       0.49775861
H       -2.34338521      -0.93745004      -1.98711130
H       -3.52611670       2.29802774       1.69297087
H       -0.79708649       1.55696779      -1.40764361
H       -0.38683980       1.91786173       0.26711852
H       -0.89722205      -2.42929879       0.10617843
H        1.74987143       1.83976999      -0.34059164
H       -4.71306661       3.54589426      -0.41544264
O        2.46628325      -2.62314686      -1.78111700
O        0.90558546      -3.23196572      -0.28971622
O        5.25337668      -2.19602111       0.20540305
N        0.83707713      -0.58051287       0.60804498
N        4.83236266       0.01755946       0.40231508
C        2.04225362      -1.13933755       0.02303276
C        3.11164357      -1.49593067       1.06843958
C        1.71660722      -2.43851162      -0.70497412
C        4.51651245      -1.29016094       0.51022087
H        2.45050481      -0.41747255      -0.67568609
H        3.00713808      -0.85737497       1.92854452
H        3.00071757      -2.52694647       1.41142993
H        0.47121829      -1.29926365       1.32198708
H        1.63653062       0.79434899       1.65148184
H        4.19273698       0.74635784       0.69457137
H        5.73461721       0.26521927       0.03836297
H        2.28938572      -3.49126006      -2.18554002
O        2.24352171       1.51201872       1.65132770
H        1.89290734       2.29454982       2.11142572
H        0.45499225      -0.30166801      -2.21108328
44
Properties=species:S:1:pos:R:3 charge=0 multiplicity=1 source=products.log spin=1 pbc="F F F"
O       -2.69745307      -0.17129659      -1.68365940
O       -2.88968839       1.76309114       1.31163468
O       -1.74120207      -1.95263059       0.49326944
O       -5.05761766       2.96937222       0.03959708
O       -0.03981234      -0.83807226      -1.59818604
O        1.19972737       1.73218848      -0.98866443
C       -2.82126214      -0.03849931      -0.30433014
C       -3.20348591       1.41276814      -0.00839941
C       -1.56780367      -0.54570177       0.40157944
C       -4.70407620       1.63852079      -0.26091436
C       -0.21461110      -0.14468603      -0.23441640
C       -0.07508847       1.34276182      -0.54501993
H       -3.64537730      -0.68992591       0.05840687
H       -2.65407730       2.05502059      -0.70529178
H       -1.65165300      -0.14284467       1.40577298
H       -4.94206077       1.37138970      -1.29590950
H       -5.29126352       1.01877718       0.42142049
H       -2.33916643      -1.06092948      -1.84305567
H       -3.55546630       2.41058063       1.59588598
H       -0.72255872       1.55507492      -1.37728690
H       -0.40444627       1.94331639       0.28861615
H       -0.93024677      -2.40648157       0.23587225
H        1.74722068       1.87518866      -0.21152856
H       -4.65407085       3.55297548      -0.61324995
O        2.44653690      -2.61225183      -1.81768464
O        0.92591361      -3.23479909      -0.28012991
O        5.29739897      -2.12895744       0.00505416
N        0.84097106      -0.61496412       0.60009881
N        4.82394151       0.07032268       0.28596286
C        2.04663966      -1.13743118       0.00165561
C        3.17761185      -1.50508081       0.97043763
C        1.71904891      -2.43705911      -0.72352782
C        4.55242313      -1.25089904       0.36076116
H        2.41957733      -0.39841682      -0.68693215
H        3.11982492      -0.89773782       1.84332945
H        3.10776305      -2.54376747       1.30708171
H        0.49834880      -1.38643844       1.36685082
H        1.54057655       0.59077868       1.94931635
H        4.17408626       0.77044269       0.63604565
H        5.70751046       0.34988838      -0.09601853
H        2.26148871      -3.48134661      -2.22281112
O        2.09262644       1.30697420       1.95096103
H        1.68366763       2.21230377       2.21760872
H        0.41958444      -0.32151855      -2.25020266
44
Properties=species:S:1:pos:R:3 charge=0 multiplicity=1 source=products.log spin=1 pbc="F F F"
O       -2.67510442      -0.26392214      -1.59800055
O       -2.90987144       1.84780812       1.26602938
O       -1.75464991      -1.91422767       0.65137407
O       -5.01791686       3.00884674      -0.13905324
O       -0.05319276      -0.82147531      -1.60395310
O        1.23751689       1.75934696      -0.88440078
C       -2.81335425      -0.03780134      -0.23884038
C       -3.18597521       1.42850467      -0.03947306
C       -1.56804751      -0.50984472       0.48573900
C       -4.67492146       1.65892003      -0.35439590
C       -0.21471868      -0.12510457      -0.16390638
C       -0.04509868       1.35086624      -0.48271251
H       -3.65135478      -0.65999737       0.15362573
H       -2.60803205       2.02027833      -0.75354679
H       -1.68858408      -0.06968403       1.46365982
H       -4.88022030       1.33780903      -1.38142609
H       -5.29359452       1.08624802       0.34118195
H       -2.33234810      -1.17310834      -1.68987098
H       -3.57713714       2.51858001       1.49383988
H       -0.64433400       1.55521546      -1.34157127
H       -0.41593153       1.96909531       0.31409952
H       -0.96279225      -2.38121249       0.36594966
H        1.74499643       1.91018016      -0.08730824
H       -4.58306048       3.54962008      -0.80852635
O        2.42717386      -2.59997931      -1.84931127
O        0.94695135      -3.23616088      -0.26874508
O        5.32687731      -2.05220038      -0.18152890
N        0.84203702      -0.64440758       0.59389874
N        4.80657746       0.13043088       0.17151919
C        2.04770912      -1.13176337      -0.01897278
C        3.23349301      -1.49878142       0.87776837
C        1.72102308      -2.43362777      -0.73860878
C        4.57599797      -1.20084266       0.21923937
H        2.38600339      -0.37899833      -0.70068631
H        3.21610378      -0.90826034       1.75346353
H        3.20581576      -2.54362834       1.20789013
H        0.52295109      -1.47812654       1.40658190
H        1.45183145       0.35049913       2.22034717
H        4.15039528       0.80164432       0.57516950
H        5.67061571       0.43817746      -0.23037085
H        2.23750031      -3.47117435      -2.25259315
O        1.93557933       1.07775880       2.21587562
H        1.48625213       2.07787548       2.32167421
H        0.37683869      -0.34337596      -2.29112404
44
Properties=species:S:1:pos:R:3 charge=0 multiplicity=1 source=products.log spin=1 pbc="F F F"
O       -2.65326593      -0.34864677      -1.50690298
O       -2.92121953       1.92851756       1.21993980
O       -1.76717586      -1.87171974       0.80299813
O       -4.96935375       3.03738449      -0.30875512
O       -0.06927196      -0.80344643      -1.61392129
O        1.27468180       1.78682317      -0.78542504
C       -2.80398564      -0.03333416      -0.17346124
C       -3.16390483       1.44266401      -0.06705229
C       -1.56770676      -0.47308999       0.56752700
C       -4.63908324       1.67381962      -0.44248328
C       -0.21417749      -0.10429106      -0.09606512
C       -0.01413103       1.36115106      -0.42167800
H       -3.65599126      -0.62469161       0.24526258
H       -2.55777549       1.98464488      -0.79345867
H       -1.72293971       0.00303062       1.51842158
H       -4.81294576       1.30115387      -1.45828741
H       -5.28812855       1.14719031       0.26180965
H       -2.32252923      -1.27104281      -1.53332776
H       -3.58988019       2.61731749       1.39240371
H       -0.56406095       1.55739776      -1.30410403
H       -0.42213329       1.99594838       0.33940121
H       -0.99516590      -2.35357830       0.49186068
H        1.74423271       1.94576186       0.02852228
H       -4.50396471       3.53621873      -0.99021417
O        2.41104543      -2.58590495      -1.87457325
O        0.96862371      -3.23569776      -0.25802448
O        5.34295309      -1.97545898      -0.34068098
N        0.83964924      -0.66883602       0.58747621
N        4.78263128       0.19202393       0.05949098
C        2.04537399      -1.12186830      -0.03940634
C        3.27660699      -1.47739279       0.79517210
C        1.72323607      -2.42775847      -0.75087650
C        4.58773973      -1.14573126       0.09262042
H        2.35092736      -0.35893552      -0.71743814
H        3.29076282      -0.88965584       1.66646456
H        3.28889266      -2.52563956       1.12151910
H        0.54300521      -1.57225846       1.43959195
H        1.36907967       0.08310366       2.45806034
H        4.12429584       0.83852880       0.50674064
H        5.62839117       0.52220047      -0.36062250
H        2.22158043      -3.46001956      -2.27471154
O        1.77630868       0.82609431       2.44197763
H        1.30083216       1.91529302       2.40957898
H        0.32794105      -0.36726966      -2.33536943
44
Properties=species:S:1:pos:R:3 charge=0 multiplicity=1 source=products.log spin=1 pbc="F F F"
O       -2.63081644      -0.42584149      -1.41081268
O       -2.93079051       2.00454633       1.17239836
O       -1.78124844      -1.82643304       0.94843312
O       -4.91433892       3.05527900      -0.47563447
O       -0.08684798      -0.78190097      -1.62526480
O        1.31063282       1.81679797      -0.68345513
C       -2.79456485      -0.02611960      -0.10880081
C       -3.13967806       1.45493402      -0.09280457
C       -1.56753950      -0.43502267       0.64930503
C       -4.59862253       1.68264342      -0.52873342
C       -0.21296369      -0.08170533      -0.02663100
C        0.01670521       1.37440786      -0.35713250
H       -3.66044716      -0.58507143       0.33213903
H       -2.50529146       1.94858821      -0.82612157
H       -1.75819371       0.07653076       1.57199565
H       -4.74289033       1.25972876      -1.52956828
H       -5.27755519       1.20156259       0.18008256
H       -2.30790385      -1.35507333      -1.37464884
H       -3.59623582       2.70990636       1.28810787
H       -0.48290671       1.56298702      -1.26199680
H       -0.42672730       2.02453649       0.36896793
H       -1.02875182      -2.32417533       0.61469540
H        1.74423329       1.98278469       0.14494188
H       -4.41878692       3.51198386      -1.16548186
O        2.39681165      -2.56864534      -1.89541294
O        0.99117814      -3.23258743      -0.24806141
O        5.35002355      -1.90415805      -0.47978840
N        0.83416535      -0.68999408       0.58462382
N        4.75614135       0.25126824      -0.05521167
C        2.04055465      -1.10785297      -0.05654789
C        3.31178331      -1.44487009       0.72447912
C        1.72605059      -2.41823626      -0.76017483
C        4.59157112      -1.09052862      -0.02170779
H        2.31454519      -0.33710238      -0.73344115
H        3.34739027      -0.84810326       1.58803025
H        3.36233975      -2.49450277       1.04657476
H        0.55905599      -1.66957277       1.46822648
H        1.29380702      -0.20351573       2.66170364
H        4.10075661       0.87883794       0.42646100
H        5.58172512       0.59661953      -0.50320761
H        2.21068090      -3.44610872      -2.29158421
O        1.62302424       0.55427089       2.62734512
H        1.12522672       1.73952079       2.49314665
H        0.27469838      -0.39061306      -2.37943304
44
Properties=species:S:1:pos:R:3 charge=0 multiplicity=1 source=products.log spin=1 pbc="F F F"
O       -2.60856625      -0.49474320      -1.31204745
O       -2.93212012       2.07504450       1.12636345
O       -1.79526276      -1.78003989       1.08554153
O       -4.85242609       3.06371948      -0.62923709
O       -0.10662884      -0.75939233      -1.64099654
O        1.34655139       1.84618848      -0.58798622
C       -2.78387084      -0.01661570      -0.04515499
C       -3.11150919       1.46516763      -0.11411605
C       -1.56658813      -0.39705186       0.72841122
C       -4.55292565       1.68644268      -0.60680446
C       -0.21098090      -0.05813073       0.03995839
C        0.04813204       1.38934692      -0.29586416
H       -3.66311244      -0.54260366       0.41460668
H       -2.45029383       1.91233951      -0.85071031
H       -1.78862904       0.14843280       1.62278918
H       -4.67007670       1.21652604      -1.59023222
H       -5.25983363       1.24897804       0.10305988
H       -2.28991757      -1.42571607      -1.21758948
H       -3.59285705       2.79281917       1.18785824
H       -0.40103827       1.56866894      -1.22076418
H       -0.42746397       2.05453381       0.39537901
H       -1.06316784      -2.29448900       0.73153296
H        1.74652514       2.02050632       0.25180994
H       -4.32843181       3.48001646      -1.32380181
O        2.38683804      -2.54939165      -1.91088186
O        1.01402456      -3.22821989      -0.24082945
O        5.35010222      -1.83792738      -0.58947560
N        0.82524295      -0.70776935       0.58104764
N        4.72501548       0.30890401      -0.16730549
C        2.03264882      -1.09047851      -0.07259103
C        3.33581463      -1.40179157       0.66606405
C        1.72958679      -2.40632900      -0.76762010
C        4.58729600      -1.03456410      -0.11886106
H        2.27719553      -0.31459380      -0.75080098
H        3.38213492      -0.78722719       1.51879056
H        3.42143832      -2.45081888       0.98672763
H        0.56894613      -1.76866470       1.49007752
H        1.21804030      -0.50312467       2.83116452
H        4.07461987       0.92410903       0.33747076
H        5.53137794       0.66366347      -0.64243674
H        2.20826040      -3.43019690      -2.30342512
O        1.46608658       0.26773775       2.77542890
H        0.96329094       1.56333968       2.55094177
H        0.21653196      -0.41660467      -2.42549143
44
Properties=species:S:1:pos:R:3 charge=0 multiplicity=1 source=products.log spin=1 pbc="F F F"
O       -2.56194178      -0.61103450      -1.10589945
O       -2.91542846       2.20266439       1.03857865
O       -1.82332967      -1.68555891       1.34190258
O       -4.70878243       3.05593724      -0.91028660
O       -0.15271951      -0.71001917      -1.68074225
O        1.41865304       1.90459303      -0.40968326
C       -2.75872208       0.00787596       0.08229937
C       -3.04531052       1.48009747      -0.14426305
C       -1.56179689      -0.32105900       0.88439913
C       -4.44741728       1.68028311      -0.74372255
C       -0.20384482      -0.00807746       0.17114729
C        0.11284360       1.42366209      -0.17801341
H       -3.66262760      -0.45017818       0.57129699
H       -2.33412863       1.83901695      -0.87847607
H       -1.83461668       0.28922864       1.72174229
H       -4.51828851       1.12185409      -1.68440327
H       -5.20588979       1.32710827      -0.04000785
H       -2.24316509      -1.53300254      -0.90737573
H       -3.56205754       2.93678643       0.99383497
H       -0.23609893       1.57936642      -1.13830538
H       -0.41920361       2.11771714       0.44331946
H       -1.13506309      -2.23564353       0.95282060
H        1.75837298       2.09953210       0.44440779
H       -4.13190858       3.39251882      -1.60666019
O        2.37613941      -2.50341339      -1.92951768
O        1.05983067      -3.21628657      -0.23479907
O        5.33755428      -1.71550151      -0.74015938
N        0.79892438      -0.73592808       0.57502111
N        4.64955643       0.41839223      -0.38710598
C        2.00880544      -1.04789575      -0.09882502
C        3.35794843      -1.29205825       0.58161156
C        1.73808965      -2.37555755      -0.77777568
C        4.56139070      -0.92100589      -0.27084017
H        2.19914418      -0.26745039      -0.78569396
H        3.40068415      -0.62812438       1.40702766
H        3.50434337      -2.33481499       0.90675748
H        0.57041934      -1.97421755       1.51495816
H        1.05491644      -1.13165213       3.07367185
H        4.01199220       1.02536941       0.13644671
H        5.41516079       0.77787825      -0.92179690
H        2.22300384      -3.38920973      -2.31769329
O        1.14017615      -0.34385410       2.96489663
H        0.67813298       1.22811524       2.60301963
H        0.08625903      -0.47645371      -2.51711374
44
Properties=species:S:1:pos:R:3 charge=0 multiplicity=1 source=products.log spin=1 pbc="F F F"
O       -2.53535381      -0.67331197      -0.98592249
O       -2.90608269       2.27805001       0.97654413
O       -1.85813853      -1.60101118       1.48783836
O       -4.63594600       3.02893485      -1.06591618
O       -0.18420436      -0.68553274      -1.68992116
O        1.45773682       1.93965727      -0.29760363
C       -2.74450197       0.02736781       0.14900629
C       -3.01057802       1.48731903      -0.16479093
C       -1.56215896      -0.25490629       0.97273544
C       -4.39185549       1.66277310      -0.81713227
C       -0.19543054       0.02888674       0.24339896
C        0.14749554       1.45260800      -0.10875140
H       -3.66328015      -0.39189324       0.64961095
H       -2.27450868       1.79629156      -0.89542755
H       -1.85973715       0.39857425       1.78086588
H       -4.43908601       1.05252721      -1.72670146
H       -5.17385263       1.35510573      -0.11865919
H       -2.21241020      -1.58522140      -0.73328520
H       -3.54431907       3.01142608       0.87298900
H       -0.15123151       1.58664473      -1.08822575
H       -0.41176849       2.15767243       0.47961262
H       -1.19114879      -2.17869329       1.08087351
H        1.76897860       2.14070597       0.56355741
H       -4.03460119       3.32232127      -1.76065054
O        2.37559492      -2.47431537      -1.93891849
O        1.07720272      -3.20442863      -0.24107156
O        5.32820297      -1.64830689      -0.81005799
N        0.78369603      -0.74318215       0.58111750
N        4.60748146       0.47690401      -0.50170170
C        1.99501179      -1.02067465      -0.10535421
C        3.36658837      -1.22904446       0.54409779
C        1.74308132      -2.35260388      -0.78290517
C        4.54519878      -0.85724309      -0.34177323
H        2.15714209      -0.23796869      -0.79710104
H        3.40424981      -0.55390869       1.36175639
H        3.54625178      -2.26486208       0.87182024
H        0.55161180      -2.09877991       1.50438133
H        0.97865515      -1.50139119       3.14045677
H        3.97547918       1.08241493       0.02445777
H        5.35311295       0.83720520      -1.06591002
H        2.23087564      -3.36419676      -2.32285479
O        0.99746312      -0.71388951       3.00483092
H        0.57959385       1.03620686       2.62049819
H        0.00948953      -0.52423096      -2.54981350
44
Properties=species:S:1:pos:R:3 charge=0 multiplicity=1 source=products.log spin=1 pbc="F F F"
O       -2.50795664      -0.72738649      -0.86160593
O       -2.88794154       2.34783866       0.91587565
O       -1.88721566      -1.51306686       1.62916044
O       -4.55882283       2.99132896      -1.20759324
O       -0.21812202      -0.66178109      -1.70313710
O        1.49844035       1.97251411      -0.19650880
C       -2.72730119       0.04849306       0.21783428
C       -2.97207266       1.49187212      -0.17941791
C       -1.55804638      -0.18782806       1.05977011
C       -4.33330643       1.63937770      -0.87830160
C       -0.18434733       0.06701438       0.31353625
C        0.18361278       1.48300607      -0.04605072
H       -3.65894000      -0.33156896       0.72889012
H       -2.21390914       1.75222333      -0.90526857
H       -1.87344242       0.50942028       1.83752133
H       -4.36161291       0.97928376      -1.75321481
H       -5.13569043       1.37617197      -0.18586766
H       -2.18009267      -1.62644539      -0.56149910
H       -3.51676655       3.07718540       0.75568614
H       -0.06729263       1.59161015      -1.04266029
H       -0.40033582       2.20067629       0.50702625
H       -1.24600234      -2.12089242       1.20482146
H        1.78352067       2.18403999       0.66838592
H       -3.93576553       3.24161884      -1.89965729
O        2.37952101      -2.44259568      -1.94519257
O        1.09377533      -3.19258363      -0.25264158
O        5.31765321      -1.58380683      -0.85497717
N        0.76658112      -0.74800792       0.58678063
N        4.56185574       0.53218128      -0.60634211
C        1.97892778      -0.99209491      -0.11045204
C        3.36639723      -1.16214217       0.51750903
C        1.74850565      -2.32804542      -0.78762897
C        4.52544148      -0.79390709      -0.39617050
H        2.11521227      -0.20874106      -0.80897076
H        3.39521751      -0.47419944       1.32585621
H        3.57342710      -2.18876633       0.85335623
H        0.52032939      -2.22509732       1.48115560
H        0.88310723      -1.87204883       3.16289373
H        3.93201552       1.14078983      -0.08909454
H        5.28831052       0.88912244      -1.19923169
H        2.24724123      -3.33567635      -2.32653888
O        0.84779951      -1.08361008       2.99637565
H        0.49132379       0.86501400       2.61614734
H       -0.07323330      -0.58049030      -2.58055857
44
Properties=species:S:1:pos:R:3 charge=0 multiplicity=1 source=products.log spin=1 pbc="F F F"
O       -2.47931771      -0.77325058      -0.73613019
O       -2.86245879       2.41118038       0.85744779
O       -1.90736000      -1.42159592       1.76626808
O       -4.48165960       2.94385978      -1.33235100
O       -0.25358806      -0.63863553      -1.72111250
O        1.54116155       2.00379811      -0.10921050
C       -2.70669922       0.07074204       0.28769964
C       -2.93093455       1.49369294      -0.18828357
C       -1.54845521      -0.12009532       1.14453935
C       -4.27422337       1.61049085      -0.92590470
C       -0.16995043       0.10668717       0.38091796
C        0.22104901       1.51519063       0.00854989
H       -3.64868437      -0.27073719       0.80879344
H       -2.15403465       1.70730135      -0.90901297
H       -1.87530107       0.62083376       1.89086829
H       -4.28799790       0.90350772      -1.76374687
H       -5.09335895       1.38954654      -0.23960826
H       -2.14574738      -1.65765410      -0.39425876
H       -3.48198094       3.13300110       0.64439734
H        0.01482813       1.59420382      -1.00313550
H       -0.38555577       2.24704507       0.52329312
H       -1.29824767      -2.06193540       1.32423007
H        1.80205806       2.23143660       0.75590160
H       -3.84019213       3.15242986      -2.02109817
O        2.38818072      -2.40915082      -1.94773322
O        1.11002614      -3.18034023      -0.26795900
O        5.30733230      -1.52304164      -0.87509755
N        0.74859210      -0.74980283       0.59227612
N        4.51548462       0.58263149      -0.70074668
C        1.96161400      -0.96245620      -0.11390989
C        3.35898886      -1.09293540       0.50136690
C        1.75477442      -2.30221628      -0.79115746
C        4.50404929      -0.73212835      -0.43443336
H        2.07439526      -0.18020585      -0.82138270
H        3.37657533      -0.39010759       1.29789658
H        3.58634312      -2.10812238       0.85232143
H        0.47613171      -2.35124573       1.44441557
H        0.76158927      -2.24033955       3.14138126
H        3.88320670       1.19813932      -0.20468219
H        5.22552693       0.93134494      -1.31955416
H        2.27189326      -3.30438455      -2.32790230
O        0.69039921      -1.44676207       2.94111417
H        0.41200760       0.71649734       2.59291979
H       -0.16045982      -0.64641730      -2.60818685
44
Properties=species:S:1:pos:R:3 charge=0 multiplicity=1 source=products.log spin=1 pbc="F F F"
O       -2.44870719      -0.81190446      -0.60903243
O       -2.83086148       2.46815437       0.80113640
O       -1.91350584      -1.32710453       1.90137589
O       -4.40581980       2.88556940      -1.44197284
O       -0.29057190      -0.61599885      -1.74359366
O        1.58642768       2.03423632      -0.03507861
C       -2.68203217       0.09349470       0.36000177
C       -2.88761001       1.49232014      -0.19132894
C       -1.53240412      -0.05217939       1.22756321
C       -4.21546897       1.57539909      -0.96015811
C       -0.15180383       0.14815574       0.44536125
C        0.26015447       1.54955969       0.05494531
H       -3.63159268      -0.20990544       0.89152806
H       -2.09518151       1.66078596      -0.90715680
H       -1.86514483       0.73256468       1.94100529
H       -4.21891980       0.82387370      -1.75835880
H       -5.04780441       1.39504198      -0.27939138
H       -2.10981397      -1.68048009      -0.23128123
H       -3.44147446       3.17918654       0.53808952
H        0.09536179       1.59492216      -0.96958944
H       -0.36735468       2.29572871       0.52936909
H       -1.34554194      -2.00200001       1.43995289
H        1.82462254       2.28509682       0.82622995
H       -3.74909134       3.05306767      -2.12729738
O        2.40055825      -2.37397249      -1.94732027
O        1.12543312      -3.16728973      -0.28649868
O        5.29736485      -1.46581032      -0.87342322
N        0.73050190      -0.74833230       0.59745463
N        4.46993572       0.62777064      -0.78296163
C        1.94347971      -0.93174384      -0.11655394
C        3.34537837      -1.02302130       0.49438649
C        1.76147612      -2.27519192      -0.79372138
C        4.48175441      -0.67265787      -0.45784411
H        2.03510742      -0.15203004      -0.83482260
H        3.35091122      -0.30319302       1.27670589
H        3.58502144      -2.02506715       0.86733020
H        0.41939068      -2.47607076       1.39261227
H        0.60847657      -2.60090081       3.07073973
H        3.83049564       1.25204909      -0.31797040
H        5.16641470       0.96401801      -1.42552379
H        2.30203543      -3.27022489      -2.32735240
O        0.52247074      -1.79615056       2.83831102
H        0.34076666       0.59222473       2.55493605
H       -0.25283449      -0.72199039      -2.63080285
44
Properties=species:S:1:pos:R:3 charge=0 multiplicity=1 source=products.log spin=1 pbc="F F F"
O       -2.41064953      -0.85853726      -0.43327444
O       -2.79042035       2.54160984       0.71108894
O       -1.90476161      -1.13941791       2.11989799
O       -4.34004344       2.77640063      -1.57345345
O       -0.34193721      -0.60831605      -1.75183021
O        1.64002692       2.07483383       0.04222970
C       -2.64758837       0.12918383       0.45544634
C       -2.84009535       1.48533124      -0.19897107
C       -1.50793378       0.06927064       1.33224219
C       -4.15830854       1.50900649      -0.98723676
C       -0.12469547       0.20993725       0.50622110
C        0.30699674       1.60005511       0.09338031
H       -3.60209505      -0.12100882       1.00647174
H       -2.03625640       1.59583048      -0.91325725
H       -1.81902983       0.92335266       1.99850101
H       -4.15687305       0.69616006      -1.72226754
H       -4.99824948       1.38266346      -0.30550979
H       -2.06465012      -1.70232261      -0.00859110
H       -3.39601644       3.22824095       0.38494335
H        0.17948567       1.59627328      -0.94418474
H       -0.34000780       2.36288130       0.52052019
H       -1.40622296      -1.85506858       1.64776704
H        1.85057926       2.34991718       0.90350330
H       -3.67370976       2.89067375      -2.25930028
O        2.42488595      -2.31620464      -1.95823941
O        1.13973857      -3.14274566      -0.33863677
O        5.29298730      -1.40082261      -0.84707544
N        0.71507952      -0.73946835       0.60359730
N        4.43246748       0.67842802      -0.83948974
C        1.92702526      -0.89414567      -0.11795502
C        3.32872740      -0.95178962       0.49699395
C        1.77352896      -2.23363582      -0.80722747
C        4.46121773      -0.60713019      -0.46108978
H        1.99852260      -0.11567914      -0.84736983
H        3.32468029      -0.21481163       1.26527638
H        3.57045781      -1.94146760       0.89530195
H        0.30529451      -2.61288555       1.26563841
H        0.36364376      -3.08296531       2.84790417
H        3.77463481       1.31137713      -0.42530630
H        5.12228376       1.00250414      -1.49731811
H        2.35016144      -3.21198419      -2.34322104
O        0.32339911      -2.23718983       2.62824744
H        0.32492624       0.40198307       2.48294347
H       -0.37120653      -0.82831730      -2.62731073
44
Properties=species:S:1:pos:R:3 charge=0 multiplicity=1 source=products.log spin=1 pbc="F F F"
O       -2.36574351      -0.89442900      -0.26089331
O       -2.74539565       2.59539220       0.63039547
O       -1.83971851      -0.95961373       2.32014503
O       -4.28970858       2.64812798      -1.66495672
O       -0.39152911      -0.60292647      -1.77061783
O        1.69851608       2.11678140       0.09448945
C       -2.60331971       0.16030398       0.55497537
C       -2.79120925       1.46801251      -0.19391904
C       -1.46859008       0.18754856       1.42744887
C       -4.10702711       1.42989583      -0.98408923
C       -0.09004148       0.27662888       0.55401260
C        0.35708918       1.65529607       0.11243279
H       -3.55388401      -0.04247666       1.12963082
H       -1.98214974       1.52583218      -0.91008165
H       -1.75192389       1.10720730       2.04278049
H       -4.10397778       0.56386136      -1.65493744
H       -4.94780936       1.35119868      -0.29779755
H       -2.01455793      -1.71248351       0.20129581
H       -3.35042077       3.25157051       0.25244670
H        0.26209818       1.59552551      -0.93397393
H       -0.30963553       2.43361508       0.48860345
H       -1.41523481      -1.71175875       1.84572402
H        1.88062086       2.42653336       0.95060040
H       -3.62006118       2.71494568      -2.35286585
O        2.45461464      -2.26285722      -1.95872163
O        1.15616252      -3.11854346      -0.38320159
O        5.28992085      -1.34934879      -0.78459749
N        0.70311057      -0.72476764       0.60487179
N        4.40539680       0.71720388      -0.87630603
C        1.91336899      -0.85584583      -0.11946124
C        3.30629700      -0.88228021       0.51613574
C        1.78792454      -2.19461678      -0.81345413
C        4.44327853      -0.55089165      -0.44024775
H        1.96934817      -0.08139965      -0.86375313
H        3.29191459      -0.12083621       1.26385177
H        3.53229961      -1.85806945       0.95262563
H        0.17512890      -2.73159385       1.11572182
H        0.02104758      -3.49803788       2.51944787
H        3.72341720       1.35923104      -0.52742729
H        5.09592701       1.02198914      -1.54438414
H        2.40236681      -3.15657582      -2.34813208
O        0.05381225      -2.60952401       2.33281563
H        0.30613713       0.25664788       2.38872791
H       -0.48785998      -0.94447244      -2.61536037
44
Properties=species:S:1:pos:R:3 charge=0 multiplicity=1 source=products.log spin=1 pbc="F F F"
O       -2.30262119      -0.92219353      -0.06157356
O       -2.69640510       2.63432355       0.54277238
O       -1.73314840      -0.75564988       2.53915440
O       -4.25230413       2.46865286      -1.73699245
O       -0.43951528      -0.61633377      -1.78131623
O        1.76685472       2.17262934       0.15092246
C       -2.53955881       0.19438815       0.67823916
C       -2.73678234       1.43399383      -0.17782534
C       -1.41320695       0.34714457       1.54209415
C       -4.05608219       1.31767486      -0.95234026
C       -0.04430917       0.37341251       0.58360564
C        0.41709808       1.72731955       0.11961067
H       -3.47906129       0.04555165       1.28067966
H       -1.92791184       1.43561180      -0.90017856
H       -1.62973532       1.32979287       2.08974322
H       -4.05311793       0.39852622      -1.54728662
H       -4.89148286       1.28999615      -0.25747114
H       -1.95882357      -1.70609031       0.43061823
H       -3.30767401       3.24782780       0.11072695
H        0.35065337       1.59658383      -0.93438095
H       -0.27236630       2.51621787       0.44130158
H       -1.34318181      -1.55085531       2.11293128
H        1.91086162       2.51459309       1.00823341
H       -3.58542443       2.48463497      -2.42947390
O        2.49282903      -2.21650487      -1.94310196
O        1.19384984      -3.09507729      -0.38912757
O        5.29306131      -1.28921434      -0.70651948
N        0.69698511      -0.70439676       0.57539446
N        4.38621229       0.76259027      -0.90211447
C        1.91260217      -0.81267045      -0.12536317
C        3.29156790      -0.80520938       0.54490700
C        1.81283060      -2.16003260      -0.80082763
C        4.42987854      -0.48750624      -0.41194828
H        1.95111875      -0.04299513      -0.88744423
H        3.26919314      -0.00910988       1.26615533
H        3.48809758      -1.76785901       1.02786531
H        0.03900432      -2.82677018       0.95162604
H       -0.53268541      -3.84961111       1.99502596
H        3.67795230       1.41103223      -0.62345480
H        5.07839795       1.04503627      -1.57980804
H        2.46368284      -3.10990782      -2.33114233
O       -0.42399589      -2.93701828       1.87382213
H        0.30336099       0.00291269       2.18980435
H       -0.60669822      -1.08544076      -2.57554279
44
Properties=species:S:1:pos:R:3 charge=0 multiplicity=1 source=products.log spin=1 pbc="F F F"
O       -2.26325437      -0.92559535       0.04036851
O       -2.67064702       2.64525138       0.50180603
O       -1.66370590      -0.64824409       2.65768039
O       -4.23114265       2.36160349      -1.76465645
O       -0.46069024      -0.63847288      -1.77756342
O        1.80470804       2.20280816       0.20577737
C       -2.49953961       0.21518851       0.75023448
C       -2.70543018       1.41128894      -0.16358535
C       -1.37809250       0.44936386       1.61999191
C       -4.02697994       1.25204967      -0.92735471
C       -0.01476286       0.44920343       0.59556433
C        0.45276866       1.77321263       0.12463434
H       -3.43178593       0.09668434       1.36519354
H       -1.89759079       1.38189512      -0.89009105
H       -1.53781448       1.45041130       2.12192140
H       -4.02161788       0.30564346      -1.47821406
H       -4.85832594       1.25026441      -0.22788578
H       -1.93599616      -1.69453876       0.53468014
H       -3.28562740       3.23350862       0.04031913
H        0.39950709       1.60154534      -0.93454175
H       -0.25077932       2.55993591       0.42351862
H       -1.31052646      -1.50806003       2.25406954
H        1.92025310       2.54251663       1.07644593
H       -3.56693993       2.34966157      -2.45925299
O        2.51520154      -2.21179595      -1.91739617
O        1.21794384      -3.09180237      -0.34763275
O        5.30006414      -1.24694009      -0.67913964
N        0.69839108      -0.68741261       0.51533978
N        4.37462753       0.79697288      -0.92288017
C        1.92459062      -0.78943918      -0.13809523
C        3.29489197      -0.75130915       0.55460565
C        1.83106124      -2.15627074      -0.77491009
C        4.43442683      -0.44604464      -0.41391244
H        1.94816997      -0.02273804      -0.90892367
H        3.26292663       0.06289185       1.26692331
H        3.47823211      -1.70480872       1.06737176
H       -0.03473882      -2.88090809       0.90439526
H       -0.88177835      -3.94745652       1.67747140
H        3.65459109       1.44642766      -0.66855105
H        5.06043180       1.06924461      -1.61134176
H        2.49775342      -3.10996682      -2.29380025
O       -0.72926650      -3.02301511       1.58760473
H        0.24079068      -0.25391592       1.95430099
H       -0.65429814      -1.16883873      -2.54048978
44
Properties=species:S:1:pos:R:3 charge=0 multiplicity=1 source=products.log spin=1 pbc="F F F"
O       -2.32671819      -0.93239223       0.08805111
O       -2.66321312       2.66251570       0.50231121
O       -1.61833348      -0.61283935       2.68813788
O       -4.25073555       2.37296017      -1.74717604
O       -0.46490110      -0.64914108      -1.78874523
O        1.81396670       2.21016647       0.20200993
C       -2.51885512       0.23861970       0.78413700
C       -2.71573551       1.42344438      -0.15198157
C       -1.37060928       0.47490266       1.63977446
C       -4.04791863       1.27011455      -0.89940648
C        0.01899036       0.51293867       0.62624180
C        0.46071933       1.78514691       0.10335559
H       -3.43557756       0.13930148       1.41472270
H       -1.91375784       1.37990433      -0.88766793
H       -1.49810567       1.46798037       2.12260888
H       -4.05601970       0.31879053      -1.44189280
H       -4.87414928       1.28694452      -0.19090579
H       -2.00735576      -1.71747569       0.59674836
H       -3.27806902       3.25356853       0.04043227
H        0.40786320       1.60221254      -0.95325935
H       -0.24768039       2.56841944       0.40088150
H       -1.30243274      -1.50263189       2.30802558
H        1.91647497       2.54030861       1.08241003
H       -3.59630101       2.34563444      -2.45102688
O        2.56624915      -2.22161561      -1.90354559
O        1.26117738      -3.11272212      -0.32061476
O        5.33460071      -1.22339902      -0.64330013
N        0.79594335      -0.66664067       0.54453795
N        4.39693290       0.81380619      -0.90672599
C        1.96111904      -0.78892611      -0.15078209
C        3.31550266      -0.73395856       0.56960338
C        1.87519421      -2.17429246      -0.76152132
C        4.46242205      -0.42617234      -0.38970477
H        1.97449004      -0.02043380      -0.92325435
H        3.25759627       0.08258597       1.27972727
H        3.49671138      -1.68334030       1.09282098
H       -0.02930359      -2.92728812       0.92499441
H       -0.92609670      -3.97134170       1.66612913
H        3.66786878       1.45964993      -0.66493092
H        5.08267686       1.08485344      -1.59456683
H        2.56042823      -3.12169755      -2.27624729
O       -0.76614629      -3.04912041       1.57663595
H       -0.04996212      -0.54841061       1.31910337
H       -0.66894996      -1.21092990      -2.52614464
44
Properties=species:S:1:pos:R:3 charge=0 multiplicity=1 source=products.log spin=1 pbc="F F F"
O       -2.40415908      -0.94971713       0.11977009
O       -2.64996755       2.66823508       0.50956935
O       -1.47742887      -0.57267143       2.68100100
O       -4.28753140       2.38557827      -1.70625903
O       -0.47059749      -0.64704288      -1.85290905
O        1.81477279       2.20910583       0.19612184
C       -2.52392910       0.25233678       0.81120214
C       -2.72581073       1.42864969      -0.14271620
C       -1.31853143       0.47058879       1.62851932
C       -4.07710507       1.28501579      -0.85659039
C        0.05503018       0.52227510       0.68876070
C        0.46393519       1.77946093       0.07539042
H       -3.40823444       0.17060961       1.47421261
H       -1.93746146       1.37935205      -0.89898671
H       -1.43885941       1.46373773       2.11110320
H       -4.10534120       0.33287933      -1.39717648
H       -4.88707427       1.31521719      -0.12671697
H       -2.07346550      -1.74122296       0.65610740
H       -3.26804960       3.26476302       0.05714696
H        0.41426996       1.59553763      -0.98062111
H       -0.24456559       2.56524821       0.36424521
H       -1.17680357      -1.44853040       2.31475685
H        1.90436451       2.54011335       1.08111671
H       -3.65028616       2.34674971      -2.42664648
O        2.60997255      -2.22518871      -1.88223368
O        1.28991949      -3.12741723      -0.30805960
O        5.35151943      -1.21553439      -0.56707999
N        0.83934676      -0.64538657       0.67005686
N        4.41139928       0.81543212      -0.86554189
C        1.97031246      -0.78986266      -0.13985222
C        3.30912421      -0.72221700       0.60631345
C        1.90448331      -2.18234792      -0.74877770
C        4.47221806      -0.41946892      -0.33480669
H        1.99017386      -0.02712318      -0.92112130
H        3.23435999       0.09805924       1.31108995
H        3.48288975      -1.66504316       1.14140406
H       -0.02004653      -2.94749078       0.93971918
H       -0.94058535      -3.96159654       1.68498067
H        3.67315870       1.45897208      -0.64494319
H        5.10825180       1.08396396      -1.54273649
H        2.61604174      -3.12466722      -2.25568302
O       -0.77901921      -3.04117338       1.57033814
H       -0.36365467      -0.73347528       0.46251106
H       -0.68703633      -1.24470373      -2.55597898
44
Properties=species:S:1:pos:R:3 charge=0 multiplicity=1 source=products.log spin=1 pbc="F F F"
O       -2.40565720      -0.95761473       0.17200799
O       -2.62936301       2.66089918       0.50795790
O       -1.28008584      -0.49143825       2.69805049
O       -4.34734610       2.34883626      -1.64792425
O       -0.48292122      -0.62654328      -1.98278606
O        1.81545039       2.20066194       0.21375522
C       -2.47272888       0.25848635       0.84396337
C       -2.72044820       1.41380727      -0.13204579
C       -1.22188092       0.48453739       1.62143342
C       -4.09457072       1.25601294      -0.79459628
C        0.06958581       0.48338335       0.69296729
C        0.47187808       1.76968715       0.04680762
H       -3.32492032       0.19136877       1.54447989
H       -1.95640841       1.36836558      -0.91882048
H       -1.34077126       1.48389393       2.10188090
H       -4.13676275       0.29851041      -1.32430049
H       -4.87875826       1.29147121      -0.03411973
H       -2.02748574      -1.71419805       0.72805024
H       -3.26134037       3.25010680       0.06669279
H        0.42909088       1.59567355      -1.01586695
H       -0.23418484       2.56319005       0.31608332
H       -0.99610182      -1.35744585       2.32882202
H        1.88663110       2.53021802       1.10506758
H       -3.73417323       2.30436009      -2.39143100
O        2.63859508      -2.22133462      -1.86247104
O        1.27695314      -3.11986543      -0.31847234
O        5.33842998      -1.23015628      -0.44328201
N        0.76784958      -0.64177289       0.65639784
N        4.41973106       0.80247619      -0.78550436
C        1.94796885      -0.78517203      -0.13084769
C        3.26033879      -0.71589388       0.66047383
C        1.90462968      -2.17690827      -0.75028330
C        4.45532192      -0.42932221      -0.24340783
H        1.99645087      -0.03024475      -0.92510463
H        3.16758520       0.10277591       1.36449568
H        3.41646117      -1.65053836       1.20820871
H       -0.03672896      -2.91570299       0.92423108
H       -0.97585445      -3.91039137       1.66939340
H        3.67193626       1.44668570      -0.59622058
H        5.14016830       1.06570782      -1.43906867
H        2.65212424      -3.11993074      -2.23599445
O       -0.80765244      -2.98782519       1.52713226
H       -0.63967661      -0.81208252      -0.38780575
H       -0.72135882      -1.27673418      -2.63799916
44
Properties=species:S:1:pos:R:3 charge=0 multiplicity=1 source=Step1_IM2alluasp-rep.log spin=1 pbc="F F F"
O       -2.25829890      -0.95373662       0.12799391
O       -2.60164223       2.61731016       0.47984739
O       -0.97166623      -0.34975498       2.76470081
O       -4.37630286       2.22692214      -1.62317522
O       -0.53719334      -0.65613903      -2.03314519
O        1.83045762       2.20438121       0.29357632
C       -2.35885823       0.24149971       0.86084137
C       -2.67499947       1.35637527      -0.14437109
C       -1.07794267       0.54271026       1.69673214
C       -4.06655997       1.15732258      -0.75918483
C        0.13609932       0.50989610       0.79727266
C        0.49749924       1.77966009       0.04288695
H       -3.18175060       0.16978255       1.58865364
H       -1.93161550       1.30643540      -0.95718883
H       -1.20837714       1.53790436       2.13230741
H       -4.10980920       0.19076723      -1.27073264
H       -4.82413106       1.18231336       0.02729945
H       -1.87772416      -1.65601701       0.70346162
H       -3.25151992       3.18237565       0.03548061
H        0.44962593       1.56984750      -1.03061866
H       -0.21128265       2.57585118       0.28585372
H       -0.72883811      -1.22438358       2.41156128
H        1.88003929       2.51708647       1.20324696
H       -3.79129581       2.18802343      -2.38880263
O        2.57288280      -2.17241577      -1.86390388
O        1.18183264      -3.06442097      -0.37460918
O        5.26959663      -1.27356469      -0.35715534
N        0.75210574      -0.58826879       0.72363729
N        4.40755565       0.78290028      -0.69652565
C        1.89696626      -0.76043142      -0.11861919
C        3.18917480      -0.70927729       0.72696135
C        1.82169569      -2.12269914      -0.77651554
C        4.40068470      -0.45506958      -0.16227622
H        1.95883549      -0.01853921      -0.92385220
H        3.09709378       0.10464348       1.44679903
H        3.31991839      -1.64503808       1.27044665
H       -0.09850080      -2.87179594       0.88405368
H       -1.09836473      -3.81872210       1.60509998
H        3.65345564       1.43169425      -0.52996507
H        5.14262717       1.03584346      -1.33497464
H        2.57902756      -3.06224692      -2.25209853
O       -0.88737035      -2.89450886       1.46132114
H       -1.12882322      -0.81398246      -1.27414003
H       -0.78430716      -1.30053368      -2.69818079
