44
Properties=species:S:1:pos:R:3:energies:R:1:forces:R:3:charge:R:1 charge=0 multiplicity=1 source=products.log spin=1 energy=-2153.6639114140617 free_energy=-2153.6639114140617 dipole="0.0008086186001026294 1.0063587237622853 0.12406404618476992" pbc="F F F"
O       -3.05072248       0.07801909      -1.34728066    -113.17419907       0.01065714       0.00511885      -0.00222348      -0.45433343
O       -3.13693572       1.64096317       1.87594839    -113.29718059       0.00271143       0.00431534      -0.00407241      -0.46161837
O       -2.01982524      -1.96445360       0.65514260    -113.00223840       0.00243675       0.00380587       0.01940497      -0.45681715
O       -5.41319041       2.91409017       0.87254792    -113.05353802      -0.00362378      -0.00436704       0.00240028      -0.43860350
O       -0.33232991      -0.81884814      -1.10959074    -113.16739658      -0.00102939      -0.00420518       0.00329267      -0.45589941
O        0.81071036       1.72686950      -0.71907283    -113.29562122       0.00454674      -0.00335989       0.00011626      -0.46142570
C       -3.14230545       0.02101116       0.05351916     -59.12700709       0.00347253       0.00119970      -0.00275226       0.09398430
C       -3.53315566       1.42732096       0.54111847     -59.13802779      -0.00029618       0.00052448      -0.00249487       0.09009822
C       -1.87643042      -0.56460860       0.71715399     -59.08099523       0.00129491       0.00406022       0.00412003       0.08893081
C       -5.04821782       1.63465832       0.40671832     -59.24928655      -0.00103497      -0.00317799       0.00086906       0.05942318
C       -0.52246919      -0.13331642       0.10815920     -58.89014645       0.00142618      -0.00068507       0.00226723       0.18289878
C       -0.43958658       1.38011340      -0.17734539     -59.30324312       0.00341739      -0.00153802      -0.00125216       0.05023847
H       -3.94114187      -0.67909932       0.34965043     -12.95551161       0.00318491      -0.00107784      -0.00942841       0.04836237
H       -3.03591364       2.16713039      -0.10647835     -13.10978411      -0.00328846       0.00058552      -0.00490097       0.03326106
H       -1.88897160      -0.23680601       1.76837229     -13.02281014       0.00036483       0.01313917       0.00110300       0.04704298
H       -5.35029621       1.47477027      -0.63312405     -13.19319909      -0.00266216      -0.00341753       0.00135363       0.04202832
H       -5.57471932       0.92548240       1.04971253     -12.99846637       0.00146289      -0.00441194       0.00150339       0.06222067
H       -2.65510674      -0.75465175      -1.63865897     -11.31864252       0.01616192       0.00805794      -0.00256712       0.32281699
H       -3.80007406       2.23070229       2.26571385     -11.27679370      -0.00032125      -0.00076285      -0.00173874       0.31928623
H       -1.17662807       1.61048646      -0.94938269     -12.92427873       0.00472670      -0.00228087      -0.00267087       0.06969893
H       -0.67117908       1.94039539       0.73256652     -13.24965714       0.00214189       0.00039579      -0.00278936       0.03659001
H       -1.17231276      -2.39998828       0.46036714     -11.42240620      -0.00099511       0.00293876       0.00536331       0.32748424
H        1.44321347       1.85093508       0.00843219     -11.31721881       0.00408531      -0.00466472       0.00065808       0.32194650
H       -5.06915351       3.57795736       0.26386297     -11.56265326      -0.00397086      -0.00247341       0.00441203       0.29375642
O        2.17591316      -2.58450195      -1.25845386    -112.46924546      -0.00914047       0.00402559      -0.00592085      -0.36004511
O        0.57578376      -3.17860497       0.18498671    -112.47155483       0.00447341       0.00461413      -0.00245010      -0.42820520
O        4.88473465      -2.19865588       0.89541578    -112.29470763       0.00334674       0.00343312       0.00015047      -0.42183349
N        0.52094929      -0.49218252       1.09932498     -81.22863422       0.00088895      -0.00110307       0.00188722      -0.30898394
N        4.51928499       0.02490882       1.00157836     -80.92978338      -0.00465431       0.00196004      -0.00055625      -0.27554509
C        1.72466217      -1.08907208       0.52625600     -58.83580144      -0.00018155      -0.00162637       0.00102634       0.03240013
C        2.72627073      -1.42232885       1.64984735     -59.31056667       0.00044475      -0.00401563      -0.00035589      -0.10497643
C        1.40328886      -2.38955780      -0.20177645     -58.85217315      -0.01029472      -0.00666303       0.00171599       0.36519860
C        4.15804306      -1.26625227       1.14552271     -59.18060367      -0.00005846       0.00128144      -0.00002457       0.28594159
H        2.16895664      -0.38797706      -0.18572990     -12.89124015       0.00009970      -0.00209227       0.00088169       0.07475951
H        2.57166905      -0.74127801       2.48644764     -12.93665760      -0.00102514      -0.00716188       0.00196006       0.07398513
H        2.57628687      -2.44483091       1.99859780     -13.06557012       0.00244525      -0.00544064      -0.00402830       0.07070579
H        0.13254647      -1.16781870       1.75473136     -12.36634314       0.00018183      -0.00183931       0.00111625       0.17116742
H        1.42927758       1.00473819       1.81456993     -11.47843711      -0.00072766      -0.00002418       0.00198809       0.31422794
H        3.89272157       0.77946921       1.23562029     -12.04011492      -0.00672298       0.00017356       0.00012641       0.21145321
H        5.43974725       0.23862780       0.65654600     -12.21217336      -0.00504567       0.00502012       0.00005009       0.19316939
H        2.00922898      -3.45265970      -1.65955257     -10.89887208      -0.01266021       0.00570006      -0.00890825       0.34033221
O        2.07818163       1.73605336       1.80919506    -114.97041267      -0.00144544       0.00048370       0.00207430      -0.60342197
H        1.80413813       2.36837789       2.47563460     -11.81282950      -0.00595432       0.00348778      -0.00264682       0.28567839
H        0.17379940      -0.23442111      -1.69241209     -11.28788851       0.00116095      -0.00793246       0.00194081       0.32262101
44
Properties=species:S:1:pos:R:3:energies:R:1:forces:R:3:charge:R:1 charge=0 multiplicity=1 source=products.log spin=1 energy=-2153.7241241672277 free_energy=-2153.7241241672277 dipole="-0.23464531252253984 0.9476509032794146 -0.050909875874449034" pbc="F F F"
O       -2.98863296       0.03404262      -1.27987849    -113.24651683       0.00042576       0.00011815       0.00081414      -0.46434969
O       -3.24568822       1.76040075       1.85096666    -113.29757327      -0.00247563      -0.00019647       0.00093284      -0.46116894
O       -1.88432010      -1.77227732       1.22193354    -112.96887473       0.00136126       0.00204122       0.00377473      -0.44090794
O       -5.53462327       2.84913187       0.71786476    -113.05615296      -0.00196112      -0.00146601      -0.00139071      -0.43823712
O       -0.44071875      -0.86784799      -1.02501836    -113.36418293      -0.00037717       0.00032668       0.00040181      -0.46865941
O        0.94089969       1.66588514      -0.69236075    -113.28290654       0.00090834      -0.00021872      -0.00093648      -0.45901144
C       -3.09878530       0.03195396       0.12287386     -59.13469738       0.00047026       0.00023618       0.00078885       0.08786384
C       -3.57119338       1.44782975       0.51777433     -59.10074090      -0.00069914      -0.00006591       0.00047305       0.09112148
C       -1.82749873      -0.40827712       0.88792757     -59.17925530       0.00078742       0.00158593       0.00116475       0.07891666
C       -5.08616922       1.57703757       0.30959915     -59.24948899      -0.00054531      -0.00094812      -0.00134405       0.06001455
C       -0.48484994      -0.11614321       0.18075350     -58.81942625       0.00056857       0.00069549       0.00025468       0.18161704
C       -0.32872982       1.37874942      -0.16531188     -59.33114915       0.00103558       0.00054233      -0.00025913       0.05114103
H       -3.87371565      -0.68952754       0.43235026     -12.99744620       0.00101455      -0.00026515       0.00088567       0.04530195
H       -3.06852685       2.16480854      -0.15265278     -13.12963000      -0.00023011       0.00030151       0.00123435       0.03182128
H       -1.83674822       0.12622408       1.84372726     -12.80008193       0.00098999       0.00309033       0.00039479       0.07607404
H       -5.33495039       1.36774796      -0.73541487     -13.19056868       0.00088171      -0.00074779      -0.00172345       0.04253868
H       -5.60357325       0.86263403       0.95460634     -12.99624329      -0.00081682      -0.00157112      -0.00225770       0.06204501
H       -2.35610015      -0.65313021      -1.53599093     -11.35282900       0.00177977       0.00129117       0.00081126       0.32104303
H       -3.96687596       2.31452659       2.18605988     -11.26722282      -0.00337584      -0.00101848       0.00034360       0.32033478
H       -1.05108705       1.61354835      -0.95137272     -12.95960210       0.00071817       0.00066408       0.00005993       0.06559620
H       -0.55528818       1.98113481       0.71910584     -13.23498240       0.00174811       0.00092907      -0.00033860       0.03697419
H       -1.55812935      -2.30589685       0.48242077     -11.40693056      -0.00143413       0.00096669       0.00209354       0.31881006
H        1.55377962       1.80656146       0.04854587     -11.28242875       0.00125079      -0.00010896      -0.00125784       0.32420588
H       -5.19601433       3.51225021       0.10548458     -11.56002849      -0.00175624      -0.00097206      -0.00072092       0.29388497
O        2.02679245      -2.51335086      -1.42747000    -112.56041216      -0.00213142       0.00003908      -0.00128512      -0.37141906
O        0.62454259      -3.26639356       0.14197367    -112.31611854      -0.00078607      -0.00002787      -0.00004171      -0.41615723
O        4.97792782      -2.07884445       0.74353151    -112.30697131       0.00080083       0.00040592      -0.00025782      -0.42435734
N        0.56742828      -0.54211129       1.11767788     -81.22847649       0.00083019       0.00040546      -0.00018335      -0.30463241
N        4.46114571       0.09861396       1.01973352     -80.94623640      -0.00012494       0.00002119       0.00118891      -0.27847242
C        1.74043347      -1.14727393       0.48772720     -58.84569038       0.00024387      -0.00041780      -0.00053105       0.03009575
C        2.77852682      -1.51752327       1.56659102     -59.31501264       0.00022753      -0.00113134      -0.00073768      -0.10512422
C        1.37581687      -2.42227537      -0.26995643     -58.88294482      -0.00091278      -0.00010630      -0.00054869       0.36221848
C        4.19079735      -1.22126663       1.06948885     -59.18903946       0.00031312      -0.00012527       0.00003139       0.28541591
H        2.16937840      -0.43512151      -0.22361592     -12.90704928       0.00054362      -0.00070698      -0.00065073       0.07339279
H        2.58917188      -0.93158632       2.46588534     -12.95152652      -0.00025576      -0.00217145      -0.00012985       0.07296115
H        2.70169111      -2.57552470       1.81916139     -13.04673714       0.00061297      -0.00144798      -0.00184444       0.07295195
H        0.15803980      -1.24691965       1.73408113     -12.22235189       0.00065769       0.00073308       0.00010434       0.18734030
H        1.44545710       0.91138093       1.86995645     -11.48603791       0.00100906      -0.00010585      -0.00078094       0.31399903
H        3.79212341       0.79126790       1.32119014     -12.02755507      -0.00055850      -0.00035428       0.00119711       0.21416101
H        5.36235753       0.39843647       0.68836008     -12.23615488      -0.00005978       0.00055172       0.00181186       0.19157888
H        1.84530952      -3.36157760      -1.86244067     -10.96754074      -0.00298155       0.00030738      -0.00144413       0.33573430
O        2.05864361       1.67465762       1.90542054    -114.97973335       0.00089468       0.00001531      -0.00057527      -0.60513947
H        1.75891464       2.25134001       2.60997228     -11.82287865       0.00146375      -0.00078255       0.00032224       0.28517029
H        0.14178373      -0.39612787      -1.63685942     -11.27669711      -0.00005527      -0.00031151       0.00015585       0.32331217
44
Properties=species:S:1:pos:R:3:energies:R:1:forces:R:3:charge:R:1 charge=0 multiplicity=1 source=products.log spin=1 energy=-2153.7061837001693 free_energy=-2153.7061837001693 dipole="-0.1795891329502314 0.9860078786401095 -0.03811972083559276" pbc="F F F"
O       -3.16558646      -0.33793701      -1.14359584    -113.25364655      -0.00092226      -0.00243950       0.00022393      -0.46912808
O       -3.13029978       1.91101158       1.69159583    -113.35413912       0.00182458       0.00113948      -0.00200065      -0.46453681
O       -1.86967560      -1.80796384       1.31731396    -112.93898167       0.00123835       0.00036064       0.00033746      -0.43539909
O       -5.39297261       2.96711997       0.46194902    -113.05858927      -0.00089628      -0.00118146       0.00162240      -0.43862797
O       -0.50394818      -0.84203380      -0.99440068    -113.41180946       0.00048281       0.00126157      -0.00074611      -0.47069983
O        0.97160967       1.70006759      -0.43123299    -113.30337332      -0.00110928      -0.00018204      -0.00492280      -0.46118433
C       -3.14396325      -0.05046785       0.23325383     -59.18422213      -0.00008576      -0.00078251       0.00009771       0.08696513
C       -3.51696034       1.43763455       0.42255855     -59.07256880      -0.00033915      -0.00052641      -0.00081081       0.08750603
C       -1.84724927      -0.44755352       0.96998515     -59.19681238       0.00037095       0.00019949      -0.00022795       0.08078262
C       -5.02811633       1.62521513       0.23181059     -59.24452214      -0.00079975      -0.00130354       0.00193558       0.06013018
C       -0.51128994      -0.13644317       0.24448499     -58.79850157       0.00011015       0.00076224      -0.00053301       0.17886792
C       -0.33571976       1.37192769      -0.04130823     -59.32809029      -0.00025710       0.00073973      -0.00061480       0.05235388
H       -3.93043831      -0.65253288       0.71579740     -12.92014138       0.00027052      -0.00059641       0.00112870       0.05363932
H       -3.00302864       2.02640119      -0.35527890     -13.19325202      -0.00209652      -0.00109089      -0.00253648       0.02577940
H       -1.84783734       0.09438592       1.92135888     -12.81575642       0.00036031       0.00059159      -0.00043824       0.07466348
H       -5.31738564       1.28259258      -0.76645851     -13.17909451      -0.00258481      -0.00222280       0.00271735       0.04412517
H       -5.56601887       1.04134910       0.98239705     -13.00085526       0.00084965      -0.00094638       0.00348896       0.06170325
H       -2.28920489      -0.66518015      -1.40206652     -11.36774083       0.00059601       0.00068185      -0.00015180       0.32378601
H       -3.80337890       2.55517857       1.95950781     -11.26610765       0.00205389       0.00127550      -0.00152644       0.32027874
H       -0.97755024       1.62894332      -0.88809562     -13.04004210      -0.00273319       0.00115525       0.00129933       0.05525529
H       -0.65880973       1.94393468       0.83331772     -13.18018413       0.00266211       0.00081739       0.00049470       0.04276364
H       -1.72765563      -2.34455130       0.52471705     -11.38601003       0.00110246       0.00000971       0.00036385       0.31803216
H        1.51035478       1.80618055       0.37247956     -11.25753532       0.00161721       0.00015632      -0.00670178       0.32635128
H       -5.04510195       3.51429510      -0.25140178     -11.56741815      -0.00253566      -0.00156969       0.00045632       0.29333916
O        2.00312547      -2.42965249      -1.50945031    -112.58041692      -0.00195676       0.00081402      -0.00156610      -0.37316418
O        0.72106654      -3.30459406       0.09995879    -112.25263100      -0.00210866       0.00146406      -0.00247833      -0.40984308
O        4.96185617      -1.99762316       0.47526381    -112.29398390       0.00167918       0.00265508       0.00333809      -0.42211513
N        0.54979253      -0.61124153       1.14131692     -81.19057124       0.00044739       0.00101251      -0.00059515      -0.30107874
N        4.44841330       0.16362604       0.86368480     -80.91394013      -0.00219588       0.00104756       0.00815165      -0.27423711
C        1.73174887      -1.13830771       0.46099758     -58.84507358      -0.00014759      -0.00056064      -0.00040647       0.02923739
C        2.82902853      -1.48453692       1.48769052     -59.33423498      -0.00138929      -0.00316540       0.00015742      -0.10682924
C        1.40708651      -2.41113208      -0.31817707     -58.88387039      -0.00245342      -0.00045475      -0.00118861       0.36073888
C        4.19711681      -1.16194019       0.89600624     -59.17559295      -0.00040031       0.00051713       0.00388000       0.28588217
H        2.10147395      -0.38378560      -0.23983439     -12.89919157       0.00150209      -0.00089797       0.00009808       0.07456164
H        2.68290868      -0.89326018       2.39062298     -12.91463199      -0.00366653      -0.00670058       0.00228034       0.07707485
H        2.78411168      -2.54194403       1.74922388     -13.04449505      -0.00065637      -0.00425106      -0.00374623       0.07336243
H        0.15586440      -1.36810509       1.70545070     -12.20221223       0.00013670       0.00177218       0.00029195       0.19050055
H        1.34660504       0.78678845       2.08025031     -11.50585525       0.00477570       0.00166561      -0.00493783       0.31255516
H        3.81074876       0.83279473       1.26375922     -12.05921708      -0.00414551      -0.00084100       0.00856503       0.20869514
H        5.31770160       0.48693993       0.47393002     -12.21444492      -0.00165101       0.00327665       0.01095195       0.19308114
H        1.85487369      -3.27693403      -1.95871265     -10.96544313      -0.00328133       0.00145883      -0.00242630       0.33607042
O        1.92432650       1.56866157       2.19964277    -114.97730174       0.00658700       0.00080361      -0.00693229      -0.60647909
H        1.53520875       2.10579919       2.89186215     -11.83191891       0.00959716       0.00187662      -0.00588302       0.28489810
H        0.13591177      -0.41196007      -1.57777258     -11.30176223       0.00014819       0.00219841      -0.00050961       0.32034214
44
Properties=species:S:1:pos:R:3:energies:R:1:forces:R:3:charge:R:1 charge=0 multiplicity=1 source=products.log spin=1 energy=-2153.6900599670894 free_energy=-2153.6900599670894 dipole="-0.18180821735276365 1.026929574352053 -0.18635752666270103" pbc="F F F"
O       -3.26159524      -0.56934668      -0.99870514    -113.21580443      -0.00070094      -0.00235388       0.00131948      -0.46374699
O       -3.07339386       1.99602640       1.56838485    -113.36780637       0.00077222       0.00093170      -0.00208923      -0.46525119
O       -1.85585439      -1.82046952       1.37420080    -112.92805588       0.00075827       0.00025104       0.00050301      -0.43338105
O       -5.31219768       3.00707481       0.28545137    -113.06107370      -0.00098589      -0.00109460      -0.00094885      -0.43832125
O       -0.55574012      -0.79406758      -0.97312721    -113.41354476      -0.00015355       0.00117536      -0.00005666      -0.47266078
O        1.00417201       1.75279782      -0.16776967    -113.31070374      -0.00085906       0.00102560      -0.00093144      -0.46307181
C       -3.16836969      -0.09298058       0.31892589     -59.20794373      -0.00031204      -0.00070740       0.00068765       0.08713158
C       -3.48874652       1.41769358       0.35256321     -59.07392634      -0.00065570      -0.00074117      -0.00081009       0.08584079
C       -1.85162375      -0.45864597       1.03424560     -59.17381706       0.00006785       0.00018492       0.00042431       0.08264349
C       -4.99566042       1.63912406       0.16110346     -59.23828545      -0.00097348      -0.00129068       0.00100767       0.06027931
C       -0.52587313      -0.12925875       0.28857461     -58.81499094      -0.00021197       0.00078475       0.00010522       0.17736084
C       -0.33208633       1.39071906       0.05790529     -59.32766000      -0.00065366       0.00086702       0.00034620       0.05171583
H       -3.95145590      -0.60700011       0.89572264     -12.88808428       0.00003938      -0.00030307       0.00152163       0.05840802
H       -2.96507669       1.91048113      -0.48371239     -13.23318838      -0.00189952      -0.00171742      -0.00219608       0.02233938
H       -1.84068795       0.08199896       1.98571186     -12.85578316       0.00007182       0.00031558       0.00035233       0.07072236
H       -5.31077067       1.22635108      -0.80214750     -13.18604762      -0.00239135      -0.00304284       0.00221945       0.04349672
H       -5.54274967       1.13725831       0.96252553     -12.99574201       0.00033318       0.00007949       0.00276608       0.06219498
H       -2.36210416      -0.68542888      -1.34495872     -11.38102695      -0.00082165      -0.00077077       0.00049037       0.32216313
H       -3.71807015       2.69046429       1.77491292     -11.25840853       0.00140903       0.00172389      -0.00271422       0.32071519
H       -0.87575200       1.66617224      -0.85002347     -13.09370863      -0.00154663       0.00100805       0.00091697       0.04926381
H       -0.75923879       1.93829864       0.90278263     -13.13893705       0.00004841       0.00064595       0.00083436       0.04711345
H       -1.83748651      -2.34532260       0.56172590     -11.36954536       0.00010029       0.00020994       0.00045396       0.31865298
H        1.44581921       1.81656477       0.69898748     -11.26029428      -0.00001169       0.00116525      -0.00135959       0.32754856
H       -4.95694771       3.48386832      -0.47332065     -11.56475248      -0.00236163      -0.00243087      -0.00243622       0.29325084
O        2.03983813      -2.33517474      -1.55316092    -112.60651372       0.00006506       0.00423951      -0.00188129      -0.37546423
O        0.84167234      -3.29977964       0.06996358    -112.19205618       0.00194878       0.00299770      -0.00347176      -0.40425586
O        4.89062950      -2.12325807       0.34642852    -112.28165162      -0.00200537      -0.00382526       0.00058234      -0.42051657
N        0.54089923      -0.64319067       1.15102328     -81.12697405       0.00006644       0.00087694      -0.00010371      -0.29719407
N        4.55731562       0.08899777       0.61398378     -80.86895041       0.00268124      -0.00335542       0.00247486      -0.27040129
C        1.73913624      -1.08895682       0.44503866     -58.85270752       0.00020305       0.00137808       0.00010331       0.02943261
C        2.86901325      -1.38939853       1.44843959     -59.36995440      -0.00074460      -0.00053793       0.00058573      -0.10926704
C        1.47309411      -2.36742226      -0.34685862     -58.88637708      -0.00084090       0.00036492      -0.00095135       0.35945642
C        4.21341597      -1.20994107       0.75471232     -59.16658301      -0.00014375      -0.00277359       0.00117704       0.28661670
H        2.05815612      -0.30124333      -0.24397089     -12.90793348       0.00096866       0.00186609       0.00112500       0.07436554
H        2.80189678      -0.69686143       2.28616553     -12.87046362      -0.00009382      -0.00040988       0.00051931       0.08265086
H        2.77921617      -2.41101536       1.81856996     -13.03161590      -0.00266871      -0.00039272       0.00045874       0.07473837
H        0.16368916      -1.44406177       1.66407595     -12.20300073       0.00019083       0.00077143      -0.00014401       0.19168489
H        1.16995516       0.68984070       2.30167420     -11.55081282       0.00101992       0.00124102      -0.00101686       0.31019497
H        3.99054694       0.82976810       0.98875839     -12.13140050       0.00401472      -0.00245127       0.00272455       0.19868741
H        5.41796070       0.32217988       0.14820358     -12.19206100       0.00333389      -0.00479983       0.00294127       0.19461284
H        1.93412461      -3.18648350      -2.00707004     -10.96525773       0.00014067       0.00469720      -0.00292039       0.33654829
O        1.67658315       1.49808170       2.52062395    -114.90296931       0.00142196       0.00108381      -0.00132192      -0.60508939
H        1.17637265       1.97495068       3.18494555     -11.85449357       0.00174955       0.00146592      -0.00131884       0.28404973
H        0.12671662      -0.40823771      -1.53710365     -11.36915217      -0.00036929       0.00164745       0.00003166       0.31474164
44
Properties=species:S:1:pos:R:3:energies:R:1:forces:R:3:charge:R:1 charge=0 multiplicity=1 source=products.log spin=1 energy=-2153.696451530894 free_energy=-2153.696451530894 dipole="-0.2604034397372404 0.99913162956102 -0.39301570666855645" pbc="F F F"
O       -3.32998679      -0.73146451      -0.81617248    -113.20286393      -0.00068872      -0.00178680       0.00203040      -0.45996100
O       -3.06205986       2.07944714       1.48402263    -113.35721564      -0.00046215       0.00070000      -0.00106706      -0.46429434
O       -1.85022117      -1.79992648       1.47071240    -112.93478966       0.00041989       0.00031252       0.00082687      -0.43307748
O       -5.22379396       3.04074069       0.04932034    -113.06317311      -0.00070100      -0.00100771      -0.00259367      -0.43803240
O       -0.62831155      -0.73753526      -0.94019528    -113.42134630      -0.00073561       0.00133511       0.00025848      -0.47530612
O        1.06055702       1.77369284       0.13424351    -113.32102335      -0.00070119       0.00132250       0.00162562      -0.46430012
C       -3.17780047      -0.09859945       0.42626914     -59.20984692      -0.00035889      -0.00031412       0.00121078       0.08817249
C       -3.45197042       1.41333955       0.30540248     -59.08392242      -0.00058451      -0.00052530      -0.00032250       0.08578501
C       -1.84388763      -0.44043367       1.12194640     -59.14577933      -0.00002658       0.00035902       0.00088469       0.08389071
C       -4.94491076       1.65917405       0.04408499     -59.23266635      -0.00067475      -0.00100896      -0.00022884       0.06055722
C       -0.53108860      -0.11908296       0.34235099     -58.83336357      -0.00032210       0.00080024       0.00050034       0.17615362
C       -0.29283003       1.40795396       0.16906950     -59.33064064      -0.00056888       0.00092060       0.00104210       0.05051149
H       -3.95423527      -0.52152094       1.07911038     -12.87530277      -0.00007336       0.00027877       0.00190513       0.06075873
H       -2.88293008       1.81541293      -0.55008569     -13.26530201      -0.00080348      -0.00134649      -0.00085476       0.01965700
H       -1.81080339       0.11076066       2.06622976     -12.89686235       0.00009782       0.00037331       0.00086336       0.06664287
H       -5.24342795       1.17909100      -0.89286379     -13.19083842      -0.00104864      -0.00267392       0.00074766       0.04299101
H       -5.53137047       1.23829744       0.86403020     -12.98808628      -0.00033205       0.00044716       0.00075546       0.06291484
H       -2.46309371      -0.75005045      -1.25267156     -11.37837990      -0.00112449      -0.00089710       0.00115656       0.32164094
H       -3.68412782       2.81405130       1.60285220     -11.25278262       0.00003874       0.00128594      -0.00219385       0.32105703
H       -0.71056021       1.71025970      -0.79569608     -13.12507333      -0.00029515       0.00109935       0.00099543       0.04617072
H       -0.82196027       1.94346274       0.96225512     -13.11149777      -0.00099073       0.00059159       0.00096693       0.04983510
H       -1.97041778      -2.32032100       0.66381555     -11.35423907      -0.00091018       0.00046528       0.00095063       0.31909157
H        1.39181494       1.76546046       1.05215684     -11.25941124      -0.00089375       0.00090157       0.00166906       0.32885570
H       -4.83227212       3.44628795      -0.73262944     -11.56298361      -0.00112052      -0.00244383      -0.00354129       0.29308634
O        2.08144353      -2.29512788      -1.59069352    -112.64037133       0.00158848       0.00429327      -0.00129738      -0.37806312
O        0.93958559      -3.30996875       0.04277858    -112.14905877       0.00138300       0.00056241      -0.00224799      -0.39974428
O        4.89713384      -2.13504575       0.28421015    -112.28531575      -0.00293588      -0.00544106       0.00047053      -0.42127902
N        0.54153679      -0.69286081       1.15039178     -81.05827035      -0.00011409       0.00057351      -0.00005927      -0.29293659
N        4.56628973       0.09162928       0.32955731     -80.85756918       0.00348847      -0.00444478      -0.00152274      -0.26996252
C        1.74277201      -1.06330902       0.41085959     -58.86621682       0.00026411       0.00176295      -0.00010622       0.02941967
C        2.91620891      -1.29372734       1.38135258     -59.38740834      -0.00019436       0.00125886       0.00026765      -0.11064705
C        1.53012458      -2.35325101      -0.37691352     -58.88755004       0.00203429       0.00363711      -0.00188034       0.35746273
C        4.22964721      -1.18485958       0.61826147     -59.16936047      -0.00014941      -0.00311357      -0.00015552       0.28670957
H        1.99964948      -0.25552603      -0.28046616     -12.91038946       0.00025318       0.00263077       0.00086458       0.07384655
H        2.88679584      -0.53537518       2.16288822     -12.83867594       0.00138774       0.00274282      -0.00111083       0.08689373
H        2.83709566      -2.28296578       1.83299306     -13.02211389      -0.00232747       0.00219709       0.00197985       0.07561184
H        0.17598932      -1.53168610       1.60841309     -12.21056212       0.00025496       0.00006059      -0.00073816       0.19228339
H        1.01335550       0.50475436       2.52790551     -11.57653734      -0.00065412      -0.00038619       0.00089352       0.30904026
H        3.99534823       0.86904044       0.61146393     -12.15661098       0.00573533      -0.00252746      -0.00227207       0.19595356
H        5.40454859       0.27086184      -0.19694586     -12.19059103       0.00380533      -0.00743785      -0.00203905       0.19470596
H        2.01273120      -3.15196509      -2.04157649     -10.96245573       0.00263256       0.00475011      -0.00221032       0.33676839
O        1.44077648       1.32302943       2.84892569    -114.83786999      -0.00127102      -0.00035036       0.00157987      -0.60205637
H        0.85652675       1.71436676       3.50037322     -11.85547807      -0.00171158      -0.00117617       0.00165381       0.28445115
H        0.09087147      -0.41534475      -1.49693476     -11.43665531      -0.00060921       0.00121921       0.00034254       0.30874124
44
Properties=species:S:1:pos:R:3:energies:R:1:forces:R:3:charge:R:1 charge=0 multiplicity=1 source=products.log spin=1 energy=-2153.7069561024655 free_energy=-2153.7069561024655 dipole="-0.43234832897597636 0.8944055216845206 -0.564179101416698" pbc="F F F"
O       -3.40261708      -0.87519266      -0.54516984    -113.21170671      -0.00122718      -0.00156322       0.00350329      -0.45740246
O       -3.03075085       2.20620960       1.36761537    -113.33564290      -0.00010290       0.00123513      -0.00138633      -0.46282474
O       -1.85199746      -1.73533840       1.64248417    -112.96928298      -0.00006762       0.00071071       0.00197547      -0.43518826
O       -5.08583742       3.06443296      -0.25627160    -113.06617587       0.00086277      -0.00065617      -0.00420034      -0.43757960
O       -0.74574283      -0.66529506      -0.89187933    -113.44018121      -0.00180237       0.00100067       0.00060165      -0.47885051
O        1.14745451       1.72854921       0.45764540    -113.34519740      -0.00037136       0.00027982       0.00202375      -0.46613073
C       -3.17469995      -0.06619054       0.57697989     -59.19320354      -0.00043268       0.00022773       0.00199685       0.08980157
C       -3.38439798       1.42173580       0.25251457     -59.10094141      -0.00002597      -0.00029382      -0.00031268       0.08629792
C       -1.82323765      -0.38820848       1.24949223     -59.11279208      -0.00011218       0.00058834       0.00155419       0.08499746
C       -4.85342676       1.68196968      -0.11329311     -59.22627850       0.00014955      -0.00044783      -0.00104717       0.06097396
C       -0.53353852      -0.11359491       0.40837255     -58.85352694      -0.00058258       0.00034258       0.00068662       0.17521058
C       -0.20728327       1.40898588       0.28867502     -59.32927918      -0.00021401       0.00032102       0.00104440       0.04936926
H       -3.93980896      -0.35481259       1.31004095     -12.87544486      -0.00015422       0.00168264       0.00281684       0.06176226
H       -2.75409187       1.69892391      -0.61007312     -13.28539883       0.00025596      -0.00176953      -0.00056425       0.01844020
H       -1.74822017       0.19898589       2.16885141     -12.94041003       0.00041525       0.00094356       0.00127901       0.06193366
H       -5.12207475       1.12098750      -1.01360363     -13.19885032      -0.00006435      -0.00231882       0.00019349       0.04202260
H       -5.49418172       1.36012128       0.71083473     -12.97904215      -0.00007000       0.00173944      -0.00038972       0.06377485
H       -2.59753820      -0.86164824      -1.08720502     -11.36126056      -0.00196558      -0.00161164       0.00243494       0.32240809
H       -3.63061275       2.96856647       1.37087829     -11.24720064       0.00067355       0.00182126      -0.00312576       0.32149358
H       -0.46840537       1.73686374      -0.72216566     -13.14211685       0.00056439       0.00039039       0.00089444       0.04456491
H       -0.82362557       1.96345547       1.00192764     -13.09974928      -0.00066931       0.00038409       0.00057953       0.05107155
H       -2.15683597      -2.25680390       0.88518538     -11.33265695      -0.00206478       0.00080527       0.00274065       0.32004004
H        1.35783453       1.63225085       1.40645597     -11.25970369      -0.00081368      -0.00037792       0.00200853       0.33008673
H       -4.64208202       3.38116145      -1.05120384     -11.55869524       0.00117906      -0.00270824      -0.00482562       0.29305425
O        2.10964005      -2.31799558      -1.64692111    -112.65478848       0.00199897       0.00328625      -0.00136288      -0.37885493
O        1.00325919      -3.36146721      -0.00692925    -112.14140003       0.00162175       0.00119928      -0.00328806      -0.39823636
O        4.99342650      -1.92570364       0.18024672    -112.29296953      -0.00132622      -0.00185999      -0.00048075      -0.42261456
N        0.53929055      -0.78067911       1.12785760     -80.97956651      -0.00040263      -0.00035039      -0.00039104      -0.28796835
N        4.42387601       0.25208581       0.10992841     -80.86702396       0.00123855      -0.00126297      -0.00105638      -0.27109468
C        1.72815603      -1.08644672       0.34532227     -58.88264653      -0.00018230       0.00109884      -0.00052464       0.02972857
C        2.95055234      -1.24019867       1.27149684     -59.37777205      -0.00031412       0.00082685      -0.00039193      -0.11095237
C        1.56219013      -2.38802147      -0.43146059     -58.89217785       0.00093795       0.00138546      -0.00171873       0.35482964
C        4.23069837      -1.03491831       0.47287571     -59.17683407      -0.00018723      -0.00091785      -0.00061295       0.28651592
H        1.91842434      -0.26993760      -0.35628003     -12.91004551      -0.00046995       0.00186202       0.00030568       0.07246290
H        2.89273313      -0.48747208       2.05732461     -12.80178734       0.00023273       0.00145304      -0.00096079       0.09058495
H        2.95728062      -2.23234774       1.72324169     -13.02790340      -0.00119386       0.00114211       0.00028244       0.07510661
H        0.17305256      -1.64812589       1.52693932     -12.22488436      -0.00015052      -0.00085718      -0.00128007       0.19219670
H        0.89854988       0.22119811       2.72500764     -11.58213813      -0.00042438      -0.00201938       0.00061024       0.30910544
H        3.76620347       0.97579717       0.34472567     -12.13428379       0.00219465      -0.00043689      -0.00101715       0.19954086
H        5.23105515       0.48854294      -0.44192534     -12.20248406       0.00141835      -0.00238802      -0.00126633       0.19392813
H        2.07586788      -3.18027745      -2.09161819     -10.95505928       0.00325229       0.00359583      -0.00211021       0.33680877
O        1.25747505       1.02819828       3.13881534    -114.79312018      -0.00035361      -0.00249388       0.00143768      -0.59863360
H        0.61545648       1.33155555       3.78287317     -11.84600372       0.00042363      -0.00401164       0.00290627       0.28537009
H        0.00727267      -0.44873455      -1.45420689     -11.49932921      -0.00167382       0.00002306       0.00043779       0.30284911
44
Properties=species:S:1:pos:R:3:energies:R:1:forces:R:3:charge:R:1 charge=0 multiplicity=1 source=products.log spin=1 energy=-2153.7360774938566 free_energy=-2153.7360774938566 dipole="-0.612364951744005 0.7180109155080739 -0.6427201397533103" pbc="F F F"
O       -3.45167823      -0.97067806      -0.20369178    -113.22978004      -0.00238918      -0.00104594       0.00610640      -0.45596858
O       -2.96211186       2.36295436       1.19094625    -113.31408259       0.00188273       0.00188899      -0.00247843      -0.46183757
O       -1.82221946      -1.58635029       1.90631691    -113.04373662      -0.00001630       0.00199622       0.00412392      -0.44051666
O       -4.93995575       3.02303865      -0.59192638    -113.06957371       0.00356107      -0.00011206      -0.00528425      -0.43729372
O       -0.88696734      -0.56005126      -0.83041294    -113.47433036      -0.00330136      -0.00121971       0.00101470      -0.48346120
O        1.24950229       1.63453920       0.80772960    -113.36025290      -0.00018559      -0.00049421      -0.00188838      -0.46636312
C       -3.14297434       0.00986314       0.75018782     -59.16007591      -0.00038887       0.00114671       0.00324477       0.09169824
C       -3.29486250       1.43005953       0.18956600     -59.11794029       0.00091427      -0.00013388      -0.00027636       0.08664774
C       -1.77228397      -0.27744172       1.40149652     -59.08441054       0.00013554       0.00123642       0.00221598       0.08531897
C       -4.74201916       1.66564490      -0.27080060     -59.22188192       0.00132009       0.00054671      -0.00106951       0.06138654
C       -0.52337480      -0.09511541       0.47345623     -58.87150819      -0.00102361      -0.00066481       0.00019450       0.17504691
C       -0.06595154       1.39980599       0.38483987     -59.32538518      -0.00029483      -0.00095828      -0.00153974       0.04928794
H       -3.88599566      -0.11413358       1.54843447     -12.89174628       0.00028580       0.00407305       0.00431292       0.06108067
H       -2.61893332       1.55680779      -0.67378354     -13.27177650       0.00107906      -0.00298720      -0.00056984       0.02103560
H       -1.64612715       0.38838759       2.25930330     -12.95935946       0.00167781       0.00247148       0.00103468       0.05921677
H       -4.98649975       1.00294675      -1.10656866     -13.21002753       0.00039500      -0.00159520       0.00088343       0.04065445
H       -5.42310986       1.45703956       0.55747335     -12.97415989       0.00088015       0.00417691      -0.00052055       0.06421679
H       -2.72006268      -0.99270423      -0.84095426     -11.34519216      -0.00343937      -0.00282194       0.00496219       0.32318450
H       -3.55071322       3.12436956       1.06821292     -11.24977572       0.00316961       0.00252456      -0.00465195       0.32153920
H       -0.10357894       1.71213877      -0.66378391     -13.15843656      -0.00028609      -0.00227373      -0.00193734       0.04282434
H       -0.76566082       2.02263965       0.95041770     -13.09579510      -0.00003942      -0.00008771      -0.00223788       0.05151397
H       -2.29539578      -2.12649974       1.25367451     -11.31527503      -0.00249756       0.00169990       0.00613024       0.32081173
H        1.29726827       1.44234483       1.76497409     -11.26750702      -0.00032140       0.00188267      -0.00153292       0.33107989
H       -4.45705383       3.23306357      -1.39926523     -11.55471459       0.00481383      -0.00323226      -0.00536070       0.29318086
O        2.11321828      -2.35989866      -1.73814245    -112.63709423       0.00362866       0.00188390      -0.00108790      -0.37701179
O        1.02083057      -3.41893276      -0.09908334    -112.17292975      -0.00126524       0.00048302      -0.00531977      -0.40053277
O        5.05146038      -1.61198072      -0.02858806    -112.31391049       0.00128779       0.00537058       0.00122573      -0.42546352
N        0.53165426      -0.87862507       1.07404290     -80.87228000      -0.00095495      -0.00136399      -0.00091318      -0.28094634
N        4.20910057       0.47939826      -0.00284347     -80.88894083      -0.00342297       0.00345319       0.00367245      -0.27351891
C        1.69861769      -1.12964295       0.24659386     -58.89772071      -0.00076592      -0.00031807      -0.00094995       0.03084077
C        2.96452006      -1.22428707       1.12501895     -59.34107071      -0.00094450      -0.00123823      -0.00071596      -0.10992425
C        1.56345151      -2.43604570      -0.52499780     -58.90321405       0.00014954       0.00049948      -0.00262412       0.35258043
C        4.19142078      -0.83313676       0.31211071     -59.18806119      -0.00084854       0.00282366       0.00127590       0.28614850
H        1.83075987      -0.30925559      -0.46309050     -12.93143114      -0.00077361       0.00049423       0.00001933       0.06854215
H        2.85576359      -0.53296169       1.96034903     -12.77921789      -0.00213337      -0.00385799       0.00130168       0.09236422
H        3.08609256      -2.23608401       1.51146263     -13.05062960       0.00034747      -0.00217556      -0.00354838       0.07294172
H        0.15289291      -1.76398735       1.41290593     -12.25822236      -0.00089473      -0.00163387      -0.00157521       0.18944739
H        0.77565020      -0.13303031       2.92187728     -11.56773495      -0.00026855       0.00008373      -0.00763463       0.31060215
H        3.47259367       1.10254587       0.28852021     -12.08152623      -0.00556183       0.00118125       0.00324416       0.20773262
H        4.97229982       0.84091797      -0.54947259     -12.22838513      -0.00365590       0.00602624       0.00505633       0.19215540
H        2.10592848      -3.22489939      -2.17899971     -10.94257255       0.00491711       0.00239602      -0.00210394       0.33706052
O        1.05410699       0.66779651       3.39613760    -114.74808265       0.00140655      -0.00327406      -0.00251451      -0.59281659
H        0.35525516       0.89372432       4.01273515     -11.81617110       0.00749122      -0.01339390       0.00806583       0.28756867
H       -0.12611561      -0.48311771      -1.41797660     -11.55015786      -0.00366960      -0.00345633       0.00025026       0.29794539
44
Properties=species:S:1:pos:R:3:energies:R:1:forces:R:3:charge:R:1 charge=0 multiplicity=1 source=products.log spin=1 energy=-2153.7388914452163 free_energy=-2153.7388914452163 dipole="-0.5229850290477057 0.614717436465044 -0.5817265536577944" pbc="F F F"
O       -3.47900593      -0.97233546      -0.14138493    -113.23024723      -0.00056534      -0.00072444       0.00626690      -0.45585806
O       -2.97529954       2.41059078       1.12307488    -113.28906468       0.00248709       0.00072694      -0.00031436      -0.46051024
O       -1.83694517      -1.54617518       1.93875514    -113.04622046       0.00202346       0.00281805       0.00528760      -0.44155799
O       -4.94868215       2.99982135      -0.69009246    -113.06680376       0.00502460      -0.00072331      -0.00418197      -0.43737243
O       -0.92997992      -0.52368105      -0.82270013    -113.46798456      -0.00267913      -0.00054308       0.00109624      -0.48333565
O        1.23977632       1.64451862       0.83781545    -113.31346030       0.00108084      -0.00134707      -0.00155003      -0.45974564
C       -3.15789149       0.04111668       0.77489386     -59.15231931       0.00083775       0.00078830       0.00365474       0.09159859
C       -3.30557626       1.43870917       0.15959506     -59.12720228       0.00197339      -0.00041481       0.00118733       0.08680115
C       -1.78392852      -0.24121387       1.42319457     -59.09391162       0.00139178       0.00142475       0.00249895       0.08443690
C       -4.75163654       1.65628381      -0.31460855     -59.21946125       0.00257973       0.00026854       0.00006400       0.06140220
C       -0.54390679      -0.07269341       0.48023424     -58.87410120      -0.00008756      -0.00062561       0.00034853       0.17517140
C       -0.07163016       1.41738816       0.39609552     -59.33195555       0.00101659      -0.00112074      -0.00111306       0.04792424
H       -3.89658832      -0.04856197       1.58134288     -12.89453418       0.00146879       0.00314564       0.00434751       0.06131232
H       -2.62718165       1.53013262      -0.70637240     -13.26563379       0.00240601      -0.00245658       0.00144765       0.02163147
H       -1.64422385       0.43174793       2.27335814     -12.93372882       0.00241229       0.00306970       0.00079566       0.06301426
H       -4.99424196       0.96147440      -1.12456051     -13.21291061       0.00195329      -0.00175159       0.00216183       0.04027958
H       -5.43555083       1.48075570       0.51899000     -12.97572540       0.00190483       0.00396796       0.00017512       0.06414865
H       -2.76100871      -1.00614584      -0.79341536     -11.34766678      -0.00136263      -0.00236465       0.00553371       0.32284048
H       -3.56496811       3.16576889       0.97099711     -11.25591049       0.00428983       0.00156922      -0.00271464       0.32130976
H       -0.08886851       1.72714472      -0.65396802     -13.14087291       0.00084832      -0.00210715      -0.00121650       0.04424615
H       -0.77612704       2.04716410       0.94739157     -13.07129037       0.00173734      -0.00016969      -0.00155696       0.05466559
H       -2.34381316      -2.08051855       1.30598293     -11.31722387       0.00129378       0.00155207       0.00728064       0.32083116
H        1.27886568       1.46214357       1.79223758     -11.24973399       0.00163370      -0.00262820      -0.00177023       0.33262360
H       -4.46101945       3.17832713      -1.50214473     -11.55938213       0.00612611      -0.00405140      -0.00416266       0.29296237
O        2.14681571      -2.35546566      -1.73157730    -112.62545314       0.00254361       0.00184908      -0.00251837      -0.37605204
O        0.99293193      -3.40073624      -0.12596588    -112.18553114      -0.00128043      -0.00008589      -0.00646838      -0.40168500
O        5.03947677      -1.57088530      -0.03068657    -112.32198309       0.00138020       0.00568572      -0.00065340      -0.42636774
N        0.50651965      -0.87593820       1.06041628     -80.86090700      -0.00013850      -0.00141859      -0.00133615      -0.27944186
N        4.17782644       0.51305131       0.00133199     -80.89188883      -0.00396381       0.00337894       0.00213194      -0.27389947
C        1.67624797      -1.11578765       0.23364410     -58.90196997      -0.00059999      -0.00079356      -0.00204993       0.03059963
C        2.94301988      -1.20650561       1.11298368     -59.34121422      -0.00061509      -0.00179065      -0.00217981      -0.11129050
C        1.55510904      -2.42279795      -0.53846859     -58.90749431      -0.00008332       0.00027238      -0.00386395       0.35233264
C        4.17015739      -0.80136843       0.30820527     -59.19136155      -0.00091392       0.00282958      -0.00027367       0.28612764
H        1.80531038      -0.29350033      -0.47422939     -12.93527645      -0.00079501      -0.00008516      -0.00123004       0.06835494
H        2.82825525      -0.51963778       1.95114505     -12.74373992      -0.00190973      -0.00494693       0.00018151       0.09619712
H        3.07096097      -2.21943446       1.49456438     -13.06401107       0.00083811      -0.00280027      -0.00541495       0.07158016
H        0.12174086      -1.76519817       1.38193163     -12.25062377       0.00027102      -0.00142228      -0.00113487       0.19018511
H        0.85076155       0.41061764       4.30671717     -11.84536620      -0.02224039       0.00792671      -0.00578337       0.28593504
H        3.43614798       1.12790659       0.29778010     -12.07802390      -0.00613143       0.00088945       0.00198632       0.20834238
H        4.94239305       0.88588778      -0.53562382     -12.23409054      -0.00434800       0.00627336       0.00363878       0.19174866
H        2.15318689      -3.22286438      -2.16762665     -10.94053637       0.00376297       0.00248758      -0.00371113       0.33719199
O        1.18014913       0.52819387       3.41439969    -114.80879232      -0.00071605      -0.00796118       0.00218886      -0.60393203
H        0.80280607      -0.18141198       2.86624464     -11.61211775      -0.00169249      -0.00544448       0.00256232       0.30835747
H       -0.17164253      -0.46472061      -1.41549561     -11.56116439      -0.00316260      -0.00314665       0.00036229       0.29689600
44
Properties=species:S:1:pos:R:3:energies:R:1:forces:R:3:charge:R:1 charge=0 multiplicity=1 source=products.log spin=1 energy=-2153.6552241586787 free_energy=-2153.6552241586787 dipole="-0.5887427465055678 0.5098446664093639 -0.8950075523814855" pbc="F F F"
O       -3.44736598      -0.99843290       0.14131409    -113.24741120      -0.02438440       0.00224029       0.00892498      -0.45639056
O       -2.93861060       2.52217870       0.96211772    -113.31040996      -0.00445121       0.00134780      -0.00327841      -0.46188632
O       -1.70292018      -1.27541353       2.20182488    -113.08280976      -0.00623210      -0.01151707      -0.01496893      -0.44212447
O       -4.93465698       2.87970890      -0.89086253    -113.07006365      -0.00374233       0.00302294      -0.00535314      -0.43741175
O       -1.03652971      -0.40508699      -0.80466854    -113.49691603      -0.01065656      -0.00513111       0.00283951      -0.48520862
O        1.27627993       1.68393333       0.89751615    -113.21128990      -0.00817212      -0.02100305       0.02985520      -0.44353141
C       -3.11352912       0.13014157       0.90506839     -59.14361859      -0.00843037       0.00357273       0.00289492       0.09262025
C       -3.27862833       1.44087425       0.12527419     -59.13203288      -0.00828295       0.00104099      -0.00071220       0.08510679
C       -1.71023625      -0.05012487       1.51726251     -59.08924760      -0.00280946      -0.00703564      -0.00782613       0.08294345
C       -4.72719099       1.59177893      -0.35949940     -59.23048422      -0.00875807       0.00432956      -0.00019074       0.06141702
C       -0.54010568       0.02081175       0.47309346     -58.88749863      -0.00414497      -0.00462283      -0.00793691       0.17529191
C        0.00552184       1.48020915       0.33683973     -59.29850947       0.00042232      -0.00881866      -0.00189135       0.04707460
H       -3.82278974       0.14042528       1.74124163     -12.90293292      -0.00154890       0.01162160       0.00966496       0.06153302
H       -2.60775798       1.43154055      -0.75025171     -13.22141886      -0.00949832      -0.00280202      -0.00184743       0.02644021
H       -1.53943061       0.72882190       2.26532033     -12.88319707       0.01029408      -0.00980854      -0.00755751       0.06848938
H       -4.96589143       0.80389688      -1.08084339     -13.21191018      -0.01307046       0.00283250       0.00258956       0.04000748
H       -5.40563636       1.50991990       0.49252579     -12.97721887      -0.00917874       0.01070552       0.00014123       0.06412247
H       -2.76861001      -1.08272034      -0.54766042     -11.34024804      -0.03687672       0.00091225      -0.00463085       0.32281802
H       -3.54813214       3.24494490       0.74640514     -11.25684335      -0.00062486       0.00405296      -0.00499389       0.32113604
H        0.11047570       1.71628034      -0.72689732     -13.09841191       0.02684906      -0.00275870      -0.00181346       0.04841473
H       -0.72200957       2.17631547       0.76543540     -13.04972501      -0.00656151      -0.00819859      -0.01254757       0.05733483
H       -2.24894268      -1.89208511       1.68839403     -11.31477393      -0.04869088       0.00059481      -0.00329790       0.31955315
H        1.22206721       1.56102563       1.85390647     -11.31764264      -0.02461297      -0.07572642       0.04184835       0.31895822
H       -4.43934358       2.96653038      -1.71331279     -11.55607744      -0.00176333      -0.00122821      -0.00466801       0.29291988
O        2.19511390      -2.37064508      -1.76549997    -112.61590961       0.00693388       0.00591307       0.01145500      -0.37421324
O        1.01635046      -3.38768764      -0.15957302    -112.20875714      -0.02275146       0.01759328      -0.00021021      -0.40259075
O        5.04052773      -1.47613135       0.00870358    -112.31991099       0.02474545       0.00986066      -0.02115231      -0.42607428
N        0.48955402      -0.84147452       0.97194243     -80.76919225       0.01950029       0.01932094       0.01175780      -0.27489718
N        4.12522607       0.58515036      -0.06667737     -80.90525658       0.00819707       0.00484979      -0.00170494      -0.27564615
C        1.65441607      -1.08067200       0.14661954     -58.91920881       0.01604779       0.00764287       0.01084432       0.03117567
C        2.89815956      -1.12268739       1.06071515     -59.32122728       0.02743679      -0.01166721       0.00119652      -0.11099767
C        1.57214947      -2.41255074      -0.58794238     -58.91314080      -0.00164333       0.01022310       0.00639226       0.35139443
C        4.14261788      -0.71689267       0.29065780     -59.19142792       0.02067695       0.00238757      -0.00877845       0.28661457
H        1.77438234      -0.28055617      -0.58774358     -12.98100449       0.01731469       0.01156684       0.01720143       0.06399407
H        2.73119583      -0.41791510       1.87543499     -12.70108114       0.03731517      -0.02579487       0.01907972       0.09990110
H        3.02271978      -2.12054155       1.47957081     -13.03811734       0.04045513      -0.02052779      -0.01605000       0.07390478
H        0.10514178      -1.72197918       1.30842555     -12.23538979      -0.02241462      -0.04545127      -0.06698037       0.18965199
H        0.66620884      -0.73414350       4.36634590     -11.94753032       0.01150075       0.05315896      -0.00227501       0.28151725
H        3.37186309       1.19440724       0.21189329     -12.08960731       0.00873059       0.00023612       0.01747709       0.20731589
H        4.90889736       0.96519912      -0.56937688     -12.24041215       0.00293130       0.01487210      -0.00424108       0.19112965
H        2.23722681      -3.25097153      -2.17323558     -10.91976097      -0.00334554       0.00698586       0.00660324       0.33801681
O        0.99114629      -0.12439742       3.70134401    -114.70290259       0.00440776       0.08381034       0.01667012      -0.60636598
H        0.61211423      -0.42626043       2.86280587     -11.76077094       0.01843166      -0.01513322      -0.01623318       0.29986417
H       -0.30229595      -0.43355778      -1.42955196     -11.54392362      -0.00954452      -0.01747026       0.00370379       0.29667658
44
Properties=species:S:1:pos:R:3:energies:R:1:forces:R:3:charge:R:1 charge=0 multiplicity=1 source=products.log spin=1 energy=-2151.888625546346 free_energy=-2151.888625546346 dipole="-0.30485718447760224 1.3413932951982195 -0.343696754711051" pbc="F F F"
O       -3.22341636      -1.03085057       0.10802782    -113.22047886      -0.20865576      -0.04612404       0.04343044      -0.46401031
O       -2.90617364       2.51211559       0.98728671    -113.39811225      -0.03366873      -0.03085064       0.00903379      -0.46976290
O       -1.63191711      -1.13957431       2.38135634    -113.09055228      -0.02492016       0.05848052      -0.07430847      -0.43971831
O       -4.89116699       2.81325084      -0.89333865    -113.07323693      -0.02973673       0.02053827      -0.02958395      -0.43915339
O       -0.96616708      -0.32932414      -0.82047694    -113.30938315      -0.63904934       1.06347837       0.39503541      -0.50033451
O        1.35552678       1.88797457       0.60946718    -113.25034598      -0.00177348      -0.36025933       0.14027336      -0.44652138
C       -3.04083629       0.09960718       0.90794791     -59.18430666      -0.16608300      -0.01991774      -0.01050405       0.09503905
C       -3.20807339       1.42122098       0.14110575     -59.10191000      -0.07694137      -0.01226378      -0.01128932       0.08181974
C       -1.68586928       0.03403542       1.61389282     -59.11259113      -0.07467234      -0.06423059      -0.25168455       0.08047521
C       -4.64881550       1.53267086      -0.35801520     -59.24113356      -0.05682673       0.02197892      -0.01997148       0.06103755
C       -0.51502355       0.07913693       0.55561699     -58.83110274      -0.51347757      -0.36909997      -1.01894290       0.16276536
C       -0.00507838       1.57596665       0.36381831     -59.09074609       0.00214812      -0.15085878      -0.12848398       0.03973794
H       -3.81215853       0.04691965       1.68241161     -12.94727081      -0.09901433       0.03262665       0.04939578       0.05596571
H       -2.52331846       1.43541505      -0.72150627     -13.19002534      -0.04979345      -0.03634017       0.01627477       0.03015144
H       -1.63571827       0.84916295       2.34821266     -13.02827995       0.21518563       0.01663575      -0.32809048       0.05550503
H       -4.84936081       0.73182834      -1.07548843     -13.18790335      -0.04714842       0.01426379      -0.01377208       0.04325927
H       -5.32683995       1.42946177       0.49171354     -12.99539834      -0.05725412       0.02747714      -0.02054406       0.06177882
H       -2.43225210      -1.10850799      -0.45804598     -11.27347334      -0.22466704       0.00743828       0.01046032       0.33569963
H       -3.53731574       3.21312302       0.76097776     -11.28209348      -0.00089191      -0.00414428       0.00112231       0.31977386
H       -0.16120472       1.75945927      -0.70146941     -12.97955368       0.09714751       0.24681631      -0.09763747       0.05488294
H       -0.65946260       2.26701137       0.90383441     -13.15346672       0.02472547      -0.23912397       0.03586145       0.05214294
H       -1.78534063      -1.88002149       1.77441848     -11.19499316      -0.15739559      -0.02129934       0.08058647       0.32905618
H        1.46153400       2.32294563       1.46166699     -11.53085082      -0.11461218      -0.10041552       0.02177602       0.29540734
H       -4.40716825       2.90296236      -1.72179454     -11.57072633       0.00043000       0.00318605      -0.01396203       0.29264295
O        2.18935150      -2.37298339      -1.88199915    -112.65007454      -0.04904297       0.08339625       0.15289918      -0.38268282
O        1.20605381      -3.53025503      -0.24804578    -111.93557953      -0.06079434      -0.10895289       0.03552040      -0.38290345
O        4.79643451      -1.61935289       0.25047542    -112.31510513       0.21211998       0.01286824      -0.10247435      -0.42859173
N        0.29184209      -1.01938818       0.85243353     -80.44700097       0.50065516      -0.23074804       1.34045774      -0.28166699
N        4.06227096       0.50077820      -0.02545538     -80.89875899       0.08737006      -0.00792439      -0.02310617      -0.28014558
C        1.49035050      -1.14237573       0.03796611     -58.86170005       0.07775723      -0.14637300       0.39978397       0.03613464
C        2.61620810      -1.03276893       1.05653608     -59.30039061       0.32594894      -0.06295544       0.11461213      -0.10831897
C        1.58654480      -2.48395419      -0.68719453     -58.94439974      -0.01534862      -0.01364581       0.16635094       0.35422488
C        3.94153171      -0.77856562       0.39910931     -59.21447721       0.20041961      -0.01543957      -0.01264668       0.28682463
H        1.60837046      -0.36360488      -0.73683588     -13.07368990      -0.27359104      -0.05920952       0.40011692       0.05288761
H        2.36215406      -0.19490219       1.70458463     -12.85598374       0.26215940      -0.02903842       0.05378697       0.07816114
H        2.59199060      -1.95206109       1.63538910     -12.88774283       0.33366907      -0.04160475       0.13250675       0.08772769
H        0.29144373      -1.29982942       1.91427377     -11.65801234       0.50424303       0.05509006      -2.87856213       0.23131965
H        0.55197615      -1.27997069       4.28675485     -11.69862861      -0.40689601       0.61846933      -0.61481713       0.30061537
H        3.30545564       1.16158918       0.05975176     -12.17788557       0.04813565      -0.06385370       0.01722055       0.20063062
H        4.90757027       0.77827228      -0.49145679     -12.28901223       0.03774272       0.03925150      -0.07585287       0.18757585
H        2.35228543      -3.25410908      -2.26146467     -10.97693796      -0.05247766       0.11822345       0.06029627       0.33671999
O        0.98709696      -0.91244262       3.50592618    -114.47138218       0.28264868       0.70922130      -0.37226220      -0.58403536
H        0.51388249      -0.24219849       2.93292511     -11.40226552       0.22125442      -0.85577115       2.06347409       0.31018437
H       -0.24845458      -0.23670043      -1.46089153     -11.59166292       0.00097219      -0.05899533       0.35822028       0.29769831
44
Properties=species:S:1:pos:R:3:energies:R:1:forces:R:3:charge:R:1 charge=0 multiplicity=1 source=products.log spin=1 energy=-2152.112909755041 free_energy=-2152.112909755041 dipole="-0.3055670281914663 1.194411810479397 -0.6557225678731298" pbc="F F F"
O       -3.14592157      -1.00574037       0.09143158    -113.25720865       0.00295274      -0.00193991       0.00195177      -0.46234119
O       -2.89398304       2.52768916       0.97827430    -113.34572053      -0.00022720      -0.00085817      -0.00296558      -0.46440084
O       -1.62643447      -1.18252864       2.39859901    -113.11996525       0.00171250       0.00195252       0.00477286      -0.44316192
O       -4.88195250       2.80796434      -0.88148609    -113.07810493       0.00052361      -0.00533840      -0.00522513      -0.43854565
O       -0.65753425      -0.86403682      -1.01416332    -112.62343941       0.00684131      -0.00972042      -0.00770295      -0.39690685
O        1.34772011       2.04162920       0.57434070    -113.32475021       0.00134103       0.00318701       0.00144304      -0.45550884
C       -2.96732633       0.11222224       0.91293463     -59.19982914       0.00216297      -0.00106015       0.00090373       0.08952547
C       -3.17881612       1.42817052       0.14396923     -59.07736625       0.00066415      -0.00235874      -0.00111684       0.08782861
C       -1.65202438       0.05726271       1.72742472     -59.12884145       0.00116209       0.00191715       0.00391635       0.08652839
C       -4.63037522       1.52664919      -0.34935170     -59.21942152       0.00049281      -0.00384222      -0.00145491       0.06093221
C       -0.26375196       0.25724731       1.05115545     -59.05992558       0.00632690       0.00547481       0.01285861      -0.00637983
C       -0.00447317       1.64096064       0.42526133     -59.17597890       0.00088216       0.00321653       0.00352413       0.06187470
H       -3.76468465       0.04102168       1.66478827     -12.89480161       0.00135328      -0.00086552       0.00021078       0.05973985
H       -2.50913578       1.45107597      -0.73380960     -13.31703713       0.00043935      -0.00319051      -0.00143917       0.01427798
H       -1.73206326       0.82866888       2.50036510     -12.92299620      -0.00278347       0.00227572       0.00335249       0.06397110
H       -4.84017290       0.73003189      -1.06912251     -13.20595977       0.00013493      -0.00580653       0.00080647       0.04176731
H       -5.30824239       1.42457148       0.50107991     -12.98471402       0.00037982      -0.00111380      -0.00121177       0.06351670
H       -2.36056544      -1.11040455      -0.47320198     -11.34309209       0.00196715      -0.00193592       0.00080168       0.32625497
H       -3.53837311       3.21810229       0.75626680     -11.27447811      -0.00003069      -0.00124486      -0.00464176       0.32002597
H       -0.17751038       1.63489449      -0.65455441     -13.20336070       0.00007386       0.00065687       0.00319642       0.04024515
H       -0.67753843       2.37631988       0.87192721     -13.10236448       0.00155040       0.00452307       0.00264816       0.05622432
H       -1.75725863      -1.86959818       1.72727273     -11.26349344       0.01013016       0.00094560       0.00404173       0.32545971
H        1.49150459       2.28054419       1.49649333     -11.53215679       0.00333340      -0.00622040       0.00427233       0.29630282
H       -4.41127480       2.90466940      -1.71694032     -11.57154386       0.00033044      -0.00774040      -0.00560899       0.29188112
O        2.21391126      -2.40921293      -1.94615984    -112.57023871       0.00250581       0.00780318      -0.00791514      -0.37439698
O        1.20511003      -3.46732381      -0.25843815    -111.88783124      -0.00656137       0.00616386      -0.01727232      -0.37589991
O        4.71974311      -1.61233554       0.27328474    -112.28241208      -0.00424243      -0.00555684       0.00183313      -0.42163626
N        0.06679691      -0.88093706       0.20392789     -79.37397515      -0.00804127       0.00521344      -0.01954446      -0.05307529
N        4.02603102       0.51137488      -0.01666607     -80.89730932      -0.00199955      -0.00469375       0.00522816      -0.27737383
C        1.47014920      -1.06208257      -0.14741903     -58.76673210      -0.00270717       0.00316458      -0.00712098       0.02729894
C        2.48718132      -1.01645436       0.99988988     -59.35142913      -0.00638177      -0.00706496      -0.00261084      -0.10663789
C        1.59280530      -2.45623167      -0.76497383     -58.87685055      -0.00415416       0.00181721      -0.00997567       0.36442361
C        3.86527158      -0.76714645       0.39329078     -59.16961563      -0.00391140      -0.00572931       0.00148362       0.28682686
H        1.76381241      -0.32250689      -0.91599768     -13.16282542       0.00416272       0.00520473      -0.00297058       0.03722108
H        2.27635237      -0.21311046       1.70058194     -12.86874737      -0.00493144      -0.01264213       0.00423733       0.08326303
H        2.47591777      -1.95742267       1.54792235     -12.84674089      -0.00727171      -0.01145950      -0.01003934       0.09448760
H        0.01795963      -1.37209471       3.26955638     -11.69552345      -0.01632432       0.02263588       0.05799397       0.31033272
H        0.77517519      -1.52316133       4.60156281     -12.03734952       0.02976693      -0.01356104       0.00469559       0.27396823
H        3.28911650       1.19365235       0.07162489     -12.14276979      -0.00125547      -0.00395797       0.00579006       0.20305596
H        4.88897014       0.77815977      -0.45982111     -12.24761964      -0.00070086      -0.00442971       0.00782984       0.19066134
H        2.36437893      -3.30611040      -2.28539848     -10.93985328       0.00194823       0.00871428      -0.01072909       0.33796476
O        0.85150049      -1.15786516       3.71917256    -114.65210982      -0.00755879       0.02010807       0.01561356      -0.60611243
H        0.41459782       0.16133498       1.90427890     -12.59033749      -0.00210351       0.01032179      -0.02877103       0.09809353
H       -0.25585055      -0.22674615      -1.63477131     -11.52608914      -0.00195216       0.00703488      -0.00508924       0.28842369
44
Properties=species:S:1:pos:R:3:energies:R:1:forces:R:3:charge:R:1 charge=0 multiplicity=1 source=products.log spin=1 energy=-2152.098841907547 free_energy=-2152.098841907547 dipole="-0.3540656900590454 1.2138998656325108 -1.1262564199676723" pbc="F F F"
O       -3.15117412      -0.98711124       0.25584943    -113.29200694       0.00002822      -0.00073253       0.00403229      -0.46298879
O       -2.88567678       2.60244682       0.87899566    -113.35416977      -0.00005789       0.00062091      -0.00390511      -0.46445289
O       -1.66844302      -1.02729359       2.55317928    -113.11274738       0.00076976       0.00505606       0.00445232      -0.44348092
O       -4.84692460       2.76299476      -1.00767408    -113.08081136       0.00085827      -0.00499189      -0.00641688      -0.43771163
O       -0.68841415      -0.87003087      -0.88690340    -112.63635960      -0.00163812       0.00354479       0.00041315      -0.39628565
O        1.35592894       2.10795854       0.65633466    -113.31979838       0.00111708       0.00112052       0.00249897      -0.45420060
C       -2.96490644       0.19275992       0.98521667     -59.18556275       0.00023224       0.00066678       0.00165759       0.08918679
C       -3.15605071       1.44778677       0.11811898     -59.08292624       0.00033748      -0.00126880      -0.00117424       0.08815113
C       -1.65692154       0.17040791       1.81378385     -59.12303258       0.00032536       0.00282421       0.00158111       0.08797126
C       -4.59871190       1.51165687      -0.40812201     -59.21898236       0.00051049      -0.00283200      -0.00170635       0.06096100
C       -0.25874904       0.31568742       1.13966552     -59.02570593       0.00000178       0.00185313       0.00097370      -0.00165115
C        0.01376939       1.68576052       0.48443949     -59.17606737       0.00091116       0.00198700       0.00170633       0.06111055
H       -3.76773568       0.19027493       1.73464154     -12.88614707       0.00031833       0.00232650       0.00172977       0.06053281
H       -2.46870724       1.40926185      -0.74524887     -13.31895589       0.00060300      -0.00323241      -0.00087448       0.01418396
H       -1.72865879       0.98886836       2.53834256     -12.94837070       0.00005233       0.00459355      -0.00067465       0.06077536
H       -4.79065034       0.67889169      -1.09103350     -13.20834675       0.00049415      -0.00531759       0.00135143       0.04135273
H       -5.29250149       1.44733114       0.43312317     -12.97647859       0.00035333       0.00042819      -0.00160440       0.06423994
H       -2.37767484      -1.12509305      -0.31851390     -11.32704756      -0.00030613      -0.00176318       0.00423155       0.32659793
H       -3.53819887       3.26951825       0.61290443     -11.25807808       0.00049966       0.00013672      -0.00637080       0.32093964
H       -0.12838991       1.64138749      -0.59921478     -13.19944939       0.00134420       0.00267904       0.00167067       0.03996020
H       -0.67921053       2.42920101       0.88439147     -13.09896309       0.00109884       0.00214107       0.00165766       0.05661355
H       -1.92485179      -1.73311131       1.93850697     -11.24612315       0.01042864       0.00545472       0.00932924       0.32566865
H        1.46757869       2.40457956       1.56586794     -11.53524486       0.00088870       0.00036079       0.00273142       0.29550595
H       -4.36353587       2.82136424      -1.83940420     -11.55974807       0.00098484      -0.00832144      -0.00655617       0.29223927
O        2.11009882      -2.52967051      -1.77898731    -112.53920979      -0.00164884       0.00477856      -0.00334146      -0.36983574
O        1.27854858      -3.42940666       0.08902751    -111.97368089      -0.00284325       0.00407003      -0.00726750      -0.38218288
O        4.68452176      -1.52528728       0.17298896    -112.29469658      -0.00225826      -0.00249345      -0.00092399      -0.42168920
N        0.06354461      -0.83962795       0.31243154     -79.35855259      -0.00128174       0.00215515       0.00007271      -0.05192695
N        4.02816343       0.60940912      -0.13293928     -80.89698172       0.00041512      -0.00150097       0.00139579      -0.27602533
C        1.46074021      -1.02405579      -0.06857588     -58.73647058      -0.00159144       0.00200009      -0.00061949       0.02889869
C        2.52195263      -0.84529782       1.02412357     -59.33861331      -0.00136620      -0.00101589      -0.00037256      -0.10682880
C        1.58979201      -2.46914454      -0.55378326     -58.86517827      -0.00336272      -0.00009400      -0.00167313       0.36572721
C        3.86530930      -0.65127495       0.32671662     -59.16558191      -0.00094566      -0.00202331      -0.00006052       0.28618216
H        1.71004497      -0.35425918      -0.91342028     -13.17901870      -0.00113378       0.00316450       0.00055618       0.03575378
H        2.32753501       0.03240794       1.63350820     -12.93437113      -0.00034449      -0.00154954       0.00063505       0.07583446
H        2.55208912      -1.72095413       1.66985724     -12.80446674      -0.00274758      -0.00187307      -0.00157223       0.09880361
H        0.91284866      -2.70374024       3.04722989     -11.98587807      -0.00057434      -0.00306978       0.00215346       0.28197390
H       -0.05240917      -1.55590708       3.36951772     -11.80828747       0.00416812      -0.01572999       0.00346003       0.30301212
H        3.31948804       1.31387434      -0.00192725     -12.13562573       0.00120024      -0.00088925       0.00206996       0.20291751
H        4.87170617       0.84715595      -0.62702174     -12.23549787       0.00064543      -0.00202787       0.00158699       0.19130197
H        2.26527458      -3.45165135      -2.04013454     -10.91364294      -0.00231334       0.00499235      -0.00474911       0.33922109
O        0.85869848      -1.85778224       3.49781901    -114.57625595      -0.00236204      -0.00159967      -0.00374834      -0.60407077
H        0.41406591       0.21557913       1.99758120     -12.66944671       0.00029461       0.00093143       0.00059144       0.08967985
H       -0.31446017      -0.24469800      -1.53685684     -11.51626109      -0.00210554       0.00444056       0.00107258       0.28803424
44
Properties=species:S:1:pos:R:3:energies:R:1:forces:R:3:charge:R:1 charge=0 multiplicity=1 source=products.log spin=1 energy=-2152.0363758439826 free_energy=-2152.0363758439826 dipole="0.2818480003775705 0.8715279450031886 -0.8903438797170965" pbc="F F F"
O       -3.18475573      -0.94397880       0.27286754    -113.12009282       0.00127317       0.00107691       0.00571437      -0.45835864
O       -2.89562723       2.66185828       0.78443855    -113.33741461      -0.00071933       0.00309641      -0.00777285      -0.46735361
O       -1.67802850      -0.73683182       2.74852393    -112.96351543       0.00236834       0.01819855       0.01189105      -0.45110860
O       -4.89090602       2.75009870      -1.06947038    -113.06406071      -0.00173419      -0.00593323      -0.00752054      -0.44004173
O       -0.68177815      -0.93492747      -0.79587376    -112.54702383       0.00010868       0.00350341       0.00293147      -0.39052997
O        1.35079236       2.15703812       0.58186744    -113.33899876       0.00137354       0.00472551      -0.00183796      -0.45653576
C       -2.98072942       0.23999330       0.98566860     -59.18373906       0.00057904       0.00329814       0.00214776       0.08959941
C       -3.18370096       1.47350357       0.08061592     -59.05422704      -0.00068536      -0.00016450      -0.00255753       0.08722804
C       -1.67315611       0.31326893       1.82062569     -59.21334069       0.00067933       0.01009309       0.00195744       0.09073439
C       -4.63277473       1.52176946      -0.42414853     -59.21430802      -0.00094116      -0.00287630      -0.00178250       0.06119834
C       -0.27374880       0.39729642       1.14901078     -59.05737612       0.00026364       0.00668709       0.00111114      -0.00028574
C        0.01161392       1.72022055       0.40745530     -59.15006729       0.00146443       0.00457926      -0.00250008       0.06114845
H       -3.77512066       0.25463474       1.74333075     -12.87386998       0.00094005       0.00527433       0.00248882       0.06184637
H       -2.51076180       1.40052286      -0.79262557     -13.35891140      -0.00114747      -0.00341709      -0.00266121       0.00947414
H       -1.77530979       1.24130788       2.40161665     -12.95240719      -0.00105882       0.01548357      -0.00550180       0.05425378
H       -4.83540751       0.66346001      -1.07099634     -13.20685251      -0.00114989      -0.00601821       0.00241575       0.04195433
H       -5.31315476       1.49068797       0.42950936     -12.99494097      -0.00033582       0.00100400      -0.00114769       0.06318388
H       -2.36599963      -1.17768942      -0.19265194     -11.41498377      -0.00218328      -0.00518808       0.01635093       0.32337514
H       -3.57221610       3.30697082       0.52569669     -11.32112669      -0.00130328       0.00150545      -0.01002292       0.31824229
H       -0.10686315       1.60480774      -0.67396765     -13.22431423       0.00288103       0.00127314      -0.00241120       0.03780076
H       -0.68986027       2.48746858       0.74101211     -13.08103600       0.00113661       0.00587601      -0.00585755       0.05909476
H       -1.09074523      -1.44131894       2.42843024     -11.30932209       0.03737504       0.01481623       0.02344635       0.32836643
H        1.43439678       2.52266763       1.46887681     -11.55368917      -0.00002263       0.00743532      -0.00267934       0.29437074
H       -4.40135020       2.78107547      -1.89907144     -11.60805887      -0.00162262      -0.00961462      -0.00759011       0.29025499
O        2.08013476      -2.56548726      -1.63913555    -112.46729148      -0.00127236       0.00150595       0.00541068      -0.35922827
O        1.30023919      -3.38528973       0.28367147    -112.19038102      -0.00370661       0.00386222       0.00525227      -0.39591292
O        4.67292161      -1.48947172       0.26808154    -112.33160402      -0.00202288      -0.00081417       0.00490074      -0.42367007
N        0.06280393      -0.80674428       0.39783488     -79.39256429      -0.00084420       0.00458374       0.00354518      -0.05272751
N        4.03518347       0.63807600      -0.12311464     -80.90438510       0.00167270      -0.00014015       0.00174493      -0.27498584
C        1.46235974      -0.98973704       0.01977034     -58.73537848      -0.00087044       0.00355552       0.00362232       0.02929195
C        2.52319748      -0.75214271       1.10118664     -59.36397422      -0.00083623       0.00423486       0.00353378      -0.10878698
C        1.59422966      -2.45005646      -0.41072172     -58.81077089      -0.00194249       0.00325101       0.00464929       0.36944438
C        3.86429255      -0.60000793       0.38924250     -59.16031316      -0.00050639       0.00083671       0.00344620       0.28546268
H        1.70204900      -0.35477778      -0.85378520     -13.15545597      -0.00069144       0.00258992       0.00297707       0.03824599
H        2.32355914       0.16167691       1.65273040     -12.95323847       0.00004479       0.00603029       0.00108665       0.07399697
H        2.55054262      -1.58881738       1.79620032     -12.78824877      -0.00248966       0.00577008       0.00556548       0.09994563
H        0.73202865      -2.92653636       2.13830819     -11.68955397      -0.01106741      -0.01324525      -0.04894572       0.31088456
H        0.14880686      -2.88836319       3.58122652     -11.90103531       0.00903299      -0.07194356       0.00812893       0.28456349
H        3.32566495       1.34786599      -0.02887810     -12.11339820       0.00236028       0.00085783      -0.00017174       0.20459478
H        4.87234596       0.84575864      -0.64110194     -12.22058734       0.00172745      -0.00238441       0.00086415       0.19214330
H        2.21900285      -3.49734141      -1.87496987     -10.84799048      -0.00258890       0.00117238       0.00578959       0.34213802
O        0.60301726      -2.36762700       2.91749256    -114.60380129      -0.01231381      -0.02988874      -0.03062203      -0.59247809
H        0.39097612       0.35091260       2.01863772     -12.73967893       0.00033016       0.00806153       0.00123955       0.08170068
H       -0.37942178      -0.28462773      -1.45901482     -11.52304719      -0.01155461      -0.00261013       0.00937090       0.28746506
44
Properties=species:S:1:pos:R:3:energies:R:1:forces:R:3:charge:R:1 charge=0 multiplicity=1 source=products.log spin=1 energy=-2152.4420982922406 free_energy=-2152.4420982922406 dipole="-0.20860099163935367 0.4989232233227234 -0.18772297428930024" pbc="F F F"
O       -3.04101510      -0.87780681       0.22600499    -113.37583360       0.00437068       0.00161177       0.00071197      -0.45975209
O       -2.91257931       2.70574754       0.75819503    -113.27868666      -0.00059878       0.00144947      -0.00202747      -0.46212797
O       -1.75440832      -0.93183725       2.52870449    -113.32280694      -0.00156635      -0.00396603      -0.00451518      -0.48137903
O       -4.74858993       2.70499691      -1.27364414    -113.06745068       0.00391873      -0.00380449      -0.00768978      -0.43861845
O       -0.61552833      -0.64184669      -0.91578502    -112.74541448       0.00133410       0.00918812      -0.00281829      -0.43582073
O        1.35372437       2.24753958       0.77311023    -113.25197365       0.00024833       0.00334805       0.00570334      -0.45399957
C       -2.92989505       0.31606943       0.97059069     -58.97674732       0.00162894       0.00257692       0.00058909       0.09766346
C       -3.10203674       1.51074350       0.03470237     -59.16005685       0.00226261       0.00053026      -0.00140455       0.09210966
C       -1.64377311       0.29090546       1.83434617     -59.10605761       0.00115862       0.00053327       0.00122887       0.09452017
C       -4.51319561       1.50452866      -0.57406292     -59.22649908       0.00323720      -0.00183598      -0.00411163       0.06084822
C       -0.24173741       0.41740407       1.18627034     -59.00095663       0.00102551       0.00152223       0.00151961       0.00871040
C        0.04641650       1.76905077       0.49945747     -59.19416352       0.00113152       0.00223241       0.00287751       0.05843440
H       -3.75024780       0.34797820       1.70543260     -13.02227826       0.00098078       0.00365376       0.00002049       0.04230204
H       -2.36355988       1.44822181      -0.78041529     -13.13357569       0.00402536       0.00009869       0.00020829       0.03566033
H       -1.73033442       1.13059950       2.54230940     -13.13168006       0.00160930      -0.00156852       0.00435400       0.03601081
H       -4.64583354       0.62311860      -1.20809067     -13.19228165       0.00497827      -0.00357514      -0.00219941       0.04299629
H       -5.25434510       1.48283172       0.22868028     -13.00126340       0.00166993      -0.00006955      -0.00536569       0.06156856
H       -2.77657533      -1.57361205       0.85385315     -11.12608505      -0.01158546      -0.01139352       0.03339510       0.33542797
H       -3.53657203       3.35121932       0.39074062     -11.28986890       0.00131610       0.00123780      -0.00621563       0.31982168
H        0.00839972       1.62955262      -0.58397316     -12.98950537       0.00344081       0.00136531       0.00284156       0.06624097
H       -0.70050411       2.51062581       0.78938884     -13.18059708      -0.00017233       0.00156924       0.00145300       0.04897584
H       -0.87811594      -1.36954618       2.61499206     -11.28566999       0.00659057       0.00278823       0.00537234       0.33702210
H        1.36209676       2.62521864       1.65869795     -11.64046657      -0.00193960       0.00388802       0.00558304       0.28885947
H       -4.20080248       2.71974030      -2.06671198     -11.55737812       0.00533384      -0.00581109      -0.00684453       0.29440610
O        2.19421912      -2.54040703      -1.61179034    -112.30322459       0.00410755       0.00347291      -0.00021882      -0.34617458
O        1.17837997      -3.30602750       0.21527598    -112.40626780      -0.00454984       0.00322482      -0.00475558      -0.41688655
O        4.66727702      -1.47406632       0.23970799    -112.34728489      -0.00128118      -0.00201858      -0.00008078      -0.42745494
N        0.05515917      -0.74323780       0.35016696     -79.59592866      -0.00040319       0.00266320      -0.00091391      -0.07557349
N        4.06601831       0.65896513      -0.18655713     -80.86652697       0.00252451      -0.00108847      -0.00102089      -0.27170450
C        1.45629641      -0.92635347      -0.03727992     -58.77422060      -0.00046707       0.00299307      -0.00161988       0.03186728
C        2.52329155      -0.68636592       1.04037087     -59.36288297      -0.00033114       0.00197257      -0.00145853      -0.10926742
C        1.58025383      -2.38520812      -0.45472366     -58.83531579      -0.00067579       0.00344748      -0.00267730       0.37075472
C        3.86993875      -0.57035124       0.33527959     -59.18230791       0.00013946      -0.00066161      -0.00092435       0.28572500
H        1.67416740      -0.29818990      -0.91327307     -12.94681714      -0.00107183       0.00365948      -0.00106700       0.06409026
H        2.34185930       0.24947490       1.56144548     -12.94773710       0.00102885       0.00289535      -0.00253986       0.07542805
H        2.53761561      -1.50613256       1.75723962     -12.92521928      -0.00186947       0.00249476      -0.00076350       0.08562386
H        0.63793222      -2.79312552       1.89319855     -11.52252289      -0.00392370       0.00307287      -0.00943446       0.32639574
H        0.22313695      -3.21592881       3.32694610     -11.87846026       0.00049999      -0.01136933      -0.01008657       0.28554731
H        3.36419208       1.37735350      -0.10561491     -12.11228489       0.00351437      -0.00006438      -0.00178571       0.20524432
H        4.90050466       0.84463391      -0.71677890     -12.23141506       0.00274672      -0.00277240      -0.00127157       0.19196922
H        2.31343805      -3.48062355      -1.82549339     -10.85463862       0.00376317       0.00344692      -0.00038637       0.34181395
O        0.47822069      -2.45921485       2.79600550    -114.77521250      -0.00463326      -0.00421253      -0.00552427      -0.59961152
H        0.42860761       0.32055649       2.04767118     -12.93058319       0.00142904       0.00011603       0.00110584       0.06295560
H       -1.55275414      -0.85602807      -0.72018800     -11.38595003      -0.03494586      -0.01684140       0.02275749       0.32937707
44
Properties=species:S:1:pos:R:3:energies:R:1:forces:R:3:charge:R:1 charge=0 multiplicity=1 source=products.log spin=1 energy=-2152.547121784394 free_energy=-2152.547121784394 dipole="-0.02135717765501173 0.5272457284540697 -0.2877418995516751" pbc="F F F"
O       -2.91231761      -0.96373134       0.53312872    -113.37746097       0.00606982      -0.00378078       0.01391682      -0.45702197
O       -2.90136763       2.65951792       0.67741438    -113.28537776       0.00035721      -0.00211380      -0.00371490      -0.46338418
O       -1.46012221      -0.43174942       2.97562065    -113.28553768       0.01355480       0.02170934       0.01896559      -0.47699902
O       -4.73009298       2.42128991      -1.32136501    -113.06913238       0.00029417      -0.01392480      -0.00246096      -0.43881409
O       -0.62200274      -0.66615174      -0.78254208    -112.78500834      -0.00019787      -0.00066956       0.00575242      -0.43877795
O        1.45305709       2.32045043       0.62218003    -113.28784370       0.00421045       0.00362578      -0.00748329      -0.45550984
C       -2.82695615       0.30870828       1.14335450     -58.98941331       0.00470094      -0.00031598       0.00793906       0.09130886
C       -3.05674240       1.39037799       0.08178254     -59.15009777       0.00168151      -0.00552651       0.00233655       0.09121533
C       -1.51829046       0.51766402       1.94484481     -59.21288276       0.00577662       0.01013302       0.00488128       0.09077532
C       -4.46370575       1.28744371      -0.52635968     -59.23277451       0.00161022      -0.01006247       0.00306224       0.06061009
C       -0.15221984       0.56009750       1.21007848     -58.94281481       0.00402112       0.00680074       0.00081883       0.00894246
C        0.13165824       1.84687567       0.40992655     -59.18613684       0.00350713       0.00388376      -0.00432343       0.05960192
H       -3.63097468       0.39589237       1.89070651     -13.03743481       0.00553327       0.00195026       0.00862892       0.04313187
H       -2.31496776       1.27080368      -0.72383508     -13.11718545       0.00146357      -0.00823565       0.00244735       0.03748862
H       -1.63705116       1.48902883       2.43996507     -12.95777297       0.00429011       0.01564881      -0.00414232       0.05809465
H       -4.56532121       0.35626415      -1.09110948     -13.20180081       0.00244179      -0.01293391       0.00734954       0.04199858
H       -5.21040742       1.30826461       0.27083340     -12.99808523       0.00171716      -0.00692972       0.00311080       0.06221816
H       -2.66225046      -1.62423992       1.19773498     -11.14458533       0.00646678      -0.00209273       0.01531411       0.33346155
H       -3.55344732       3.24198033       0.25655434     -11.29144502      -0.00040315      -0.00481985      -0.00665633       0.31995333
H        0.06646557       1.62931691      -0.65887361     -13.00592782       0.00194860       0.00037612      -0.00363464       0.06486867
H       -0.59940416       2.61981803       0.65759708     -13.19301795       0.00427009       0.00525676      -0.00598867       0.04696344
H       -1.13912189      -1.29161509       2.62093378     -11.30710882      -0.01030104       0.00416991       0.00057378       0.33335849
H        1.49020784       2.73179909       1.49226310     -11.62473516       0.00572118       0.00531799      -0.00828038       0.28962419
H       -4.16531301       2.39892310      -2.10254023     -11.55946950       0.00059815      -0.01685253      -0.00221247       0.29426978
O        2.27168686      -2.34272015      -1.64731543    -112.34350369       0.00389360       0.00950429      -0.00167341      -0.34881459
O        1.11111183      -3.22868915       0.03177190    -112.38221290      -0.00389660       0.00413110      -0.00922057      -0.41437517
O        4.73959886      -1.43624055       0.28666213    -112.34230148       0.00289955       0.00026823       0.00317572      -0.42585262
N        0.10590216      -0.66632014       0.45628401     -79.65798243       0.00235913       0.00390622       0.00450265      -0.07750400
N        4.07800548       0.68385646      -0.11918801     -80.89137748       0.00169394       0.00011992       0.00399075      -0.27255754
C        1.48827593      -0.84622879       0.01250923     -58.76385975       0.00153452       0.00401719       0.00215492       0.03209198
C        2.57299118      -0.72308241       1.09073144     -59.30113925       0.00202810      -0.00179431       0.00252388      -0.10169810
C        1.58092008      -2.26741291      -0.52545209     -58.82706547      -0.00012464       0.00585354      -0.00361534       0.37167104
C        3.91682718      -0.55629122       0.38546443     -59.17538892       0.00225750      -0.00032097       0.00304684       0.28587641
H        1.70835941      -0.15690893      -0.81566619     -12.95257561       0.00197294       0.00698652       0.00459410       0.06262668
H        2.41135476       0.15591958       1.70989019     -12.99417809       0.00315567      -0.00424550       0.00681288       0.07029871
H        2.58702341      -1.61268319       1.72036047     -13.05068088       0.00124137      -0.00487373      -0.00134057       0.07109803
H       -0.06926267      -2.96532947       1.40269830     -11.52342796      -0.03139584      -0.00578042      -0.02257272       0.32794933
H       -0.16627481      -3.34088072       2.90145350     -11.89881868      -0.02051083      -0.00708253      -0.02089883       0.28454667
H        3.35048992       1.37916996      -0.04667914     -12.07819328       0.00083900      -0.00056643       0.00306722       0.20920860
H        4.90365896       0.89247128      -0.65477280     -12.21272747       0.00160862       0.00061679       0.00402334       0.19332643
H        2.37694712      -3.26509121      -1.93410825     -10.83690599       0.00310492       0.01037968      -0.00519677       0.34291978
O       -0.64083128      -2.90669940       2.19037612    -114.80414817      -0.04888903      -0.01770452      -0.02768626      -0.60312625
H        0.54982634       0.52853109       2.05079615     -12.92563652       0.00561028       0.00987449      -0.00025285       0.06183634
H       -1.52718030      -0.95123240      -0.52970770     -11.34194806       0.00128519      -0.00390376       0.00836514       0.33310001
44
Properties=species:S:1:pos:R:3:energies:R:1:forces:R:3:charge:R:1 charge=0 multiplicity=1 source=products.log spin=1 energy=-2152.6321234506054 free_energy=-2152.6321234506054 dipole="-0.19625900067130816 0.21195590786311694 -0.40477882806961885" pbc="F F F"
O       -2.77595600      -0.94529775       0.66602107    -113.55455719      -0.00399799      -0.00037171      -0.00321057      -0.48321092
O       -2.94794844       2.66119819       0.72096652    -113.27726835       0.00185454       0.00037250      -0.00194461      -0.46134436
O       -1.23879774      -0.25439259       3.09474007    -113.15260097      -0.00404754      -0.00353564      -0.00418261      -0.45766236
O       -4.73192746       2.05559061      -1.39175790    -113.07007014      -0.00419222       0.00889597       0.00490945      -0.44139365
O       -0.56474790      -0.61319160      -0.73098416    -112.83039711      -0.00343703       0.00306903       0.00112099      -0.44437708
O        1.50916709       2.40969130       0.48443165    -113.28144257      -0.00069948      -0.00172782      -0.00096230      -0.45370386
C       -2.71102115       0.32604420       1.27141391     -59.06010555      -0.00205096       0.00008270      -0.00354748       0.09318014
C       -3.03270022       1.36025062       0.18571179     -59.12011663      -0.00138563       0.00097900      -0.00274375       0.09164316
C       -1.38504068       0.62680714       2.00876952     -59.22334044      -0.00172487      -0.00240918      -0.00338920       0.08681394
C       -4.43384649       1.11262047      -0.38771394     -59.24379190      -0.00290347       0.00478392      -0.00038307       0.06045506
C       -0.05079866       0.66329699       1.21484916     -58.92996515      -0.00001321      -0.00299031      -0.00139802       0.00958794
C        0.18401049       1.91875918       0.35139061     -59.17649680      -0.00031514      -0.00261331      -0.00142675       0.06098759
H       -3.48756808       0.39075295       2.05006269     -13.05205967      -0.00177357       0.00096383      -0.00331302       0.04196779
H       -2.30140246       1.25246499      -0.63218216     -13.13194228      -0.00281912       0.00015650      -0.00390384       0.03424393
H       -1.51840495       1.61986109       2.45323389     -12.93005554      -0.00078062      -0.00262583      -0.00259136       0.06277944
H       -4.50500582       0.08460911      -0.75652811     -13.17273197      -0.00494410       0.00699783      -0.00435192       0.04427983
H       -5.17993723       1.26472856       0.39578684     -13.01727431      -0.00104726       0.00233388       0.00157036       0.06062794
H       -2.34563527      -1.61345356       1.24904470     -11.11096805      -0.00750892       0.00034093      -0.00135068       0.34466388
H       -3.57705863       3.20497533       0.22505936     -11.32758847       0.00046318       0.00134044       0.00099276       0.31698406
H        0.07522377       1.65828171      -0.70421705     -12.98234151       0.00016338      -0.00289821      -0.00136945       0.06745432
H       -0.54296175       2.69613775       0.60004676     -13.21580064      -0.00086321      -0.00298437      -0.00193071       0.04424615
H       -1.08873795      -1.15347466       2.75855542     -11.31643177       0.00248340      -0.00235838      -0.00472453       0.32596047
H        1.58935914       2.84542625       1.33971994     -11.60829059      -0.00187587      -0.00062360      -0.00145466       0.29072161
H       -4.17047388       1.88245673      -2.15612651     -11.58797346      -0.00610565       0.01184532       0.00324293       0.29291923
O        2.41766691      -2.44033941      -1.44542172    -112.34824380      -0.00012686       0.00022767      -0.00714865      -0.34928352
O        0.89177099      -3.16002795       0.00722178    -112.45534847       0.00700173      -0.00452971      -0.00381288      -0.41897817
O        4.87846419      -1.27341401       0.31305950    -112.31922543      -0.00311651      -0.00325087       0.00576727      -0.42426594
N        0.17586169      -0.59129520       0.50181631     -79.68445069      -0.00482850      -0.00578093      -0.00791644      -0.07996079
N        4.04753069       0.77813876      -0.12604206     -80.91086341       0.00018148      -0.00176373       0.00721744      -0.27583136
C        1.54355262      -0.83451702       0.04909360     -58.78344966      -0.00095623      -0.00351140      -0.00300268       0.03125576
C        2.65717206      -0.73638934       1.10223438     -59.27806736      -0.00417247      -0.00216015       0.00160002      -0.10007587
C        1.55775271      -2.26767106      -0.45940458     -58.80942651       0.00594161      -0.00330291      -0.00276698       0.37150927
C        3.98361930      -0.46488436       0.39257652     -59.17320154      -0.00225892      -0.00237399       0.00518431       0.28669085
H        1.77885156      -0.17394205      -0.79855483     -12.92255523       0.00110527      -0.00202289      -0.00143081       0.06463111
H        2.47632565       0.08589707       1.79121018     -13.00501253      -0.00664569      -0.00184972       0.00103052       0.06938116
H        2.72749066      -1.66147443       1.67497488     -13.05854033      -0.00522112      -0.00219515       0.00215799       0.07060253
H       -0.47589687      -2.86187565       1.19638781     -11.40697582       0.01112737      -0.00320957       0.00415854       0.33524670
H       -1.64326472      -3.73295163       1.72434840     -11.80318564       0.03844914       0.01065225       0.02782101       0.29047919
H        3.27400718       1.42454601      -0.05858155     -12.07113041       0.00021654      -0.00158186       0.00546971       0.21184830
H        4.86149328       1.04482793      -0.65367413     -12.22733896       0.00146580      -0.00192056       0.00917397       0.19243921
H        2.47963973      -3.37409068      -1.70512735     -10.83986335      -0.00225771       0.00079414      -0.01210632       0.34204992
O       -1.24690674      -2.86222619       1.79743763    -114.91418883       0.01684802      -0.00196329       0.00896661      -0.60257035
H        0.68840224       0.67520905       2.02347213     -12.93832324      -0.00067865       0.01097067      -0.00215602       0.06153993
H       -1.47258052      -0.87649607      -0.45291901     -11.30912120      -0.00455292       0.00174849      -0.00186458       0.33546781
44
Properties=species:S:1:pos:R:3:energies:R:1:forces:R:3:charge:R:1 charge=0 multiplicity=1 source=products.log spin=1 energy=-2152.604253326845 free_energy=-2152.604253326845 dipole="-0.8473020361715458 1.1057637569463297 0.4842328836201957" pbc="F F F"
O       -2.57303915      -0.89661075       0.56820616    -113.59766526       0.06152327       0.01975945      -0.03846911      -0.49114979
O       -2.96898632       2.66098750       0.69721047    -113.43629283      -0.00667633       0.00383363      -0.00541533      -0.46374109
O       -1.17162694      -0.16984777       3.07880409    -113.31511406       0.01493689       0.02821422      -0.00581566      -0.45585309
O       -4.74129646       2.04547373      -1.40753769    -113.09217883      -0.01313454       0.00799162       0.00498665      -0.43827335
O       -0.18422054      -1.22062748      -1.12247913    -113.28509399       0.12769557      -0.20596183      -0.12286386      -0.49751851
O        1.39466989       2.43055370       0.42402204    -113.09977440      -0.03624976       0.00458442      -0.01807832      -0.43351132
C       -2.70626480       0.31963665       1.24147171     -59.03028205      -0.00068492      -0.00019446      -0.01313253       0.09991402
C       -3.05148171       1.35810535       0.16924883     -59.08487160      -0.01009701       0.00432344      -0.00500705       0.09158787
C       -1.42379290       0.72612198       2.03041130     -59.28368902      -0.01473901       0.03137090       0.00458988       0.08783846
C       -4.44878158       1.10025512      -0.40644370     -59.26238691      -0.01172959       0.00461038      -0.00000655       0.06019077
C       -0.24516210       0.82300118       1.09763234     -57.78817928      -0.06274531       0.04798411      -0.03742663       0.03421662
C        0.05765340       2.00243248       0.22000388     -59.41130311      -0.03972617       0.02425738      -0.04085454       0.06152968
H       -3.51613406       0.27558345       1.98672370     -13.05758780      -0.01041426      -0.03732685      -0.02307908       0.04232863
H       -2.32163528       1.23892787      -0.64911783     -13.12342728      -0.01399664       0.00123039      -0.00811703       0.03309664
H       -1.62309025       1.70074134       2.48528230     -12.70414286      -0.03424063       0.02671171       0.00587023       0.08482518
H       -4.50545956       0.07250187      -0.77756252     -13.12708747      -0.01051261       0.00596397      -0.00276918       0.04913198
H       -5.20005442       1.24639096       0.37337313     -12.99005734      -0.00952149       0.00174971       0.00244569       0.06212099
H       -2.25587091      -1.61900811       1.17351232     -11.15059154       0.03128437       0.00287262      -0.03557814       0.34105178
H       -3.60461303       3.19877235       0.20211157     -11.20252558      -0.01027949       0.00332543      -0.00088524       0.32243233
H        0.00043065       1.72929677      -0.83647889     -12.66300191      -0.02365660       0.02006653      -0.04103286       0.09334253
H       -0.65261540       2.80537605       0.43223791     -12.90554055      -0.03481946       0.03205055      -0.05263376       0.07139515
H       -1.26489004      -1.09811056       2.78213604     -11.12970342      -0.06045971       0.01885953       0.00649438       0.33610557
H        1.47493516       2.82572706       1.29977944     -11.44884232      -0.03703220      -0.00910810      -0.01119331       0.29755815
H       -4.19224147       1.86259011      -2.17888896     -11.50941195      -0.02163503       0.00582012      -0.00031260       0.29693326
O        1.87209225      -2.09652027      -1.51773741    -112.86345896      -0.16229161       0.09880230      -0.01368728      -0.44734571
O        0.68210023      -2.86092019       0.24128422    -114.03992506      -0.05786218       0.09372151       0.08447013      -0.63140683
O        5.05474110      -1.29685796       0.18707467    -112.18537069       0.05353800      -0.00657279      -0.04552383      -0.41446315
N        0.62137695      -0.13659089       1.18777836     -79.31622241       0.13879834       0.13756456       0.21338068      -0.02473486
N        4.16051514       0.74681121      -0.12434374     -80.89374940       0.03439035      -0.00792481       0.00049358      -0.27660733
C        1.60977346      -0.54469479       0.31161162     -58.37887740       0.02007564       0.08949765       0.08255894      -0.01372050
C        2.86675195      -0.86891356       1.09452366     -59.34285451       0.06636052      -0.04206421      -0.00388955      -0.09796828
C        0.91729311      -1.88708782      -0.53476002     -59.63473208      -0.19435598       0.11366366      -0.01787717       0.44610699
C        4.13362824      -0.52969900       0.32414187     -59.15072357       0.04611228      -0.01900924      -0.02397689       0.29234274
H        1.76013604       0.12891753      -0.52624066     -12.82336919      -0.00741242       0.09395168       0.08548258       0.08639433
H        2.86835288      -0.23420839       1.98680259     -13.09794809       0.12406065      -0.10304540       0.06129840       0.05402245
H        2.88113379      -1.91275087       1.40743143     -12.91121646       0.05069801      -0.07981677      -0.08769395       0.08765321
H       -0.46113337      -2.81339905       1.23275326     -11.42540529       0.00768787       0.01722683       0.01310212       0.34661003
H       -1.62002017      -3.62240830       1.90464900     -11.95706065       0.01196955       0.04297748       0.06838802       0.28439044
H        3.37000762       1.36691428      -0.05129843     -12.17537332       0.02959962      -0.01617024       0.00447472       0.19811391
H        4.94006949       1.03465465      -0.69063440     -12.22314009       0.02229977      -0.00042119      -0.01246320       0.19295886
H        2.15566689      -3.01985678      -1.47750848     -11.30511391      -0.07953889       0.11606962       0.09459443       0.32766895
O       -1.24908003      -2.73858891       1.88850113    -115.27796842       0.00053144       0.04537480       0.02749384      -0.65237073
H        0.51855450      -0.70008436       2.03185615     -11.49104843      -0.06125618      -0.44419745      -0.00679933       0.23452625
H       -0.98964992      -1.28182064      -0.57514134     -11.41194403       0.18350586      -0.17261684      -0.08554233       0.32227679
44
Properties=species:S:1:pos:R:3:energies:R:1:forces:R:3:charge:R:1 charge=0 multiplicity=1 source=products.log spin=1 energy=-2152.8115293083656 free_energy=-2152.8115293083656 dipole="-0.6442951073039856 1.1970994589392836 0.2372187689891026" pbc="F F F"
O       -2.64290948      -0.79538493       0.36399671    -113.26318953       0.00141453       0.00017901      -0.00266376      -0.46827096
O       -2.97504239       2.74531177       0.77560784    -113.45046589      -0.00161347      -0.00097574       0.00169149      -0.46576747
O       -1.38889738      -0.18575694       3.07915939    -113.29013966       0.00209359      -0.00226167      -0.00273935      -0.46160562
O       -4.90636844       2.38248267      -1.20713378    -113.09068063      -0.00427814      -0.00009726       0.00468761      -0.43826747
O        0.02237958      -1.65434918      -1.10834881    -113.30217219      -0.00001604       0.00932985       0.00430102      -0.49499285
O        1.38303352       2.36785348       0.56882510    -113.09213696      -0.00386490       0.00155173      -0.01100592      -0.43019116
C       -2.78434223       0.34656955       1.14286109     -59.07964975       0.00073024      -0.00102053      -0.00113191       0.09981099
C       -3.13777143       1.48220888       0.17102985     -59.06994824      -0.00165130      -0.00037662       0.00065419       0.09123261
C       -1.52417339       0.69406840       2.00622559     -59.32349262       0.00106820      -0.00104872      -0.00173240       0.08891526
C       -4.57758036       1.32563123      -0.33534725     -59.24974146      -0.00222220      -0.00096942       0.00270649       0.06027347
C       -0.29429424       0.73647327       1.14548927     -57.79230031       0.00111860      -0.00004979      -0.00157611       0.06534096
C        0.04863020       1.95822551       0.33536858     -59.40680615      -0.00323937      -0.00277930      -0.00733824       0.06000891
H       -3.59965333       0.22908744       1.87827528     -13.01357353       0.00142831      -0.00296323      -0.00067108       0.04269067
H       -2.45698957       1.39274517      -0.69194050     -13.12947943      -0.00297906       0.00106198      -0.00051412       0.03311342
H       -1.70909151       1.68651568       2.43184320     -12.63303164       0.00061647      -0.00158770      -0.00048230       0.08941261
H       -4.69415805       0.34595819      -0.80716032     -13.13235086      -0.00214169      -0.00035534       0.00154006       0.04928510
H       -5.27124289       1.40843299       0.50509972     -12.98720007      -0.00108928      -0.00273762       0.00374904       0.06209740
H       -2.21767525      -1.52592981       0.86814989     -11.17199927       0.00124507      -0.00044700      -0.00307555       0.34318225
H       -3.64079806       3.32628678       0.37717613     -11.21520150      -0.00280021      -0.00106024       0.00349100       0.32202781
H       -0.00794310       1.72322566      -0.73201686     -12.64260965      -0.00400755      -0.00790100      -0.00620270       0.09407092
H       -0.65935342       2.76203063       0.55957192     -12.85054402      -0.00466754      -0.00334852      -0.00984955       0.07586263
H       -1.43618121      -1.11707787       2.76085952     -11.16024303       0.00059033      -0.00195172      -0.00339170       0.33832970
H        1.45445598       2.70124777       1.47065657     -11.40585415      -0.00365844       0.00732552      -0.01323490       0.30001488
H       -4.43137897       2.26316295      -2.03741131     -11.52470865      -0.00490826       0.00178987       0.00412474       0.29558999
O        2.15509446      -2.36770311      -1.23609201    -113.08449748      -0.00092380       0.00586741      -0.00110948      -0.47917556
O        0.91922081      -2.89600825       0.59588283    -114.24507114      -0.00018147       0.00126342      -0.00174281      -0.66747599
O        4.92177502      -1.33100525      -0.10725285    -112.21250102       0.00431790      -0.00469988       0.00821537      -0.41591052
N        0.51200639      -0.26846206       1.17077455     -79.16331243       0.00423579       0.00413546       0.00451065      -0.01002271
N        4.12227530       0.76401547      -0.32490633     -80.89107326       0.00633897      -0.00459997       0.00267438      -0.27420165
C        1.57469113      -0.58247638       0.30714939     -58.53060950       0.00457345       0.00165544       0.00404306      -0.00412937
C        2.88926898      -0.75976807       1.06238885     -59.28531966       0.00357168      -0.00075877       0.00454055      -0.09736753
C        1.13813808      -2.03650301      -0.33580558     -59.69062356       0.00048487       0.00467277       0.00095715       0.43557620
C        4.07923056      -0.50336622       0.14372161     -59.15005007       0.00455153      -0.00365747       0.00521521       0.29176252
H        1.64863554       0.12149587      -0.51748546     -12.92452602       0.00561139       0.00148071       0.00430478       0.07544503
H        2.93939186      -0.04472986       1.88720649     -13.14836361       0.00474442      -0.00062124       0.00417894       0.05362586
H        2.94757858      -1.77293946       1.46620397     -12.90364906       0.00145589      -0.00077685       0.00483703       0.08780220
H       -0.38387974      -2.77781573       1.29337713     -11.42065613      -0.00024152       0.00087541      -0.00236279       0.34906643
H       -1.50617285      -3.44847963       2.19487271     -12.05833207      -0.00758187      -0.00381421      -0.01590362       0.27790778
H        3.38377548       1.42519684      -0.14764499     -12.16423427       0.00603387      -0.00404749      -0.00128538       0.19831570
H        4.83636812       1.00656730      -0.99086973     -12.20105528       0.00685955      -0.00717869       0.00240682       0.19436022
H        2.79465901      -2.93571882      -0.79026042     -11.42706657      -0.00560048       0.00002042      -0.00634742       0.32289533
O       -1.24380428      -2.59327698       1.85372694    -115.26400091      -0.00238614      -0.00177323      -0.00530127      -0.66249788
H        0.29780996      -1.04538893       1.80893875     -11.28919607       0.00740780       0.00776535       0.00906751       0.25778918
H       -0.20997464      -2.40148625      -1.67036066     -11.47987202      -0.01043971       0.01488487       0.01776526       0.31407072
44
Properties=species:S:1:pos:R:3:energies:R:1:forces:R:3:charge:R:1 charge=0 multiplicity=1 source=products.log spin=1 energy=-2152.8118634220073 free_energy=-2152.8118634220073 dipole="-0.45203626607906755 0.18568252303534363 -0.36837030940547555" pbc="F F F"
O       -2.61281976      -0.79469883       0.41263409    -113.42715565       0.01377477       0.00164689       0.01814577      -0.47674774
O       -2.96630292       2.76024729       0.76002761    -113.28846129       0.00240385       0.00722047      -0.00487923      -0.46129902
O       -1.42088235      -0.15952275       3.11310400    -113.06791307      -0.01529408       0.01052828       0.01361085      -0.45194365
O       -4.89670758       2.36183943      -1.21391336    -113.06444384      -0.00158654      -0.00593417       0.00366374      -0.43970285
O       -0.28915856      -1.52794043      -1.03502399    -114.20347147      -0.13986283       0.05982928       0.03583112      -0.56511539
O        1.43779893       2.36404896       0.58836476    -113.13341285       0.02164334      -0.00144839      -0.00019682      -0.44411785
C       -2.74982246       0.37989895       1.16365993     -59.04799028       0.01554425       0.01499441       0.00783474       0.09427460
C       -3.11170637       1.49012027       0.16919028     -59.09490328       0.00942830       0.00482282      -0.00010189       0.09523264
C       -1.48833341       0.71240715       2.02482805     -59.32655733       0.01638255       0.00740711       0.00693042       0.08835195
C       -4.55131967       1.31509444      -0.33514223     -59.23524674       0.00848932      -0.00323475       0.00359131       0.06095248
C       -0.22580304       0.68922072       1.18733825     -58.13570520       0.03175675      -0.02244151       0.01829565       0.08229429
C        0.10523956       1.92625303       0.36872343     -59.26737465       0.02307683      -0.01786420       0.00945297       0.05542966
H       -3.57044178       0.27272327       1.89223954     -13.07804288       0.01385028       0.01750326       0.00521828       0.03851681
H       -2.42913303       1.39930374      -0.69285668     -13.17052280       0.00840657       0.00563284      -0.00127537       0.02960125
H       -1.65049742       1.71278347       2.43740509     -12.87846750       0.02695131       0.01092486       0.00139071       0.07021564
H       -4.66351158       0.33206241      -0.80221949     -13.18616282       0.00998449      -0.00371547       0.00364146       0.04320544
H       -5.24501593       1.39692298       0.50545014     -13.01126976       0.01023964      -0.00605727       0.00534518       0.06050168
H       -2.30604749      -1.51590002       0.99608072     -11.20790228      -0.04019119       0.00487159       0.05305950       0.33663197
H       -3.63635526       3.33111166       0.35533791     -11.30784070      -0.00118015       0.00277079      -0.00486977       0.31823786
H        0.04626288       1.67980049      -0.69646384     -12.96925528       0.02112631      -0.02749959       0.01150146       0.06635289
H       -0.60899453       2.72646789       0.58566297     -13.14262347       0.01893339      -0.02007902       0.00401295       0.05095651
H       -1.24234321      -1.05852043       2.77737508     -11.28228257       0.08828174       0.02553096       0.00537471       0.33087730
H        1.50055235       2.68002430       1.49637864     -11.59679396       0.01763291      -0.00422659       0.00079757       0.29324828
H       -4.40302815       2.25699280      -2.03518712     -11.57224341       0.00542985       0.00309517       0.00655578       0.29365415
O        2.33937184      -2.25186547      -1.12160688    -112.41218436       0.08733431       0.05465502       0.05531572      -0.36375989
O        1.11506019      -3.00145952       0.58411386    -112.92576816       0.09237003      -0.04733573      -0.00297733      -0.47310189
O        4.91643702      -1.27506677      -0.01877763    -112.31250651       0.00044182       0.02149484       0.04650991      -0.42559789
N        0.46519375      -0.36830727       1.23576668     -79.99549126      -0.01820665      -0.04453695       0.03309019      -0.22786871
N        4.12121446       0.81537755      -0.30588147     -80.87337063       0.00482696       0.01948234       0.00918658      -0.27261501
C        1.61287425      -0.62495407       0.41579027     -58.86607431       0.02094020      -0.01842399       0.05332207       0.03536570
C        2.93795019      -0.62217302       1.20191543     -59.14126702       0.02552073       0.06394407       0.06777482      -0.09124037
C        1.55812563      -2.07258165      -0.06715515     -58.82208072       0.19546427      -0.01537462       0.12609032       0.37828485
C        4.09741654      -0.42130613       0.23271198     -59.19187655       0.01197802       0.03487885       0.04435749       0.28722738
H        1.67878905       0.03460106      -0.45749342     -12.99088016       0.01762958      -0.03879802       0.03110914       0.06053437
H        2.93098117       0.16808471       1.94867500     -13.06731591       0.00036876       0.10007089       0.03027591       0.06597141
H        3.05258797      -1.58478745       1.70327091     -13.00447529       0.05002501       0.08805247       0.11454754       0.07382487
H       -0.33895322      -2.77797413       1.47659932     -11.38975184       0.02087961      -0.00039913       0.08235651       0.33938281
H       -1.45481703      -3.51020929       2.28004854     -11.83880572       0.01772182      -0.03075205       0.02708997       0.28825136
H        3.38038143       1.47656478      -0.13258274     -12.12370643       0.00393959       0.02041006       0.00439684       0.20553842
H        4.81353426       1.02881930      -1.00385428     -12.22631826      -0.00515657       0.00311151      -0.00643874       0.19254601
H        2.58896779      -3.18361317      -1.19780347     -10.91221359      -0.09259471      -0.11197078      -0.18524049       0.34123217
O       -1.24166884      -2.67861152       1.85501582    -115.03453286      -0.00042085      -0.03944224      -0.00494505      -0.61725054
H       -0.56161968      -1.38422800      -0.09939622     -11.30709169      -0.38981341      -0.15177841      -0.87053980       0.33352425
H       -0.66471364      -2.34588399      -1.36794833     -11.68010911      -0.20847019       0.02843411       0.14178732       0.30014177
44
Properties=species:S:1:pos:R:3:energies:R:1:forces:R:3:charge:R:1 charge=0 multiplicity=1 source=Step1_IM2alluasp-rep.log spin=1 energy=-2153.333678104128 free_energy=-2153.333678104128 dipole="-0.35528924200224943 0.10031355264856148 -0.6102662725785775" pbc="F F F"
O       -2.56075147      -0.90897405       0.68549668    -113.59132146       0.01147244      -0.00068131      -0.00657539      -0.48593929
O       -2.93561954       2.67613129       0.70903993    -113.27918911      -0.00169323      -0.00166446       0.00260494      -0.46157302
O       -1.29327855      -0.05619612       3.26206861    -113.04227424       0.00110593       0.00829970       0.00035616      -0.44804110
O       -4.69572071       2.08036679      -1.35775367    -113.06864693      -0.00511563      -0.00281906       0.00054312      -0.44018388
O       -0.83066123      -0.79431141      -1.48589255    -114.72794224      -0.00688115      -0.00296572      -0.01759827      -0.61618768
O        1.50068886       2.28679137       0.58137435    -113.16469471       0.00522087       0.00273617       0.00938714      -0.44585006
C       -2.67514745       0.34709366       1.30596017     -59.00894841       0.00166284      -0.00342774      -0.00272755       0.09436801
C       -2.99516602       1.36300736       0.20194371     -59.13371534      -0.00418146      -0.00112519       0.00075129       0.09073019
C       -1.40126000       0.73436394       2.11677355     -59.33648389      -0.00024356       0.00280734      -0.00329511       0.08967489
C       -4.38172212       1.09662567      -0.39852400     -59.23538890      -0.00535221       0.00002321       0.00359989       0.06134691
C       -0.18220149       0.63042871       1.22958930     -58.15653946       0.00039798       0.00216341      -0.00343836       0.08248726
C        0.17266207       1.82935220       0.36433639     -59.26669136       0.00597148       0.00408258       0.00139811       0.05225622
H       -3.50129052       0.33473385       2.03351825     -13.05191021       0.00113978      -0.01120392      -0.00342813       0.04349804
H       -2.24706299       1.24578440      -0.59954680     -13.12062224      -0.00688706      -0.00073371      -0.00157044       0.03525452
H       -1.54228058       1.76390109       2.45928884     -12.90193727      -0.00382515       0.00396839      -0.00875580       0.06788967
H       -4.41420897       0.08716914      -0.82009606     -13.19265118      -0.00808005      -0.00110421       0.00639731       0.04192761
H       -5.14366372       1.18648233       0.37895064     -13.01454295      -0.00371230       0.00395842       0.00486964       0.06089687
H       -2.17743488      -1.55258394       1.32427101     -11.10122094       0.01734922      -0.00007277      -0.00890577       0.34796665
H       -3.58778627       3.19267896       0.21209032     -11.31555294      -0.00426703       0.00057109       0.00862674       0.31807534
H        0.13226644       1.52226231      -0.68580239     -12.89148057       0.00818368       0.00921304      -0.00029272       0.07557446
H       -0.54399620       2.63811916       0.53053450     -13.16593503       0.00589628       0.00407775      -0.00024802       0.04858244
H       -1.04131147      -0.95718342       2.99117617     -11.23792278      -0.00344491       0.00568006       0.00524873       0.33453019
H        1.54281299       2.68144122       1.45899651     -11.60096192       0.00283027      -0.00324383       0.01244389       0.29285859
H       -4.10633060       1.97704806      -2.11397866     -11.56715105      -0.00160534      -0.00096168       0.00285700       0.29427270
O        2.29095432      -2.26158502      -1.16505643    -112.36394775       0.00173643      -0.00649816       0.00200271      -0.35268137
O        0.89942846      -3.02644116       0.39293696    -112.47121209      -0.00010119      -0.00628075       0.00420568      -0.41993144
O        4.97202436      -1.20570116       0.26583932    -112.32033764      -0.00515064      -0.00492463      -0.00391522      -0.42615492
N        0.44328991      -0.46444199       1.25909976     -79.92684268      -0.00354852      -0.00101477      -0.00717928      -0.21795661
N        4.09475582       0.80369566      -0.26336701     -80.87929399      -0.00153685       0.00017594       0.00502078      -0.27321816
C        1.59402234      -0.70253942       0.44125745     -58.96348891      -0.00213140      -0.00326154      -0.00362207       0.03488251
C        2.88122754      -0.56329627       1.28454875     -59.14177007      -0.00374923      -0.00361473      -0.00050009      -0.08984631
C        1.53358418      -2.11965438      -0.09015486     -58.81855308       0.00230759      -0.00228247      -0.00120823       0.37059689
C        4.09531537      -0.38050428       0.38138815     -59.19685424      -0.00455209      -0.00133073       0.00015073       0.28644110
H        1.65402606      -0.03652776      -0.42791462     -12.87226201       0.00128445      -0.00506642      -0.00506772       0.06951267
H        2.77854630       0.31194403       1.92682844     -13.02436239      -0.00473200      -0.00488314       0.00101209       0.06846059
H        3.01683533      -1.44450780       1.91160153     -13.04476679      -0.00327383      -0.00387075      -0.00081137       0.07188218
H       -0.38916388      -2.73124180       1.62296844     -11.42664303       0.00882763       0.01451125       0.00648498       0.33508209
H       -1.38496391      -3.61730791       2.42270211     -11.83225158       0.00298729       0.01003460      -0.00519268       0.28837946
H        3.33441399       1.45833003      -0.16003735     -12.09670039       0.00033988       0.00218699       0.00795332       0.20910571
H        4.83109979       1.00388877      -0.91884225     -12.23305048      -0.00066924       0.00256991       0.00675946       0.19196068
H        2.30656305      -3.18297566      -1.47055273     -10.87595179       0.00421991      -0.00593165       0.00169363       0.33971402
O       -1.18088892      -2.70821118       2.19630063    -114.88896039       0.00788720       0.01164252       0.00528124      -0.60472589
H       -1.42500428      -0.88757105      -0.71837168     -11.75620805      -0.00142734       0.00631678      -0.01238499       0.31006770
H       -1.06885909      -1.49871747      -2.09058746     -12.02649560      -0.00465974      -0.01605580      -0.00293136       0.27401360
