44
Properties=species:S:1:pos:R:3:energies:R:1:forces:R:3:charge:R:1 charge=0 multiplicity=1 source=products.log spin=1 energy=-2153.2952201587354 free_energy=-2153.2952201587354 dipole="-0.09165958556544657 1.199163853013986 -1.1962553929440292" pbc="F F F"
O       -3.41709874      -0.94438985       0.20809388    -113.21463006      -0.01607989       0.00155673       0.00606739      -0.45664952
O       -3.04952011       2.63031749       0.85571967    -113.31270456      -0.00181587       0.00189397      -0.00286268      -0.46327302
O       -1.68078498      -1.05981155       2.30619860    -113.06353587      -0.00403556      -0.00257770      -0.00786218      -0.43855485
O       -5.05376266       2.76152772      -1.06487890    -113.07351901      -0.00235108       0.00386767      -0.00148920      -0.43940500
O       -1.02050358      -0.29494028      -0.74254756    -113.36526261      -0.02025361       0.02045694       0.01042585      -0.47129991
O        1.19549006       1.88102549       0.86446678    -113.15503769      -0.01042488      -0.01518172       0.02717148      -0.44729383
C       -3.13127917       0.22175636       0.93346980     -59.15459204      -0.00726467       0.00324505       0.00139982       0.09179135
C       -3.35268142       1.48493624       0.09008295     -59.12123173      -0.00486360       0.00163674      -0.00110653       0.08484377
C       -1.72234678       0.12713184       1.55942362     -59.07202503      -0.00263564      -0.00322629      -0.00957926       0.08397469
C       -4.80941300       1.54980481      -0.38735750     -59.22942948      -0.00478464       0.00405271      -0.00058451       0.06101398
C       -0.55196034       0.18920872       0.51528582     -58.99394829      -0.01400049      -0.01149183      -0.02783046       0.18627326
C       -0.08536278       1.67314160       0.30140963     -59.03680748       0.00059385      -0.00903649      -0.00654298       0.04841896
H       -3.84357799       0.23406643       1.76679556     -12.90355996      -0.00245947       0.00885218       0.00585976       0.06178372
H       -2.68923254       1.44844767      -0.79034570     -13.20820465      -0.00501518      -0.00150332      -0.00106664       0.02820564
H       -1.58965268       0.93930420       2.27738105     -12.94204212       0.01110572      -0.00253000      -0.01154802       0.06448799
H       -5.03963216       0.67718566      -1.00645800     -13.19583002      -0.00647539       0.00404514       0.00002816       0.04199639
H       -5.47442694       1.55520307       0.47931239     -12.98846787      -0.00477898       0.00590704      -0.00048047       0.06311320
H       -2.71979143      -1.02958677      -0.46296015     -11.35362321      -0.02208713       0.00176377      -0.00082138       0.32171753
H       -3.67921684       3.31657722       0.58764297     -11.28961309      -0.00066856       0.00291389      -0.00268411       0.31880065
H       -0.05483530       1.86808184      -0.78131590     -13.27111948       0.02647911      -0.00243801      -0.00614963       0.02585579
H       -0.82052647       2.34510762       0.74864211     -13.15963250      -0.00751715      -0.00949669      -0.01901360       0.04909705
H       -1.98532672      -1.77416531       1.72617604     -11.25730546      -0.02905468       0.00187097       0.00134715       0.32382895
H        1.31971187       2.82657848       0.99283278     -11.56832223      -0.02274594      -0.03219982       0.02857765       0.29384854
H       -4.57863089       2.75323368      -1.90347639     -11.57816391      -0.00093393       0.00274441      -0.00075244       0.29193966
O        2.22276968      -2.18361924      -1.66313086    -112.71435715      -0.00192047       0.00041814       0.01227516      -0.38756502
O        1.28961354      -3.26360501       0.05569830    -111.95717518      -0.01916915      -0.03696926       0.02865984      -0.38157084
O        4.80316292      -1.90093473       0.17604332    -112.30152674       0.01276183       0.00247461      -0.01151852      -0.42403575
N        0.45756452      -0.69986459       0.99012086     -80.50979521       0.01912484       0.00178740       0.03677272      -0.26575121
N        4.50452521       0.28740805      -0.25421359     -80.83795134       0.00877226       0.00194923      -0.00200735      -0.27118005
C        1.67207841      -0.86807176       0.22839586     -58.92759991       0.00966185      -0.00205918       0.01364355       0.03574882
C        2.89641561      -0.79363365       1.15572728     -59.32821233       0.01930286       0.00006690       0.00317869      -0.10514681
C        1.69176669      -2.24790689      -0.43263856     -58.90005776       0.01928298       0.04882111      -0.00964138       0.35077948
C        4.16742214      -0.88477989       0.33167157     -59.17327810       0.01139904       0.00580901      -0.00372420       0.28720382
H        1.77176221      -0.11434717      -0.56473359     -13.09847993      -0.00066150       0.00240711       0.01530439       0.04842743
H        2.85037828       0.15201193       1.69581630     -12.94401725       0.02190217      -0.00250634       0.00543321       0.07836509
H        2.84934476      -1.62300081       1.86147748     -12.89228227       0.02543600       0.00007749       0.00071227       0.08820119
H        0.61914330      -0.63276170       1.98785171     -12.11371765       0.00300247      -0.01640495      -0.09405419       0.20384032
H        0.73023175      -2.75510333       3.50996732     -11.96823037      -0.00402635       0.02792315      -0.03133150       0.28189706
H        3.95110790       1.11513421      -0.12377166     -12.24149285       0.01190705       0.00157820       0.00686312       0.18835499
H        5.31378611       0.32498175      -0.85039196     -12.21438976       0.00542492       0.00440570      -0.00478634       0.19249440
H        2.34749821      -3.07420052      -2.02891039     -10.96401515      -0.00360769       0.00389558       0.00689561       0.33674209
O        0.60517839      -1.84501679       3.78737484    -114.51383826       0.00770138       0.03511583      -0.00737712      -0.59578426
H       -0.27800582      -1.59066003       3.48385436     -11.75173498       0.01086699      -0.03750578       0.04225231       0.30763847
H       -0.26263978      -0.63060557      -1.23540016     -11.43445959      -0.00509386      -0.01640928       0.01194655       0.30682578
