44
Properties=species:S:1:pos:R:3 charge=0 multiplicity=1 source=products.log spin=1 pbc="F F F"
O       -3.22341636      -1.03085057       0.10802782
O       -2.90617364       2.51211559       0.98728671
O       -1.63191711      -1.13957431       2.38135634
O       -4.89116699       2.81325084      -0.89333865
O       -0.96616708      -0.32932414      -0.82047694
O        1.35552678       1.88797457       0.60946718
C       -3.04083629       0.09960718       0.90794791
C       -3.20807339       1.42122098       0.14110575
C       -1.68586928       0.03403542       1.61389282
C       -4.64881550       1.53267086      -0.35801520
C       -0.51502355       0.07913693       0.55561699
C       -0.00507838       1.57596665       0.36381831
H       -3.81215853       0.04691965       1.68241161
H       -2.52331846       1.43541505      -0.72150627
H       -1.63571827       0.84916295       2.34821266
H       -4.84936081       0.73182834      -1.07548843
H       -5.32683995       1.42946177       0.49171354
H       -2.43225210      -1.10850799      -0.45804598
H       -3.53731574       3.21312302       0.76097776
H       -0.16120472       1.75945927      -0.70146941
H       -0.65946260       2.26701137       0.90383441
H       -1.78534063      -1.88002149       1.77441848
H        1.46153400       2.32294563       1.46166699
H       -4.40716825       2.90296236      -1.72179454
O        2.18935150      -2.37298339      -1.88199915
O        1.20605381      -3.53025503      -0.24804578
O        4.79643451      -1.61935289       0.25047542
N        0.29184209      -1.01938818       0.85243353
N        4.06227096       0.50077820      -0.02545538
C        1.49035050      -1.14237573       0.03796611
C        2.61620810      -1.03276893       1.05653608
C        1.58654480      -2.48395419      -0.68719453
C        3.94153171      -0.77856562       0.39910931
H        1.60837046      -0.36360488      -0.73683588
H        2.36215406      -0.19490219       1.70458463
H        2.59199060      -1.95206109       1.63538910
H        0.29144373      -1.29982942       1.91427377
H        0.55197615      -1.27997069       4.28675485
H        3.30545564       1.16158918       0.05975176
H        4.90757027       0.77827228      -0.49145679
H        2.35228543      -3.25410908      -2.26146467
O        0.98709696      -0.91244262       3.50592618
H        0.51388249      -0.24219849       2.93292511
H       -0.24845458      -0.23670043      -1.46089153
