47
Properties=species:S:1:pos:R:3:energies:R:1:forces:R:3:charge:R:1 energy=-2288.078440433926 free_energy=-2288.078440433926 dipole="0.08696178438280731 0.9243654547137587 0.3671739629741747" pbc="F F F"
O       -2.73378810       0.21385006      -1.39376315    -113.01711074       0.02149499       0.00306446       0.00402813      -0.44505078
O       -2.67583283       1.18196353       2.04129634    -113.30833435       0.00454701      -0.00239269       0.00480748      -0.46308824
O       -1.52531629      -2.14234853       0.15507854    -113.02737312       0.01813070      -0.00543237       0.03232608      -0.45901752
O       -5.07219479       2.47426058       1.42060831    -113.05816713       0.00519003      -0.00565069      -0.00079891      -0.43975088
O       -0.00536785      -0.43757677      -1.42790685    -113.30807798       0.01343822      -0.00014426       0.01472076      -0.46372878
O        1.24219700       1.84289546      -0.20235218    -113.14688756       0.01666786      -0.00672389       0.01880480      -0.45837807
C       -2.74434370      -0.11257260      -0.03033353     -59.14011016       0.01292384      -0.00154195       0.00300377       0.09433738
C       -3.15853677       1.16759328       0.71753314     -59.13744782       0.00866678      -0.00262602       0.00349072       0.08928885
C       -1.43504234      -0.77021377       0.47289990     -59.08953251       0.00972411       0.00032031       0.01414320       0.08931209
C       -4.68824451       1.30923522       0.72471333     -59.24685052       0.00852749      -0.00452766      -0.00072251       0.05910379
C       -0.10853103      -0.17383034      -0.03866748     -58.84493200       0.01144433      -0.00287557       0.01562209       0.18237103
C       -0.01100637       1.34864268       0.19690008     -59.32929309       0.01403711      -0.00281627       0.01466358       0.04359033
H       -3.50697661      -0.88639182       0.16478514     -12.98187133       0.01149635      -0.00187095      -0.00413061       0.04470991
H       -2.74298550       2.02595396       0.16545389     -13.05790586       0.00964970      -0.00205666       0.00504344       0.03998519
H       -1.43678701      -0.66604886       1.56769728     -12.97969598       0.00351511       0.00924254       0.01286144       0.05265231
H       -5.06600881       1.30331518      -0.30242477     -13.19371157       0.01123892      -0.00418890      -0.00175122       0.04234193
H       -5.13124417       0.47764127       1.27821311     -13.00851666       0.00827778      -0.00559698      -0.00246298       0.06121543
H       -2.33380571      -0.52090498      -1.87495824     -11.37168062       0.02293748       0.00501153       0.00253947       0.31961660
H       -3.32275228       1.68681510       2.55730728     -11.28904523       0.00184788      -0.00430442       0.00329497       0.31890480
H       -0.24152220       1.56792418       1.24304847     -13.30824954       0.01076685      -0.00058222       0.01360523       0.03143950
H       -0.73801826       1.84189846      -0.45202437     -12.71470955       0.01713531      -0.00221807       0.01146939       0.09372999
H       -0.74031291      -2.45145810      -0.32530990     -11.44420554      -0.00422962       0.00574683      -0.00559785       0.32436674
H        1.88509071       1.70982911       0.51442354     -11.41990282       0.01220305      -0.00586928       0.02319025       0.31405505
H       -4.81364682       3.24553881       0.90321702     -11.56833798       0.00556581      -0.00485824       0.00066094       0.29408093
O        2.44827676      -2.09443784      -2.29809771    -112.50895625       0.00572658       0.00903368       0.01108212      -0.36278642
O        1.00430244      -3.11832488      -0.93472152    -112.44787527      -0.01104988      -0.01830515       0.00314491      -0.42469038
O        5.32259148      -2.07979038      -0.60544079    -112.27963295       0.00635455      -0.00798490       0.00673704      -0.41929348
N        0.99509023      -0.82551416       0.70379276     -81.21939378       0.00784018      -0.00730740       0.01593893      -0.30981542
N        4.88638671       0.03714613       0.04081699     -80.91687102       0.00674727      -0.01025015       0.01590892      -0.27339438
C        2.14327552      -1.14811474      -0.13785145     -58.83245066       0.00822395      -0.00758837       0.01435151       0.03059319
C        3.33022079      -1.66022106       0.69620661     -59.33736641       0.00754289      -0.01195067       0.01173298      -0.10692448
C        1.78769564      -2.22898792      -1.15784061     -58.85083060       0.02646630       0.02312109       0.00064017       0.35958701
C        4.62623238      -1.28616714      -0.01894089     -59.16403862       0.00645881      -0.00913713       0.01177916       0.28603688
H        2.45648081      -0.24302917      -0.66812871     -12.85593924       0.01012216      -0.00346861       0.01968451       0.07550202
H        3.31467138      -1.18720244       1.67646507     -12.86823657       0.00964432      -0.01682561       0.01435364       0.08222167
H        3.27683251      -2.74187225       0.81922916     -13.08062568       0.00653691      -0.01287346       0.00669780       0.06990195
H        0.65684411      -1.69140060       1.11977304     -12.38799766       0.00459519      -0.00896495       0.00975915       0.17177451
H        0.77989811       0.03255110      -1.75200152     -11.17112479       0.00827607       0.01121766       0.01735718       0.33072775
H        4.32891501       0.65946101       0.60253296     -12.05924392       0.00756979      -0.01204412       0.01904158       0.20733071
H        5.71226037       0.39428100      -0.40914688     -12.19022357       0.00487236      -0.00771042       0.01414672       0.19495833
H        2.26315994      -2.83120131      -2.90292371     -10.88449751       0.00721637       0.01602124       0.00232918       0.34159101
O        2.60799571       1.13986391       2.08305980    -114.90021163      -0.00161672      -0.01921834       0.02689997      -0.59324889
H        1.93554738       0.44303746       1.98565569     -11.44568577       0.00225526      -0.02146448       0.01531766       0.31536517
H        2.29995739       1.75535407       2.75115228     -11.73579417      -0.00458757      -0.03262285       0.03754795       0.29107646
O       -0.11479522       2.10778733      -2.58391490    -114.32211060       0.15720684       4.68364590      -1.62303133      -0.74951336
H       -0.13347161       1.19466367      -2.28818469     -10.81423982      -0.41392046       1.24440853      -0.60642828       0.38159745
H       -0.08857970       3.38951367      -2.99902320      -9.81314431      -0.11767823      -5.73684008       1.77219685       0.33531515
47
Properties=species:S:1:pos:R:3:energies:R:1:forces:R:3:charge:R:1 energy=-2291.923188875131 free_energy=-2291.923188875131 dipole="-0.44352433875686104 1.222240710910098 0.3679164156281834" pbc="F F F"
O       -2.56346544       0.31625201      -1.39219245    -113.36410928       0.01985570       0.01248149       0.00056647      -0.46783973
O       -2.68667878       1.19617691       2.05329664    -113.29641688      -0.00201704       0.00182892       0.00181775      -0.46030315
O       -1.43644551      -2.11318640       0.36164325    -113.03048268       0.01091264       0.00408638       0.02584174      -0.45396846
O       -5.11052022       2.40811754       1.42744279    -113.05972526      -0.00569249      -0.00871445       0.00101380      -0.43798662
O        0.00788656      -0.47687847      -1.38305495    -113.36767773       0.00107924      -0.00525324       0.00507335      -0.47980597
O        1.21933446       1.93307651      -0.23671216    -113.28399847      -0.00322281       0.01143994      -0.00599403      -0.46188940
C       -2.67289925      -0.07395311      -0.04062388     -59.07664282       0.00842907       0.00481903      -0.00091399       0.08896080
C       -3.15211958       1.17627227       0.72602671     -59.10881323       0.00023191       0.00108482       0.00133038       0.09272378
C       -1.38944933      -0.71988438       0.54594709     -59.12956023       0.00554111       0.00668581       0.00907366       0.08241489
C       -4.68468303       1.26836920       0.71585945     -59.24968139      -0.00010877      -0.00536409      -0.00104653       0.05915326
C       -0.06336687      -0.15428460      -0.01178947     -58.92975807       0.00538437       0.00264189       0.00284244       0.18365965
C        0.01064231       1.37174125       0.20028039     -59.33509336       0.00245400       0.00316062      -0.00051869       0.05145457
H       -3.44145488      -0.85730122       0.05894926     -13.01645365       0.00803827       0.00339515      -0.01232479       0.04482307
H       -2.76241503       2.06152068       0.19439815     -13.12744760      -0.00299644       0.00439654       0.00383675       0.02966323
H       -1.41790487      -0.54315050       1.62753372     -12.91884880       0.00266075       0.01590692       0.00737721       0.06270723
H       -5.05187817       1.26942263      -0.31562858     -13.21980753       0.00139682      -0.00442068      -0.00164910       0.03887955
H       -5.10617436       0.41365795       1.24983847     -12.98769415       0.00266121      -0.00840368      -0.00368779       0.06356257
H       -2.12292788      -0.40451215      -1.86501137     -11.29674361       0.02707995       0.01542136       0.00184509       0.32413327
H       -3.36303716       1.65701902       2.57279936     -11.25797142      -0.00588233      -0.00388132       0.00215605       0.32031871
H       -0.18989399       1.58705846       1.25500638     -13.25315872       0.00679643       0.00284906       0.00058300       0.03435550
H       -0.77277024       1.83226265      -0.40149291     -13.00375164      -0.00482172      -0.00103434       0.00557010       0.05777113
H       -0.83318909      -2.38382838      -0.35053576     -11.39654195      -0.01218983       0.00839050      -0.00238385       0.32759964
H        1.89718104       1.76626591       0.44202916     -11.33918347       0.00129337       0.00800323      -0.01085519       0.32178442
H       -4.86001620       3.19840370       0.93509718     -11.55536352      -0.00679680      -0.00625553       0.00425463       0.29341166
O        2.45401386      -2.01802232      -2.30427335    -112.44177458      -0.00027842       0.00996011      -0.00151457      -0.36168366
O        0.99936687      -3.06941068      -0.97487889    -112.44255148      -0.00052414       0.00551714      -0.00504514      -0.42961907
O        5.36572908      -2.10341722      -0.56213221    -112.26804562       0.00587228      -0.00300037       0.00524268      -0.42052387
N        1.03916964      -0.79888650       0.73461096     -81.22934499       0.00538773       0.00369955       0.00309543      -0.30767737
N        4.93320028      -0.00252974       0.13477506     -80.89917911       0.00569175      -0.00514975       0.01244267      -0.27415896
C        2.17191862      -1.13363778      -0.12546696     -58.83740236       0.00344867       0.00193769       0.00093825       0.03168918
C        3.34306917      -1.69901748       0.69777304     -59.34363334       0.00128466      -0.00489724      -0.00021660      -0.10654969
C        1.78335325      -2.17400248      -1.17230670     -58.89777819      -0.00033560       0.00717165      -0.00246527       0.36527689
C        4.65805669      -1.31982516       0.02467621     -59.17838380       0.00350649      -0.00321738       0.00605027       0.28688828
H        2.48853362      -0.22808540      -0.65051644     -12.85033087       0.00424992       0.00187380       0.00160562       0.07766667
H        3.32340641      -1.27295119       1.70018689     -12.91809679       0.00036326      -0.01108843       0.00265940       0.07687184
H        3.27010585      -2.78417204       0.77354081     -13.08164197      -0.00113288      -0.00530984      -0.00648575       0.06987129
H        0.68823987      -1.66932007       1.13492956     -12.33113249       0.00386021       0.00328257       0.00153596       0.17813702
H        0.37880371       0.27807060      -1.88125881     -11.14538202      -0.05061883       0.02780284      -0.01677534       0.34454700
H        4.35660639       0.61165717       0.68605402     -12.08314103       0.00320939      -0.00596617       0.01126639       0.20649805
H        5.76639224       0.36155282      -0.29518628     -12.21963023       0.00701495      -0.00387650       0.01561722       0.19305675
H        2.24526093      -2.72567060      -2.93465440     -10.95716206      -0.00315128       0.01355769      -0.00480572       0.33773943
O        2.59960791       1.13527468       2.04677671    -114.92988608      -0.00054469       0.00043247      -0.00634320      -0.60201419
H        1.97436867       0.40125543       1.88274256     -11.48691902       0.00524967      -0.00408539      -0.01440970       0.31457934
H        2.29834317       1.60307659       2.82752324     -11.82443272       0.00106423      -0.01833087       0.00790270       0.28543891
O       -0.06526338       1.81037554      -2.97001280    -114.49220929       0.00451905      -0.03787748      -0.04288808      -0.57737948
H       -0.96119790       1.62904865      -2.66953451     -11.68927643      -0.09620257       0.05244114      -0.04628204       0.30150258
H        0.16997151       2.69340627      -2.67457150     -11.77092891       0.03797952      -0.08814155       0.04506635       0.29425947
47
Properties=species:S:1:pos:R:3:energies:R:1:forces:R:3:charge:R:1 energy=-2292.0907177167524 free_energy=-2292.0907177167524 dipole="-0.3914560243490466 1.2924244205086712 0.3067416250281487" pbc="F F F"
O       -2.62780436       0.34485710      -1.29541174    -113.34515100      -0.00411402      -0.00269148       0.00348967      -0.47227881
O       -2.80034313       1.14533609       2.17858497    -113.28211909      -0.00386942      -0.00243009       0.00412585      -0.46037628
O       -1.35740141      -2.03650722       0.59235839    -112.99433170       0.00235208       0.00144052       0.00617677      -0.44615496
O       -5.26338870       2.25603023       1.52908656    -113.05632512      -0.00294949      -0.00168803       0.00059069      -0.43837028
O       -0.10742471      -0.52015713      -1.40397886    -113.48583908      -0.00382145       0.00000311      -0.00022651      -0.49254458
O        1.16292379       2.01514977      -0.42266867    -113.44082165      -0.00032916       0.00141626      -0.00038138      -0.46759193
C       -2.68726095      -0.06957397       0.04960624     -59.11569524      -0.00110258      -0.00122829       0.00383081       0.08738664
C       -3.22654182       1.14416635       0.83802781     -59.09895393      -0.00178009      -0.00142752       0.00348864       0.09237328
C       -1.36255852      -0.63277783       0.62768635     -59.14801837       0.00049271       0.00169582       0.00265281       0.07848194
C       -4.75982065       1.17341468       0.78039427     -59.24908421      -0.00161268      -0.00115650       0.00081772       0.05980991
C       -0.07865467      -0.09956348      -0.05671118     -58.90339985      -0.00097731       0.00143848      -0.00057388       0.18463667
C       -0.02233032       1.43721204       0.06998357     -59.32409734      -0.00130115       0.00168945      -0.00247843       0.04818028
H       -3.40870517      -0.89701753       0.14951478     -13.02455498       0.00031061      -0.00218109       0.00591868       0.04359819
H       -2.84838087       2.05465619       0.34186587     -13.13894580      -0.00055906      -0.00138207       0.00461889       0.02942122
H       -1.33921186      -0.36230920       1.68834373     -12.87354673       0.00212576       0.00378621       0.00208993       0.06937068
H       -5.09091068       1.20554314      -0.26260610     -13.20958886       0.00026426      -0.00051323       0.00031826       0.04019522
H       -5.15769878       0.27514627       1.25847465     -12.99578463      -0.00246587      -0.00138458      -0.00049363       0.06249276
H       -2.02332794      -0.25506660      -1.76105201     -11.31232247       0.00067825       0.00158590       0.00416487       0.32537083
H       -3.52488445       1.52779545       2.69617616     -11.27785466      -0.00490330      -0.00349907       0.00333472       0.31972466
H       -0.18806177       1.70032598       1.11921843     -13.22233257      -0.00338807       0.00304431      -0.00316222       0.03783233
H       -0.83943936       1.84992904      -0.52469478     -12.98252299      -0.00008406       0.00078594      -0.00474940       0.06243835
H       -0.97855431      -2.34461259      -0.24654716     -11.40147809      -0.00332015       0.00022701       0.00392478       0.32356305
H        1.86747739       1.87729149       0.23502764     -11.25730645      -0.00144112       0.00125575       0.00082320       0.32810628
H       -5.03387111       3.07957899       1.08362585     -11.56647111      -0.00221090      -0.00148691       0.00151249       0.29309577
O        2.30389773      -1.92197422      -2.42254729    -112.46227096      -0.00526940       0.00270097      -0.00242623      -0.36464040
O        0.98822331      -3.05787602      -1.01680824    -112.38212027      -0.00198419      -0.00126396      -0.00054617      -0.42528259
O        5.41482196      -2.07582566      -0.46083006    -112.28758094      -0.00089480       0.00221652      -0.00067216      -0.42325678
N        1.05919965      -0.70675675       0.66219972     -81.25051522       0.00023595       0.00225578      -0.00194686      -0.30751963
N        4.93856052      -0.02472455       0.34453428     -80.94180360      -0.00013106       0.00085946       0.00161384      -0.27917759
C        2.16672020      -1.10571860      -0.20636367     -58.83729669      -0.00080090       0.00129872      -0.00247766       0.03142667
C        3.29053595      -1.73968538       0.63745521     -59.32325362      -0.00112854       0.00034912      -0.00268175      -0.10522412
C        1.72262605      -2.13136115      -1.24768164     -58.91414059       0.00004171       0.00379958      -0.00345566       0.36582038
C        4.66067145      -1.32387972       0.11053306     -59.19334981       0.00027956      -0.00023572      -0.00151854       0.28580663
H        2.53484276      -0.22344969      -0.73835940     -12.91044570      -0.00019897       0.00085987      -0.00284864       0.07248036
H        3.19794231      -1.40943514       1.67245864     -12.97233810      -0.00190471      -0.00120111      -0.00227218       0.07067848
H        3.21343356      -2.82723547       0.61359403     -13.05142759      -0.00098445       0.00037907      -0.00427584       0.07273536
H        0.71226188      -1.55407806       1.11557291     -12.25516917       0.00068479       0.00262298      -0.00079905       0.18508964
H        0.20817579       0.19532733      -2.00831152     -11.15215034       0.00040700      -0.00278372      -0.00136489       0.34590454
H        4.30549879       0.57072774       0.85665116     -12.04844696      -0.00056546       0.00004233       0.00135152       0.21220184
H        5.81461930       0.35054320       0.02299626     -12.24489086       0.00032579       0.00044267       0.00305817       0.19104617
H        2.05842240      -2.60973796      -3.06104362     -10.98126069      -0.00579346       0.00312103      -0.00333159       0.33622296
O        2.63412999       1.24451451       1.82703308    -114.99504310      -0.00135748       0.00097674      -0.00044716      -0.60626417
H        2.02504117       0.49264272       1.66038987     -11.46791970      -0.00071363       0.00064232      -0.00143661       0.31563495
H        2.43079889       1.59281959       2.69655652     -11.82489588      -0.00119131      -0.00078503       0.00033556       0.28511254
O        0.38104682       1.58415811      -3.03778202    -114.63749472       0.01749864      -0.00676799      -0.00200311      -0.58119980
H       -0.48117185       1.99399430      -3.14144480     -11.75299468       0.02173208       0.00296516      -0.01483085       0.29295798
H        0.85068672       2.07157017      -2.34520455     -11.49736264       0.01571907      -0.00979469       0.00316252       0.32068534
47
Properties=species:S:1:pos:R:3:energies:R:1:forces:R:3:charge:R:1 energy=-2291.979937818742 free_energy=-2291.979937818742 dipole="-0.3379553794380693 1.4270321777748594 0.17423055321311398" pbc="F F F"
O       -2.79010074       0.01247903      -1.26441803    -113.36322474       0.00559522       0.01547543      -0.00548319      -0.47879162
O       -2.62453678       1.30574338       2.08460156    -113.33872768      -0.00442685      -0.00515783       0.00621984      -0.46323372
O       -1.41174865      -2.15137614       0.57389684    -112.95783082       0.00085674       0.00210468       0.00127326      -0.43937444
O       -5.01086842       2.58064208       1.35744759    -113.06244443      -0.00738888      -0.00553837       0.00648205      -0.43921111
O       -0.18499629      -0.60532839      -1.39519846    -113.52076295       0.00301084      -0.00277408       0.00151023      -0.49240153
O        1.21652534       1.86866503      -0.21408032    -113.37614627      -0.00906267       0.00801290      -0.01068851      -0.46561217
C       -2.73634432      -0.16844005       0.13171490     -59.15787574       0.00050443       0.00272658      -0.00328625       0.08728929
C       -3.12613761       1.18046537       0.77532901     -59.07034903      -0.00354698      -0.00064659       0.00508780       0.09015154
C       -1.40426193      -0.74983686       0.66011948     -59.17038978      -0.00042821       0.00215151      -0.00050984       0.07976847
C       -4.65098306       1.34651908       0.77832187     -59.24598869      -0.00394806      -0.00427274       0.00468753       0.05964652
C       -0.12192484      -0.21400903      -0.03191360     -58.89422602      -0.00015692       0.00212351       0.00016137       0.18165145
C       -0.03388850       1.32020501       0.11681139     -59.33947669      -0.00517669       0.00248710      -0.00219924       0.04976268
H       -3.49618948      -0.91257384       0.42196486     -12.98213793      -0.00019084      -0.00192270      -0.01028281       0.04749364
H       -2.70836703       1.98733737       0.14926125     -13.17659137      -0.00545547       0.00422091       0.00861710       0.02477602
H       -1.35375827      -0.51904139       1.72838942     -12.88201254      -0.00266451       0.00319930      -0.00047501       0.06945936
H       -5.03358085       1.24344426      -0.24212105     -13.19353527      -0.00263586      -0.00354919       0.00395119       0.04216777
H       -5.10146522       0.57977139       1.41236747     -13.00166900      -0.00271613      -0.00653849       0.00331764       0.06222725
H       -1.99590111      -0.39984660      -1.64794651     -11.31898931       0.00871065      -0.00674368      -0.00016007       0.32811695
H       -3.25901962       1.85582068       2.56811821     -11.27830614      -0.00555826      -0.00802393       0.00876756       0.31914539
H       -0.32458891       1.58227750       1.13866107     -13.17093976       0.00005810       0.00167065      -0.00021119       0.04289688
H       -0.75601029       1.76227996      -0.57209640     -13.04873364      -0.01244157      -0.00118917       0.00204350       0.05229351
H       -1.22124579      -2.41152858      -0.33917694     -11.39919919       0.01609550       0.00046581       0.00064559       0.31876685
H        1.80465179       1.73671616       0.55092110     -11.28437566      -0.00378780       0.01078657      -0.01379947       0.32662855
H       -4.73808183       3.29419698       0.76938734     -11.57551087      -0.00895176      -0.00380154       0.00731287       0.29217810
O        2.50486813      -1.68522927      -2.44536775    -112.49055231      -0.00823942      -0.00095740       0.00054146      -0.36835267
O        1.32364558      -3.09059096      -1.16648709    -112.23902121      -0.01175189       0.00594851       0.00466899      -0.41263703
O        5.31794341      -2.05747747      -0.66112886    -112.26828065       0.00134666      -0.00086306      -0.00000875      -0.42065307
N        1.00626371      -0.85625102       0.65177780     -81.15955472       0.00115768       0.00632633       0.00361188      -0.29918359
N        5.03872349       0.02150404       0.16071828     -80.86631676      -0.00135354      -0.00095521       0.00028594      -0.27151739
C        2.18483743      -1.05340353      -0.18957144     -58.85087658      -0.00054789       0.00194289       0.00134532       0.02976794
C        3.34801290      -1.59734374       0.66061318     -59.36789124      -0.00049752      -0.00197594      -0.00117514      -0.10852559
C        1.92861815      -2.06159087      -1.30762967     -58.93142464      -0.00907346       0.00106282       0.00289881       0.36343305
C        4.67060422      -1.26672629      -0.01699393     -59.17701290      -0.00060074      -0.00022780       0.00008680       0.28713286
H        2.45927642      -0.09882198      -0.64625841     -12.88762071       0.00118425       0.00084426       0.00004439       0.07632328
H        3.32412013      -1.13364744       1.64587957     -12.91192906       0.00098783      -0.00552766       0.00072356       0.07797582
H        3.25208995      -2.67808024       0.77005387     -13.03991760      -0.00115827      -0.00236327      -0.00467543       0.07393489
H        0.69151569      -1.77838632       0.96096730     -12.25447500       0.00191504       0.00752358       0.00848104       0.18651256
H        0.16368476       0.10461761      -1.97665801     -11.20314966      -0.01383439       0.01069295      -0.00395175       0.34236867
H        4.49525516       0.65226326       0.72403712     -12.14877577      -0.00184816      -0.00134957       0.00067852       0.19795275
H        5.88716424       0.35306806      -0.26601928     -12.20869905      -0.00108490      -0.00001929       0.00117287       0.19351153
H        2.40558331      -2.36592901      -3.12927482     -11.00126901      -0.01645103       0.00033815       0.00048801       0.33575779
O        2.27362690       1.04474591       2.25425693    -114.91576466       0.00046083       0.00821286      -0.01333489      -0.60657206
H        1.74087245       0.28131329       1.95181383     -11.54538990       0.00617286       0.00537416      -0.01967137       0.31144259
H        1.88717719       1.35129612       3.07627290     -11.87355743      -0.00271826      -0.00229036      -0.00985022       0.28272552
O        0.11819116       1.56252776      -3.04571431    -114.54589573       0.05317164      -0.03764257      -0.00937991      -0.57198063
H       -0.78591318       1.84635436      -3.19922269     -11.70797790       0.01451813       0.02855906      -0.00073764       0.29527742
H        0.56147221       2.23461189      -2.51852388     -11.57514180       0.03195053      -0.02792008       0.02477560       0.30950971
47
Properties=species:S:1:pos:R:3:energies:R:1:forces:R:3:charge:R:1 energy=-2291.7681610428017 free_energy=-2291.7681610428017 dipole="0.15337541423036496 1.0701716799022538 0.017207627855387927" pbc="F F F"
O       -3.02163662      -0.51300148      -1.07994888    -113.17090358       0.00231244       0.00333085      -0.00428411      -0.45776985
O       -2.55884291       1.45425680       1.94985905    -113.34862883       0.00078098       0.00116256      -0.00232437      -0.46581055
O       -1.38125300      -2.20521430       0.66149179    -112.92866247       0.00440015       0.00118558       0.00002854      -0.43509383
O       -4.88126281       2.71367154       1.11491679    -113.06534301       0.00081458       0.00273081      -0.00565735      -0.43984687
O       -0.31247698      -0.53371770      -1.40752302    -113.41127023       0.01630748      -0.01617857       0.01367134      -0.47743068
O        1.35680954       1.72702528      -0.00688622    -113.35583033      -0.00608616       0.00688554      -0.00597524      -0.46953416
C       -2.77968611      -0.29852078       0.28437562     -59.22742847       0.00245422       0.00137377      -0.00327545       0.08759055
C       -3.07734543       1.16383446       0.67045388     -59.11848011       0.00068168       0.00144442      -0.00233221       0.08185934
C       -1.39375348      -0.80266665       0.73453710     -59.14148159       0.00211431       0.00114476      -0.00004053       0.08434974
C       -4.59271749       1.41000692       0.66294521     -59.23741438       0.00052703       0.00136320      -0.00236867       0.06044772
C       -0.14584183      -0.24756901      -0.01732809     -58.87397598       0.00473037       0.00043797       0.00664342       0.17669615
C        0.03370878       1.28095828       0.17320490     -59.36674323      -0.00377433       0.00109630       0.00445323       0.03954548
H       -3.49853142      -0.93364297       0.82122638     -12.88998544       0.00247539       0.00044909      -0.00387978       0.05950423
H       -2.61747783       1.83340469      -0.07459787     -13.17241341      -0.00070836       0.00265609      -0.00245870       0.03111368
H       -1.27530657      -0.55533379       1.79335456     -12.91793739      -0.00003628       0.00278289      -0.00039849       0.06502965
H       -4.99507121       1.22038864      -0.33692138     -13.19262753       0.00007102      -0.00085511      -0.00184331       0.04292035
H       -5.07552084       0.73813692       1.37677147     -13.01172712       0.00053596       0.00347333      -0.00044401       0.06067625
H       -2.20333751      -0.31830445      -1.56256206     -11.38052334       0.00423527      -0.00275349      -0.00351805       0.32134576
H       -3.16788684       2.09417323       2.34982378     -11.28829538       0.00211739       0.00294864      -0.00281192       0.31933936
H       -0.34895777       1.56554265       1.15647235     -13.20150559       0.00568312      -0.00300916       0.01072301       0.04215964
H       -0.55220714       1.78932561      -0.59578105     -12.89499816      -0.02163553      -0.00486815       0.01121150       0.07489051
H       -1.58844978      -2.45666665      -0.24948535     -11.38016035       0.01657678       0.00003995      -0.00472269       0.31811078
H        1.84973770       1.54183774       0.81235395     -11.35199887      -0.00156091       0.00218872      -0.00863487       0.32171247
H       -4.57273798       3.34797593       0.45764049     -11.56364624       0.00079269       0.00111167      -0.00747743       0.29471972
O        2.59079216      -1.61665536      -2.52228381    -112.68594645      -0.01700208       0.00206652       0.00552534      -0.38446067
O        1.54520553      -3.16738708      -1.29420275    -112.08825111      -0.01170283       0.00439135       0.01434724      -0.39505570
O        5.27284453      -2.01819847      -0.75510509    -112.31732524       0.00613206      -0.00011526      -0.00554727      -0.42486248
N        0.98090224      -0.96372850       0.56632913     -81.05997862       0.01085177       0.01101719       0.02148174      -0.29555181
N        5.05787222       0.04473264       0.12316972     -80.86509292       0.00508437      -0.00128877      -0.00269610      -0.27065847
C        2.17914091      -1.07332458      -0.25373987     -58.88155625       0.00492310       0.00294882       0.01063285       0.02884425
C        3.34900548      -1.55353965       0.62786193     -59.36670996       0.00934345      -0.00437893       0.00121908      -0.10997979
C        2.04833184      -2.08338464      -1.39083677     -58.89045583      -0.00921404       0.00443989       0.01002757       0.35566256
C        4.66089356      -1.23248119      -0.06991110     -59.17469337       0.00658548      -0.00161765      -0.00291884       0.28652252
H        2.41775157      -0.09485001      -0.68035689     -12.91401271       0.00813737       0.00161929       0.00851899       0.07397586
H        3.30286231      -1.03720546       1.58453878     -12.86580438       0.01542766      -0.01003017       0.00500567       0.08350264
H        3.26626054      -2.62858495       0.78873309     -13.02450459       0.00893156      -0.00539947      -0.00486932       0.07528707
H        0.66294464      -1.90838564       0.79254961     -12.25197288       0.01257933       0.01160706       0.02838949       0.18830421
H        0.41351936      -0.11363034      -1.88301254     -11.48827574       0.01057810       0.03041466       0.01603526       0.30534348
H        4.53681495       0.67632231       0.70581000     -12.15101157       0.00564174      -0.00288923      -0.00034537       0.19677679
H        5.90327063       0.36880797      -0.31527267     -12.20445739       0.00377610       0.00065171      -0.00392044       0.19339962
H        2.63252608      -2.31277984      -3.19722325     -10.99825147      -0.02566744       0.00174344       0.00431289       0.33529759
O        2.24809020       0.88891295       2.49768637    -114.81271740      -0.00923577      -0.01454542      -0.00803284      -0.58869214
H        1.62296666       0.17401494       2.30195364     -11.50022589       0.00271096      -0.02524031      -0.02987283       0.31230801
H        1.91565068       1.37111331       3.25752457     -11.74916969      -0.03087394      -0.02929513      -0.00306825       0.29036541
O       -0.65404466       2.33662437      -2.75793483    -114.41386436      -0.01572058      -0.00402123      -0.00838122      -0.57291958
H       -0.66950605       1.52258360      -3.26545918     -11.81529064      -0.00969465       0.01468388      -0.04962042       0.28683167
H        0.25076116       2.65852927      -2.75130882     -11.75661154      -0.01540102       0.00309607       0.00949292       0.29323352
47
Properties=species:S:1:pos:R:3:energies:R:1:forces:R:3:charge:R:1 energy=-2291.0712998945182 free_energy=-2291.0712998945182 dipole="0.2248150944794675 0.976457657843505 0.3135311503108203" pbc="F F F"
O       -3.07064649      -0.74082822      -0.89118426    -113.30431570      -0.24428835       0.03299592      -0.03653539      -0.47476820
O       -2.60407522       1.49950948       1.95471231    -113.34197004       0.00353325      -0.01215526      -0.02290033      -0.46640403
O       -1.40714997      -2.22429588       0.82895127    -112.99023005       0.05897013       0.10010830      -0.12855584      -0.43704732
O       -4.89795701       2.69174552       0.99447893    -113.06997716      -0.01516977       0.02835414      -0.01438164      -0.44000018
O       -0.62775360      -0.25366963      -1.57688159    -113.64268181       0.21423274      -0.33979615       1.04929320      -0.52770955
O        1.47402511       1.60636471       0.15336620    -113.25338991       0.25397509      -0.00632049       0.11127285      -0.47063923
C       -2.81305677      -0.37036342       0.43294996     -59.21138817      -0.06428589       0.02660821      -0.05600291       0.09280607
C       -3.08725880       1.11810143       0.68346305     -59.14180089      -0.02280958       0.02476617      -0.02499397       0.08100305
C       -1.40560248      -0.81652251       0.83815710     -59.05914153       0.03302053       0.10992547      -0.30317351       0.08548563
C       -4.59768750       1.36957922       0.61340455     -59.23739013      -0.01837674       0.02930516      -0.00940865       0.06125676
C       -0.22522876      -0.25261461      -0.07338578     -58.63911771      -0.10891509       0.09112927      -0.70318796       0.15988679
C        0.10985865       1.26580642       0.14848405     -59.30934966       0.03293008       0.31089292      -0.43278016       0.03182438
H       -3.51553271      -0.95173458       1.04658368     -12.95579732       0.02986866       0.02021112       0.05990693       0.05299008
H       -2.57974766       1.71018725      -0.09504506     -13.15694611      -0.00962709       0.02497477      -0.01373052       0.03473674
H       -1.24319010      -0.54621129       1.89076502     -12.90489702       0.25586517       0.19395753      -0.33094776       0.06738282
H       -4.96607566       1.12919987      -0.38852497     -13.19883836      -0.02003891       0.01892864      -0.00673116       0.04222676
H       -5.10367565       0.73011440       1.34163182     -13.01667722      -0.00988351       0.02641669      -0.00557233       0.05963641
H       -2.29932467      -0.45101898      -1.41594488     -11.31748685      -0.18857377      -0.08464381      -0.02076319       0.33449585
H       -3.23370915       2.15405847       2.29584896     -11.30870415       0.02184939      -0.00294073      -0.00569585       0.31838794
H       -0.44186398       1.63191372       1.01839143     -13.29349874       0.23417943      -0.04993249       0.10893635       0.03714370
H       -0.15793673       1.87534345      -0.74467454     -12.44666137      -0.69806503      -0.63065498       0.72365812       0.11287461
H       -1.86886632      -2.50242232       0.02446499     -11.36093090      -0.02493600      -0.02905636      -0.04707312       0.31712440
H        1.88750420       1.49566979       1.01835285     -11.51656491       0.02250623      -0.22179082       0.24986825       0.30979329
H       -4.55442253       3.29253965       0.32350283     -11.55509299      -0.00044713       0.02168825      -0.01279242       0.29560840
O        2.80684557      -1.60813091      -2.64814227    -112.60137644       0.00637798      -0.01015230      -0.03687924      -0.37753160
O        1.69448765      -3.22458504      -1.57342551    -112.14700993      -0.01624499       0.03409094      -0.00540160      -0.40046100
O        5.16334576      -1.98047384      -0.76071377    -112.36283984       0.02058102      -0.00115905      -0.00110751      -0.43057168
N        0.81558137      -1.15094860       0.22075826     -80.58934566       0.06418561       0.17744772       0.03212307      -0.24790837
N        4.96491379       0.07290704       0.14132694     -80.85291272       0.02137144      -0.00696407       0.01587510      -0.26903160
C        2.08913396      -1.11894805      -0.45031052     -59.00086320       0.04954198       0.04256706      -0.04133238       0.02245680
C        3.20250833      -1.49793455       0.55355005     -59.32677570       0.00943494       0.00556109      -0.02184134      -0.10904113
C        2.16601082      -2.12036380      -1.59565524     -58.93674273       0.00560952       0.01361833      -0.01979847       0.35112205
C        4.54632094      -1.19102340      -0.08226776     -59.18020085       0.01975958      -0.00095738      -0.00217339       0.28654767
H        2.26560197      -0.11209902      -0.83180933     -12.79775628       0.10289873       0.02917096      -0.05717519       0.08793107
H        3.06681620      -0.91785550       1.46421312     -12.91701684      -0.00412247      -0.00115630      -0.01999720       0.07981738
H        3.13455753      -2.56134472       0.78463453     -13.01525244      -0.01312406       0.00469050      -0.02912105       0.07554989
H        0.47317518      -2.10680507       0.33477097     -12.17914247       0.04812038       0.17059979       0.01268852       0.19585377
H        0.10824987      -0.53571747      -2.12994289     -11.83098561       0.09663608      -0.14465528       0.32137619       0.28580742
H        4.43851954       0.71056951       0.71202619     -12.14280399      -0.01205562       0.00439999      -0.02442664       0.19789152
H        5.82419823       0.38528947      -0.27821708     -12.20697746       0.00898242       0.00761197       0.00117556       0.19313077
H        2.97241397      -2.28697717      -3.32122430     -10.96694610       0.01174189      -0.02477525      -0.02067177       0.33725476
O        2.38855431       1.05894094       2.66813377    -114.71401494       0.00542863      -0.06294442       0.09451088      -0.57251172
H        1.59499191       0.52189031       2.75572254     -11.50247437       0.00130412      -0.05195490       0.10358504       0.30736808
H        2.36257250       1.73091786       3.35247910     -11.61560385      -0.01324248       0.00967772       0.02847623       0.29784891
O       -0.28536239       2.48466739      -2.52976962    -114.41349995      -0.31472134      -0.17710477      -0.35038947      -0.58192504
H       -0.42683893       1.51899794      -2.58642928     -11.68099337       0.23146963       0.57939046      -0.11698600       0.30414310
H        0.59758667       2.72198129      -2.82367312     -11.85691646      -0.06544683      -0.27997430       0.00978165       0.28816375
47
Properties=species:S:1:pos:R:3:energies:R:1:forces:R:3:charge:R:1 energy=-2291.0708102883914 free_energy=-2291.0708102883914 dipole="0.5564572985069903 1.4169327699010066 0.5254005727440586" pbc="F F F"
O       -2.85139669      -0.77744221      -0.85378331    -113.28007235       0.00350724      -0.01493366       0.01080786      -0.47096189
O       -2.60968553       1.51158489       1.97382432    -113.28665327      -0.00266777       0.00312016      -0.00172543      -0.46519202
O       -1.45571704      -2.31220343       0.95458663    -113.05300635       0.00208443      -0.00152596       0.02324008      -0.44526324
O       -4.88562166       2.66472531       0.99705222    -113.07040507       0.00340203       0.00037544      -0.01927399      -0.44097968
O       -0.82133039       0.05376478      -2.51160215    -114.71157224      -0.01462003       0.01216318       0.00356585      -0.60488671
O        1.24885375       1.61150274       0.05411524    -113.58849113       0.00156144      -0.00512822      -0.00081994      -0.47915840
C       -2.75487370      -0.39645086       0.48639139     -59.20801561       0.00257801      -0.00504285       0.00848597       0.09075531
C       -3.06697602       1.09409830       0.70456597     -59.12673484       0.00352624      -0.00326129      -0.00209540       0.08330752
C       -1.43343419      -0.91316097       1.11356814     -59.23518689       0.00310260      -0.00037212       0.01203382       0.08777784
C       -4.58119135       1.34060732       0.61690589     -59.22435535       0.00400296      -0.00188095      -0.01079007       0.06052936
C       -0.12766727      -0.33329069       0.55653483     -58.73497297       0.00122233      -0.00486395       0.00211093       0.02308020
C        0.08169700       0.98851396       0.53915263     -58.33242062       0.00431959      -0.00242722       0.01212372       0.00175186
H       -3.54052540      -0.97096817       0.99852415     -12.95882181       0.00243981      -0.00160273       0.01261800       0.05168263
H       -2.56969219       1.68403371      -0.08449941     -13.14098998       0.00921861      -0.00845944      -0.00274674       0.03470519
H       -1.46970698      -0.71271297       2.18947793     -12.97905207       0.00436829       0.00921757       0.01021736       0.05848134
H       -4.94611589       1.10571203      -0.38722098     -13.22009011       0.00832476      -0.00689985      -0.01123311       0.04084397
H       -5.09573334       0.70601023       1.34300339     -13.03109480      -0.00005071       0.00243344      -0.00966523       0.05880716
H       -2.13177211      -0.38022016      -1.39404512     -11.35182218      -0.00389197      -0.00704690       0.00630061       0.33277650
H       -3.25597958       2.15901447       2.29659044     -11.34625419      -0.00389890       0.00539775      -0.00858128       0.31656362
H       -0.64698692       1.67652788       0.92624269     -13.37829474       0.01052396      -0.00328061       0.03089026       0.03962830
H        0.46507604       2.44052473      -1.38719171     -11.50477652       0.00516328       0.00073070       0.00849409       0.32571039
H       -1.84431734      -2.47982568       0.08018165     -11.37399882      -0.00267443      -0.00816740       0.02622446       0.31811755
H        1.86959963       1.69533839       0.79536257     -11.50370143       0.00172806       0.01131146      -0.00223228       0.30814625
H       -4.55379592       3.26923027       0.32345745     -11.57373451       0.00679117      -0.00345242      -0.02112812       0.29453180
O        2.79243000      -1.59925949      -2.61933435    -112.54907764       0.00479849       0.00058253      -0.01073897      -0.37070756
O        1.71199338      -3.25130538      -1.56967217    -112.09271190       0.01010427      -0.00316184      -0.01304215      -0.39445727
O        5.14260241      -1.97640670      -0.76509257    -112.35581080      -0.00410929       0.00160819      -0.00008586      -0.42815795
N        0.75742399      -1.30929888       0.19055328     -79.94781608      -0.01022539      -0.00644372      -0.02345635      -0.17337699
N        4.94353580       0.07913557       0.12852801     -80.87105953      -0.00508242      -0.00028001       0.00358654      -0.27141335
C        2.04365824      -1.15883716      -0.41606462     -59.13577412      -0.00359528      -0.00259951      -0.01146830       0.01614507
C        3.19242944      -1.50423833       0.57016966     -59.27742676      -0.00769092      -0.00011324      -0.00446316      -0.10876642
C        2.15670835      -2.13734102      -1.58066977     -58.93986458       0.00472666      -0.00336244      -0.01224984       0.35485767
C        4.52696530      -1.18998724      -0.08267418     -59.17196275      -0.00511189       0.00027428      -0.00001782       0.28590959
H        2.17316524      -0.13865333      -0.78345540     -12.78088880      -0.00382660      -0.00178953      -0.00949948       0.08893256
H        3.06838520      -0.92002273       1.48040801     -12.99624298      -0.01249965       0.00092391      -0.00540144       0.07319930
H        3.14533408      -2.56779166       0.80629867     -13.02937442      -0.00728433      -0.00004332      -0.00355220       0.07437790
H        0.42971310      -2.25833069       0.32380522     -12.21665575      -0.00598772      -0.00681407      -0.01675981       0.19769698
H        0.01811934      -0.39916686      -2.41571824     -11.97135617      -0.01654901       0.00948791       0.00324391       0.28128439
H        4.44690050       0.70474351       0.73749970     -12.18663202      -0.00585589      -0.00132058       0.00418878       0.19345279
H        5.81337822       0.38041887      -0.27794833     -12.20963163      -0.00381894      -0.00007759       0.00600310       0.19266852
H        2.95309297      -2.26363415      -3.30864718     -10.91306297       0.00804971       0.00171057      -0.01140020       0.34054479
O        2.38446682       1.11481742       2.58406669    -114.73313944       0.00191350       0.00645287       0.00285447      -0.57941547
H        1.59497889       0.56755270       2.66042031     -11.57762462      -0.00286744       0.01208564       0.00065634       0.30417967
H        2.37387429       1.71976981       3.32887869     -11.69907666       0.00817087       0.00259213       0.00693311       0.29266549
O        0.00508983       2.65143410      -2.21557878    -114.71330465       0.00478104       0.00869800       0.00469543      -0.59566042
H       -0.62967472       1.01019343      -2.48077616     -11.59375806      -0.00833944       0.01564428       0.00714504       0.32228950
H        0.66753341       2.97470088      -2.82828867     -11.89404012       0.01023867      -0.00045859       0.00600742       0.28299640
47
Properties=species:S:1:pos:R:3:energies:R:1:forces:R:3:charge:R:1 energy=-2291.062908546725 free_energy=-2291.062908546725 dipole="0.4928925623141137 1.3529868591850498 0.39778422603714336" pbc="F F F"
O       -2.80042188      -0.57725397      -1.01180203    -113.20047421       0.00581445      -0.00759080       0.00042611      -0.46444738
O       -2.60699949       1.46178389       1.98244445    -113.27580818      -0.00060835       0.00360252      -0.00737482      -0.46305685
O       -1.42481995      -2.26649221       0.74616497    -112.99942507       0.00498224       0.00096667       0.00917776      -0.44408889
O       -5.00015654       2.57939774       1.20565005    -113.06185361      -0.00431553      -0.00424050      -0.00871356      -0.44072881
O       -0.52733096      -0.01643888      -2.54415801    -114.74849825       0.00118340       0.01290286       0.00031913      -0.61225504
O        1.20454975       1.72470271       0.09238216    -113.51188564       0.00010347       0.00314361       0.00278521      -0.46877395
C       -2.76581437      -0.34622050       0.36652107     -59.24218903       0.00183862      -0.00293986      -0.00015781       0.08923593
C       -3.14341936       1.10611835       0.72790486     -59.08599924      -0.00188775      -0.00254167      -0.00505456       0.08515436
C       -1.46170310      -0.87993000       1.00207641     -59.24725593       0.00140448       0.00177482       0.00449876       0.08950692
C       -4.66871960       1.28260514       0.75892532     -59.22869591      -0.00236500      -0.00570409      -0.00301483       0.05980763
C       -0.13330220      -0.24326187       0.58736829     -58.57925779       0.00165237       0.00299586       0.00580429       0.01106547
C        0.00454860       1.06095390       0.34335696     -58.37584158      -0.00142524       0.00174410      -0.00260730       0.02994507
H       -3.55340538      -0.99423638       0.77905413     -12.94695219       0.00220506      -0.00365552      -0.00013995       0.05235678
H       -2.75324820       1.77990097      -0.05537107     -13.17236193      -0.00499017      -0.00459045      -0.00868416       0.02854882
H       -1.55233991      -0.77541019       2.09019388     -12.92586754      -0.00119034       0.00501316       0.00407983       0.06178264
H       -5.08950682       1.06833092      -0.22841882     -13.22440997      -0.00381155      -0.01116747      -0.00121273       0.03983212
H       -5.10513371       0.60135881       1.49301553     -13.03620409       0.00043617      -0.00304701       0.00119815       0.05889048
H       -1.98953153      -0.25265726      -1.45081275     -11.35302227       0.00343173      -0.00160090       0.00026021       0.33224564
H       -3.23602518       2.08115348       2.38367258     -11.34388131      -0.00071120       0.00483476      -0.00934649       0.31602172
H       -0.83334147       1.72694712       0.31447553     -13.24529277      -0.00472512       0.00170856      -0.01482091       0.05045501
H        0.55411914       2.51081228      -1.51043021     -11.50382236       0.00896548       0.00868199       0.00225972       0.32432248
H       -1.68098826      -2.39352543      -0.17993663     -11.45363349       0.00666120      -0.00326051       0.00906805       0.31410069
H        1.82964370       1.50118445       0.80570054     -11.37058454       0.00020549      -0.00581333       0.00172997       0.31993277
H       -4.72934822       3.21996102       0.53776341     -11.58221386      -0.00628711      -0.00685629      -0.01203577       0.29349721
O        2.40572026      -1.58786621      -2.46659054    -112.67823015      -0.02357728       0.00367146       0.00327990      -0.38233352
O        1.48622292      -3.21099752      -1.23256235    -112.06331807      -0.01257114       0.00231108       0.01092804      -0.39090352
O        5.14758943      -1.92276385      -0.91772200    -112.33570701      -0.00104095       0.00454089      -0.01280630      -0.42532955
N        0.93091145      -1.14285966       0.71723385     -80.47845288       0.00772681       0.00611639       0.02073606      -0.21597136
N        4.98657136       0.09392138       0.07112937     -80.88406996      -0.00002660       0.00046433      -0.00365929      -0.27206013
C        2.07448750      -1.11980535      -0.16794399     -59.02302505       0.00076110       0.00071379       0.00874222       0.02067907
C        3.33163066      -1.54754228       0.62565675     -59.33699229       0.00578691      -0.00454511      -0.00152903      -0.11052852
C        1.94053083      -2.10581796      -1.32381315     -58.88509905      -0.01239475       0.00252527       0.00816387       0.35489651
C        4.58398493      -1.17807246      -0.15005692     -59.16757402       0.00128632       0.00064362      -0.00667210       0.28619297
H        2.21564614      -0.12156640      -0.58555996     -12.83346873       0.00148500       0.00033155       0.00783420       0.08220437
H        3.32595123      -1.03787258       1.58732580     -12.90354545       0.01155007      -0.01034395       0.00192512       0.07975290
H        3.30223420      -2.62544766       0.78628513     -13.01373754       0.00707939      -0.00557804      -0.00758203       0.07591140
H        0.57525907      -2.09038851       0.83846710     -12.23506527       0.00734074       0.00607679       0.02306939       0.19440102
H        0.33827685      -0.40222843      -2.69229758     -11.98324881      -0.00083979       0.01160942      -0.00347670       0.28169420
H        4.52852715       0.68239426       0.74461724     -12.16584078       0.00201827      -0.00321182       0.00112250       0.19489563
H        5.81053674       0.43467966      -0.39494093     -12.20567762      -0.00272264       0.00388539      -0.00608515       0.19290742
H        2.45787802      -2.26664573      -3.15906554     -10.95387219      -0.03136301       0.00454910       0.00155064       0.33846374
O        2.36746115       0.94755742       2.49478304    -114.80471368       0.00115148      -0.00855635      -0.00372115      -0.58218910
H        1.69773338       0.25239244       2.51026424     -11.48776492       0.00807259      -0.01644460      -0.01003510       0.31169663
H        2.13755892       1.57557402       3.18345059     -11.69305920      -0.01123222      -0.01089665      -0.00456054       0.29375356
O        0.15042011       2.65093375      -2.37919648    -114.69065218       0.01306866       0.01038776       0.00050005      -0.59368823
H       -0.40998977       0.94869017      -2.59432737     -11.63482349       0.00348868       0.01282271       0.00129944       0.31922430
H        0.81236343       3.06735399      -2.93297423     -11.88953945       0.01838557       0.00456646       0.00253167       0.28297940
47
Properties=species:S:1:pos:R:3:energies:R:1:forces:R:3:charge:R:1 energy=-2291.152094888113 free_energy=-2291.152094888113 dipole="0.3929505484624627 1.2185722734311142 -0.009961155282960613" pbc="F F F"
O       -2.70317549      -0.12422637      -1.14016812    -113.24389862       0.01014984      -0.00059648      -0.00434537      -0.47380969
O       -2.70860519       1.25116372       2.19906857    -113.24768777      -0.00106492       0.00138795      -0.00168342      -0.46081373
O       -1.39162950      -2.19655878       0.56090539    -112.94268439       0.00723185       0.00056738       0.01159776      -0.44196248
O       -5.10238609       2.48992934       1.42538429    -113.05246671      -0.00540259      -0.00803429       0.00011578      -0.44198190
O       -0.19528903      -0.28960360      -2.37707425    -114.78992298       0.02023492      -0.00151093       0.01150474      -0.60901609
O        1.14520705       1.85556100       0.09758864    -113.40911869      -0.00429246       0.00708077       0.00267531      -0.45604929
C       -2.74646859      -0.22883435       0.25763807     -59.23219019       0.00332565      -0.00228134      -0.00249734       0.08904729
C       -3.18307667       1.12009467       0.87932498     -59.05577824      -0.00178662      -0.00221879      -0.00191847       0.08760172
C       -1.46936580      -0.82632968       0.88183762     -59.32649731       0.00183963       0.00168333       0.00411938       0.08889277
C       -4.71135028       1.25734035       0.85962806     -59.23036510      -0.00229826      -0.00739331      -0.00035266       0.05984804
C       -0.14181209      -0.14391738       0.57628122     -58.49089239       0.00032551       0.00519177       0.00553171       0.00775995
C       -0.03158368       1.14219614       0.24727217     -58.41724106      -0.00159804       0.00368457      -0.00058927       0.04335148
H       -3.53624972      -0.96031666       0.49146536     -12.98624286       0.00338461      -0.00517490      -0.00693159       0.04743426
H       -2.78182027       1.93893735       0.25772891     -13.17707931      -0.00552575      -0.00016821      -0.00375117       0.02648887
H       -1.61077968      -0.80213668       1.97031447     -12.83423288      -0.00204844       0.00600481       0.00350573       0.07030871
H       -5.07821747       1.14352946      -0.16550187     -13.22172700      -0.00307565      -0.00848851      -0.00036119       0.03975815
H       -5.15967656       0.48825428       1.49245840     -13.04143824       0.00033512      -0.00886173       0.00041991       0.05884614
H       -1.77933441      -0.12721102      -1.45829514     -11.38167392       0.01732266       0.00476272       0.00595783       0.32883761
H       -3.33590142       1.82863448       2.65894333     -11.36844874      -0.00264045      -0.00008592      -0.00178616       0.31421383
H       -0.88944537       1.74620330       0.02467751     -13.21968287      -0.00391645       0.00063920      -0.01034413       0.05225401
H        0.61958572       2.44199266      -1.65946238     -11.49179609       0.01277432       0.00296269      -0.00162363       0.32428431
H       -1.31120311      -2.29000543      -0.39842191     -11.50823682       0.02512688      -0.00544216       0.01015552       0.31168558
H        1.76758807       1.57801158       0.79736931     -11.31310615      -0.00349653       0.00563496       0.00261012       0.32524930
H       -4.82064334       3.20329281       0.84109455     -11.61138178      -0.00585159      -0.00695053       0.00077472       0.29170141
O        2.51608075      -1.64475890      -2.31418158    -112.47793219       0.00395418       0.00033971       0.00915478      -0.36763256
O        1.12034651      -2.97329300      -1.18273285    -112.20635465      -0.04001562       0.02834056      -0.00376923      -0.40612451
O        5.17431791      -1.95442089      -0.85754777    -112.29935973       0.00398374      -0.00200774       0.00092347      -0.42203755
N        0.96520662      -0.97650254       0.86635166     -80.72093458       0.00518101       0.01018615       0.01366514      -0.23262143
N        4.96142177       0.09106584       0.06138378     -80.88254112      -0.00503248      -0.00090157      -0.00350109      -0.27236916
C        2.06987222      -1.03992482      -0.07738356     -58.98337470      -0.00067819       0.00538927       0.00658624       0.02121816
C        3.33002561      -1.55910498       0.65173756     -59.34277619       0.00015374      -0.00562855      -0.00263016      -0.10926385
C        1.81738686      -1.99691293      -1.23741037     -58.90664346      -0.01549158       0.01324287       0.00279143       0.36166471
C        4.58327708      -1.19334325      -0.12845673     -59.16147804      -0.00002688      -0.00267491      -0.00227888       0.28779046
H        2.26078574      -0.05313580      -0.50155459     -12.80115832       0.00388239       0.00568388       0.00912598       0.08429533
H        3.37708868      -1.10301432       1.63953449     -12.89287151       0.00542209      -0.01438606       0.00132537       0.07981093
H        3.27217164      -2.64250267       0.76095062     -13.06682892      -0.00206173      -0.00647163      -0.01142695       0.07065770
H        0.61957059      -1.91987400       1.04715373     -12.26203090       0.00616597       0.01120632       0.01912053       0.19032125
H       -0.13738457      -0.70458693      -3.23917198     -11.93626907      -0.07252409       0.00096251      -0.03232025       0.28195650
H        4.48850832       0.68776456       0.71755700     -12.15582624      -0.00701455      -0.00209103      -0.00385906       0.19651999
H        5.78378174       0.43351579      -0.40603406     -12.21517974      -0.00537724       0.00104157      -0.00256912       0.19239239
H        2.45761738      -2.32446624      -3.00397757     -11.00013467      -0.01158984       0.00565760       0.00527951       0.33427606
O        2.35688241       0.95628910       2.42293157    -114.87526506       0.00092483      -0.00073555      -0.00523453      -0.59491818
H        1.76015156       0.19817435       2.29682275     -11.47860401       0.00980932      -0.00760333      -0.01860608       0.31443463
H        2.01321581       1.46916001       3.15717810     -11.78324687      -0.01269922      -0.01145810      -0.00318376       0.28913343
O        0.28276812       2.42069231      -2.56651902    -114.71561182       0.01992056      -0.00141563      -0.00533232      -0.59402201
H       -0.08147975       0.66817351      -2.52285849     -11.52938488       0.02749141      -0.00392997       0.00543362       0.32632458
H        0.89883093       2.91841118      -3.10592720     -11.86449811       0.02656893      -0.00513942      -0.00147878       0.28426289
47
Properties=species:S:1:pos:R:3:energies:R:1:forces:R:3:charge:R:1 energy=-2291.1686786844043 free_energy=-2291.1686786844043 dipole="0.22264659816200125 1.0544382534611088 0.07530352247969145" pbc="F F F"
O       -2.50546455       0.37640816      -1.15918629    -113.34233349       0.00938725       0.01798623       0.00015386      -0.48140006
O       -2.79999201       1.09467250       2.32063754    -113.22236815      -0.00794798      -0.00768644       0.00596311      -0.45837308
O       -1.38793622      -2.09445348       0.40118073    -112.99379994       0.00324565       0.00349325       0.00354990      -0.44891801
O       -5.17898845       2.42191870       1.54300663    -113.04964382      -0.00753713      -0.00865091       0.00319426      -0.44170803
O       -0.21274225      -0.53454708      -2.42950741    -114.85843224      -0.00364966      -0.00712324      -0.00488858      -0.61230202
O        1.18429704       1.93737398       0.13775056    -113.26383839      -0.00164082       0.00555774       0.00025335      -0.44356703
C       -2.68273557      -0.05852490       0.16495916     -59.17742180       0.00359654       0.00485156      -0.00276653       0.09055836
C       -3.19607928       1.15482088       0.97150802     -59.06305801      -0.00237610      -0.00105398       0.00390646       0.09347154
C       -1.44807898      -0.74126319       0.79353864     -59.33483458       0.00211121       0.00419325       0.00036932       0.08783111
C       -4.72373324       1.26267432       0.87999996     -59.23781432      -0.00229289      -0.00424130      -0.00154834       0.05971568
C       -0.10766049      -0.06701860       0.57107926     -58.48353466       0.00110180       0.00569612       0.00177914       0.00409517
C        0.01602762       1.21911805       0.24461212     -58.47706987       0.00231986       0.00487296      -0.00060111       0.04856214
H       -3.46643925      -0.83588449       0.18858641     -13.07630794       0.00509431       0.00134654      -0.01170476       0.03673172
H       -2.77695254       2.06494039       0.50814706     -13.15425197      -0.00181918       0.00308668       0.01079864       0.02716562
H       -1.63853721      -0.77802004       1.87460235     -12.80307919      -0.00050586       0.00614042      -0.00000375       0.07347501
H       -5.03323336       1.24634633      -0.17003597     -13.22612122       0.00183916       0.00062413      -0.00314695       0.03880798
H       -5.18083219       0.42194112       1.40674346     -13.02835816      -0.00243544      -0.00845677      -0.00766175       0.06011497
H       -1.75840320      -0.10372522      -1.56714396     -11.34830742       0.00764389       0.00226994      -0.00057091       0.32983346
H       -3.44236372       1.62244403       2.81684402     -11.36501539      -0.01087078      -0.01142226       0.00616314       0.31408876
H       -0.85003561       1.81108948       0.00860141     -13.27796217      -0.00042924       0.00266971      -0.00399940       0.04552636
H       -0.16957371       2.39341993      -1.94308303     -11.54334993      -0.00820139       0.00349554      -0.01183091       0.31231028
H       -1.05123498      -2.16108702      -0.50422497     -11.52186524       0.01899290      -0.00004043       0.00762779       0.31309275
H        1.80177668       1.63701822       0.83194950     -11.34097930      -0.00059395       0.00762501       0.00204504       0.32264027
H       -4.89359410       3.19596588       1.04411404     -11.61167979      -0.00682187      -0.00513144       0.00859546       0.29141378
O        2.55163832      -1.64772957      -2.27438471    -112.46548443      -0.00201990       0.00426212       0.00216387      -0.36539724
O        1.05409682      -2.88808363      -1.17180475    -112.24799146      -0.01241545       0.01733415      -0.00231488      -0.40970898
O        5.20638583      -1.97207204      -0.81600320    -112.29017155       0.00317896      -0.00161729       0.00170841      -0.42077978
N        0.99046976      -0.90601550       0.89488094     -80.77549351       0.00361858       0.00635383       0.00533705      -0.23618735
N        4.96342368       0.08668203       0.06711938     -80.88774808      -0.00305314      -0.00054176      -0.00150365      -0.27236632
C        2.08908797      -1.00497550      -0.05468867     -58.97628088       0.00043199       0.00398937       0.00272455       0.02085426
C        3.33798056      -1.56689185       0.66126761     -59.33601470      -0.00041939      -0.00318001      -0.00167517      -0.10873608
C        1.80521441      -1.95097754      -1.21752678     -58.90540882      -0.00865407       0.00545101       0.00021822       0.36230877
C        4.59957419      -1.20350810      -0.10845445     -59.15827816       0.00009765      -0.00118175      -0.00007090       0.28797956
H        2.30723013      -0.02034193      -0.47213860     -12.80865010       0.00388516       0.00405320       0.00478561       0.08327137
H        3.39628956      -1.13835508       1.66097941     -12.88647731       0.00165197      -0.00901921       0.00066871       0.08045659
H        3.26257168      -2.65177569       0.74301586     -13.07509604      -0.00231104      -0.00350208      -0.00762802       0.06985221
H        0.63562170      -1.84003026       1.10005466     -12.29506458       0.00346714       0.00836379       0.00972735       0.18629112
H       -0.32616382      -0.94011862      -3.29142061     -11.90410529      -0.04138057      -0.00044972      -0.00281585       0.28430468
H        4.48229655       0.68539595       0.71572927     -12.14125602      -0.00421996      -0.00123906      -0.00157653       0.19789660
H        5.79020870       0.42893588      -0.39246245     -12.21080954      -0.00249178       0.00034876       0.00011168       0.19284052
H        2.46502015      -2.32078405      -2.96748851     -10.97696398      -0.00959742       0.00818027      -0.00069111       0.33583238
O        2.39537084       0.95736269       2.43981873    -114.89620050       0.00284663       0.00379428      -0.00202389      -0.59962551
H        1.80953216       0.19914403       2.25630694     -11.49450472       0.00719762       0.00131962      -0.00809020       0.31351068
H        2.02354954       1.42607144       3.18936172     -11.81637646      -0.00168493      -0.00344126       0.00020521       0.28718286
O        0.24889830       2.14735535      -2.77363488    -114.62422072       0.01846056      -0.01350734      -0.01027851      -0.57813438
H        0.00252580       0.40510180      -2.59977762     -11.48889481       0.00802559      -0.01028030      -0.00734906       0.32821332
H        1.14649769       2.48338881      -2.72552587     -11.70576001       0.03717551      -0.03559289       0.01269064       0.29697400
47
Properties=species:S:1:pos:R:3:energies:R:1:forces:R:3:charge:R:1 energy=-2291.284741377288 free_energy=-2291.284741377288 dipole="-0.16210411091066254 0.9370932710412585 0.15173767414439185" pbc="F F F"
O       -2.34328868       0.59871305      -1.17567127    -113.51182112       0.00122836       0.00247655       0.00151431      -0.48924434
O       -2.84110874       1.07761486       2.31318553    -113.21294966      -0.00558849      -0.00359952       0.00206053      -0.45715926
O       -1.36522567      -2.00223130       0.32518756    -113.01730523       0.00168560       0.00134269       0.00215625      -0.45105198
O       -5.22659503       2.35881897       1.57162563    -113.05306167      -0.00328257      -0.00356795      -0.00023391      -0.44028164
O       -0.29172724      -0.69481108      -2.47507583    -114.90930465      -0.00764600      -0.00477670      -0.00270234      -0.61749743
O        1.27193524       1.98126150       0.16175667    -113.32870314      -0.00013064       0.00114531       0.00069046      -0.44845240
C       -2.61053980       0.06597526       0.09872726     -59.13787676       0.00095538       0.00094724       0.00075907       0.09021494
C       -3.18159821       1.21546073       0.95537746     -59.09021411      -0.00105187      -0.00050477       0.00129756       0.09453215
C       -1.41093204      -0.66032097       0.75435172     -59.32309027       0.00091237       0.00154138       0.00134773       0.08724472
C       -4.70829442       1.28932506       0.81294374     -59.23630395      -0.00060073       0.00008743      -0.00345473       0.05992268
C       -0.05324669      -0.00723369       0.58271776     -58.49467585       0.00077385       0.00280601       0.00100058       0.00367741
C        0.09146347       1.28364707       0.28683639     -58.46742153       0.00169400       0.00243656       0.00091206       0.04724251
H       -3.38710834      -0.71335530       0.01299093     -13.09762683       0.00193645       0.00020356      -0.00049155       0.03506453
H       -2.76210667       2.16130258       0.56985142     -13.15122618       0.00060464       0.00010006       0.00475738       0.02800314
H       -1.63948661      -0.72022603       1.82637366     -12.80289904       0.00091301       0.00223759       0.00131358       0.07436153
H       -4.98177817       1.36926376      -0.24442728     -13.24807343       0.00291059       0.00490812      -0.00394055       0.03607671
H       -5.15449156       0.38566858       1.23495731     -13.01457865      -0.00187176      -0.00185655      -0.00911540       0.06113547
H       -1.74099552      -0.01683492      -1.64176826     -11.28471886      -0.00030704       0.00188977       0.00022397       0.33250549
H       -3.53411844       1.52992914       2.81646750     -11.34454558      -0.00825511      -0.00634292       0.00080040       0.31538990
H       -0.76461621       1.89794325       0.07346826     -13.21203756       0.00085048       0.00154881       0.00081528       0.05202002
H       -0.78968484       2.11629837      -2.36867955     -11.63721996       0.00905653      -0.00094827      -0.00510299       0.30591205
H       -0.97228608      -2.05344761      -0.55923173     -11.50778170      -0.00004888       0.00130829       0.00134654       0.31555204
H        1.89936862       1.66926909       0.84221469     -11.32125485       0.00109511       0.00242279       0.00032785       0.32439657
H       -4.94942683       3.19010384       1.16971843     -11.59438871      -0.00186562      -0.00167849       0.00482317       0.29194058
O        2.54381108      -1.63397974      -2.28129407    -112.45267188      -0.00413921       0.00481150      -0.00104022      -0.36400069
O        1.08116402      -2.89045077      -1.14959386    -112.22818293      -0.00002347       0.00127297       0.00080533      -0.40837163
O        5.25126006      -1.97097803      -0.79569674    -112.28823636       0.00057354       0.00046976      -0.00034896      -0.42101999
N        1.02582701      -0.87406035       0.89860497     -80.79202809       0.00177336       0.00168733       0.00141400      -0.23736207
N        4.97898592       0.07565706       0.10930881     -80.88198164       0.00027950      -0.00013253       0.00102429      -0.27176758
C        2.12168947      -0.99990257      -0.05196016     -58.97397848       0.00077624       0.00132615       0.00058041       0.02002728
C        3.35850097      -1.59636576       0.65819547     -59.32176373       0.00025015      -0.00054366      -0.00028680      -0.10852027
C        1.82151626      -1.94584497      -1.21127123     -58.91165883      -0.00059075       0.00294873       0.00031535       0.36115110
C        4.62912772      -1.21423979      -0.08871760     -59.16562337       0.00041058       0.00005450       0.00016523       0.28769239
H        2.36359467      -0.02077051      -0.46979765     -12.82832845       0.00161237       0.00132212       0.00135996       0.08190507
H        3.41353304      -1.20582450       1.67343666     -12.89076058       0.00079091      -0.00236748       0.00043999       0.07994081
H        3.27533185      -2.68302184       0.70094768     -13.07354631      -0.00025484      -0.00060148      -0.00211395       0.07007741
H        0.65102930      -1.79961323       1.10551175     -12.29623532       0.00110540       0.00208193       0.00204733       0.18603343
H       -0.42505503      -1.07809519      -3.34388264     -11.90584814      -0.01522784      -0.00169129      -0.00279284       0.28432043
H        4.47871588       0.66344881       0.75375310     -12.12886888       0.00008231      -0.00054312       0.00132914       0.19963881
H        5.80219058       0.43577293      -0.34275501     -12.20736679       0.00026739       0.00032687       0.00126622       0.19362904
H        2.44667387      -2.30348197      -2.97636750     -10.97039948      -0.00589717       0.00620283      -0.00220965       0.33635602
O        2.49793488       0.95310882       2.42108038    -114.90687540       0.00351362       0.00174829      -0.00131084      -0.59979888
H        1.89840083       0.20647839       2.23201165     -11.48229510       0.00362490       0.00139909      -0.00131339       0.31404587
H        2.14574150       1.41082850       3.18668692     -11.81231247       0.00411485       0.00066548      -0.00041959       0.28742294
O        0.11937215       1.96360003      -2.64858378    -114.71840872       0.00868000      -0.00763153       0.00011312      -0.58683542
H        0.02438976       0.22401516      -2.62294951     -11.47894314      -0.00141167      -0.00700359      -0.00209181       0.32858771
H        0.67696363       2.21499186      -1.90266296     -11.56934796       0.00572221      -0.00992987       0.00196244       0.31534283
47
Properties=species:S:1:pos:R:3:energies:R:1:forces:R:3:charge:R:1 energy=-2291.2234852703923 free_energy=-2291.2234852703923 dipole="-0.19223695977618208 0.8543361548429051 0.3269197045323343" pbc="F F F"
O       -2.35975784       0.56020873      -1.25067913    -113.47685911       0.00914759      -0.00301979      -0.00089687      -0.47843443
O       -2.63506275       1.13868912       2.24197415    -113.22430885      -0.00352434       0.00707318      -0.00349279      -0.45832226
O       -1.40252891      -2.02199963       0.19609334    -113.05955538       0.00805580      -0.01476297       0.04071481      -0.45999581
O       -5.06498771       2.35502376       1.79223631    -113.05732047      -0.00469232      -0.00376534      -0.00829254      -0.43894964
O       -0.10791910      -0.57814808      -2.70091521    -114.87644045      -0.02982198      -0.00315469       0.01916951      -0.62294822
O        1.24980110       1.96430241       0.09042325    -113.20335025       0.00475987      -0.00159748      -0.00412051      -0.43653490
C       -2.61053167       0.06625057       0.04701079     -59.09608956       0.00415455      -0.00225484      -0.00118960       0.08870530
C       -3.10294814       1.24249258       0.91868653     -59.11191485      -0.00174684      -0.00008970      -0.00538913       0.09335907
C       -1.41495259      -0.69383821       0.66857969     -59.30277912       0.00251071       0.00255049       0.01222626       0.09095740
C       -4.63684186       1.32208263       0.93297513     -59.23868839      -0.00210885      -0.00341371      -0.00772109       0.05922078
C       -0.05954819      -0.03529267       0.52263487     -58.50273357       0.00348015      -0.00067690       0.00314939      -0.00026637
C        0.08773769       1.24540947       0.18522948     -58.51145705       0.00269944      -0.00012968       0.00241092       0.05223431
H       -3.41685403      -0.68374311      -0.00518480     -13.07187816       0.00518508      -0.00335746      -0.00365807       0.03861993
H       -2.72193955       2.17878396       0.47489690     -13.13938595      -0.00363732      -0.00032019      -0.00841334       0.02937134
H       -1.64084431      -0.78202502       1.74045967     -12.81944136      -0.00054571       0.02076288       0.01595489       0.06936004
H       -5.01794543       1.45365606      -0.08493526     -13.25454016      -0.00141195      -0.00415708      -0.00813607       0.03558300
H       -5.04515732       0.40169061       1.35677623     -13.00546178      -0.00095421      -0.00404510      -0.00778649       0.06204003
H       -1.82575556      -0.10258030      -1.72386470     -11.23416182       0.01954586       0.00229622       0.00062022       0.33328666
H       -3.30477131       1.55935552       2.80285125     -11.31912957      -0.00770458       0.00534295      -0.00648795       0.31709526
H       -0.76618751       1.83970095      -0.08205797     -13.16048913       0.00212681       0.00132894       0.00732755       0.05503157
H       -1.24647102       1.98274734      -2.37000526     -11.60805900       0.00713305       0.00851711      -0.00094434       0.31198360
H       -0.83009750      -2.11381242      -0.58174487     -11.49562773      -0.01311784       0.01199845      -0.00651817       0.32055157
H        1.89380184       1.63832358       0.74613110     -11.32370518       0.00449301       0.00079812      -0.00240739       0.32273378
H       -4.81910290       3.20541589       1.41005203     -11.57193846      -0.00322220      -0.00351902      -0.00687895       0.29299997
O        2.62684680      -1.79196236      -2.20306768    -112.39527684       0.00326016       0.01184018      -0.00642883      -0.35814058
O        0.95466765      -2.83909418      -1.16131320    -112.29851332       0.00213295       0.00410037      -0.01444067      -0.41383904
O        5.35474566      -1.92171887      -0.58225135    -112.28544563       0.00404851       0.00227257      -0.00138785      -0.42110621
N        1.02235693      -0.87457511       0.91305273     -80.83419316       0.00199702      -0.00303807      -0.00221300      -0.24102158
N        4.91051497       0.08234232       0.35345448     -80.91404706       0.00032442      -0.00081047       0.00373601      -0.27466093
C        2.12536197      -1.05109967      -0.02237326     -58.97589982       0.00200727      -0.00034565      -0.00279696       0.02011589
C        3.33146009      -1.67723349       0.71450963     -59.29862043       0.00137265      -0.00359019      -0.00440246      -0.10654705
C        1.80402902      -1.98655083      -1.18306277     -58.89803489       0.00278931       0.00552036      -0.00756315       0.36162345
C        4.64154060      -1.21387472       0.08850736     -59.17064305       0.00207164      -0.00038110      -0.00053396       0.28743614
H        2.40317779      -0.08356144      -0.44588542     -12.79226298       0.00296145       0.00112597       0.00102149       0.08479906
H        3.31295358      -1.36534381       1.75834662     -12.90298930      -0.00015627      -0.00818222      -0.00291501       0.07792940
H        3.27778971      -2.76576870       0.67450113     -13.09744149       0.00164223      -0.00352307      -0.00910675       0.06750934
H        0.65249932      -1.78628526       1.17606975     -12.35567515       0.00012823      -0.00419215      -0.00764795       0.17892545
H       -0.00708112      -0.95362184      -3.57736340     -12.00401638      -0.04747982      -0.01821218       0.01968971       0.27740686
H        4.33857608       0.61911243       0.98478856     -12.07594661      -0.00127277      -0.00311331       0.00432201       0.20692836
H        5.75427745       0.49084508      -0.01104285     -12.22351095       0.00060786       0.00099736       0.00642004       0.19254051
H        2.48148260      -2.45388627      -2.89733341     -10.94507406       0.00722134       0.01323526      -0.00866566       0.33748148
O        2.57655895       0.98248461       2.33209264    -114.93337376       0.00017440      -0.00186965      -0.00191792      -0.59904582
H        1.93612422       0.25926660       2.19426929     -11.46464730       0.00235040      -0.00354028      -0.00325009       0.31473365
H        2.27357702       1.49266428       3.08552572     -11.78425781      -0.00205601      -0.00359848      -0.00166909       0.28896267
O       -0.38783402       2.11846415      -2.79136361    -114.68233786       0.01058852       0.00241220       0.00322818      -0.58786851
H       -0.05859461       0.39263963      -2.82308157     -11.56851885      -0.00445702      -0.00022019       0.01133692       0.32171435
H        0.20864490       2.43747030      -2.10670021     -11.65744321       0.00893975       0.00070834       0.00594476       0.30644115
47
Properties=species:S:1:pos:R:3:energies:R:1:forces:R:3:charge:R:1 energy=-2291.163504036751 free_energy=-2291.163504036751 dipole="-0.07176713901232051 0.7859197135942656 0.6289602073725663" pbc="F F F"
O       -2.53927115       0.60795676      -1.23082522    -113.44252569      -0.00355995      -0.00074541       0.00022010      -0.47171341
O       -2.57278469       0.96416172       2.33219816    -113.22245886       0.00110423      -0.00530602       0.00164664      -0.45670679
O       -1.51058900      -1.79838286      -0.49113049    -113.10293389      -0.00082407       0.00028342      -0.00502922      -0.47085380
O       -4.93488507       2.45399926       1.95464451    -113.05529589       0.00640519       0.00367546       0.00264915      -0.43899134
O        0.25292300      -0.57913386      -2.99319918    -114.67712739       0.00144117       0.00661187       0.01306992      -0.61756296
O        1.18827221       1.98307788       0.11065064    -113.09674438      -0.00170719      -0.00083162      -0.00459135      -0.42459495
C       -2.67952712       0.09572635       0.07603735     -59.06349657      -0.00059845      -0.00103074       0.00034254       0.09811790
C       -3.04843859       1.23416168       1.03542501     -59.15626878       0.00270031      -0.00134842       0.00185071       0.09291681
C       -1.44332974      -0.74576007       0.45159741     -59.17341414       0.00010602      -0.00170873      -0.00306332       0.10124184
C       -4.57380694       1.42026456       1.06773432     -59.23970053       0.00335374       0.00377922       0.00129869       0.05930615
C       -0.10284567      -0.04236971       0.44861681     -58.46903490      -0.00024942      -0.00167569      -0.00305841      -0.00280076
C        0.04884636       1.23474231       0.10060568     -58.52411648       0.00076815      -0.00150673      -0.00428395       0.06062247
H       -3.50660737      -0.63291985       0.08048727     -13.02575958      -0.00104050      -0.00053899       0.00222134       0.04041433
H       -2.59869933       2.17242967       0.66959919     -13.13336482       0.00612490      -0.00224281       0.00388117       0.03100909
H       -1.60723081      -1.14344863       1.46865435     -13.12380865       0.00136280      -0.00371006      -0.00365295       0.03523326
H       -4.94768171       1.60048937       0.05430988     -13.23556407       0.00459642       0.00657842       0.00133863       0.03740848
H       -5.03851982       0.51495955       1.46613784     -13.00718483       0.00001693       0.00480281      -0.00034766       0.06124773
H       -2.17287084      -0.13458718      -1.74129229     -11.14972377      -0.00363415      -0.00063838      -0.00043976       0.33887707
H       -3.16760679       1.42474035       2.94256188     -11.32023687       0.00239928      -0.00449818       0.00215265       0.31610536
H       -0.78852373       1.80108550      -0.26316907     -13.09982386      -0.00049403      -0.00229172      -0.00625218       0.06056729
H       -1.40620540       1.83510093      -2.41345845     -11.63978664      -0.01141319       0.00102048      -0.00208537       0.31182148
H       -0.65540560      -2.25092000      -0.58797081     -11.50392873      -0.00008241       0.00119638      -0.00693171       0.32539776
H        1.82096756       1.63136468       0.76432195     -11.29144911      -0.00073756      -0.00053096      -0.00245716       0.32398492
H       -4.67273023       3.30020247       1.57503366     -11.57006363       0.00990596       0.00327014       0.00425692       0.29315952
O        2.60472179      -1.90654183      -2.11611510    -112.25374189       0.00693609      -0.00482593       0.00247868      -0.34265875
O        0.97982173      -2.91714371      -0.96640363    -112.46379132       0.00042893       0.00020024      -0.00209734      -0.42706175
O        5.32678735      -1.93220503      -0.49672059    -112.27696603       0.00301471       0.00190876       0.00556486      -0.41966722
N        0.98885488      -0.82978217       0.93462623     -80.84932511      -0.00078885      -0.00102699      -0.00166057      -0.24407432
N        4.90860817       0.10449227       0.37912200     -80.90903308      -0.00117743       0.00172043       0.00377420      -0.27347358
C        2.11395657      -1.04251509       0.02810058     -58.94232069       0.00063401      -0.00043844      -0.00059944       0.02101513
C        3.31523322      -1.62636032       0.80569828     -59.30276717      -0.00010552       0.00021508       0.00125047      -0.10716001
C        1.80971763      -2.04654295      -1.07700762     -58.86453548       0.00225703      -0.00142590      -0.00029069       0.36615459
C        4.62594077      -1.19639119       0.15624846     -59.16969729       0.00080133       0.00155132       0.00366015       0.28721827
H        2.38598546      -0.09465435      -0.44001154     -12.79669956       0.00057177      -0.00089773      -0.00090908       0.08537560
H        3.29539539      -1.26095495       1.83149284     -12.88907914      -0.00208406       0.00000340       0.00124226       0.07945319
H        3.26252509      -2.71593436       0.81970939     -13.10028799       0.00094842       0.00018005       0.00099042       0.06682690
H        0.64903001      -1.72958376       1.26495519     -12.51064163      -0.00028435      -0.00029919      -0.00184181       0.16186767
H        0.59845478      -0.75533150      -3.86914038     -12.09442699      -0.00797711      -0.02430259      -0.02759144       0.27066847
H        4.34091021       0.66697199       0.99119964     -12.07505755      -0.00304592       0.00145912       0.00241756       0.20626931
H        5.75177245       0.49530518      -0.00565406     -12.20879316      -0.00083373       0.00269568       0.00525316       0.19349533
H        2.41764500      -2.57951158      -2.78982531     -10.86465656       0.00932966      -0.00689221       0.00329817       0.34377462
O        2.53312590       1.02428675       2.36102233    -114.93577891      -0.00446152       0.00078950      -0.00066218      -0.59898212
H        1.87560762       0.31553027       2.22966327     -11.47474335      -0.00317228       0.00006255      -0.00276613       0.31346392
H        2.23976722       1.55438883       3.10438733     -11.77696114      -0.00731787       0.00021744      -0.00149401       0.28905577
O       -0.60308802       2.03595843      -2.91235852    -114.64569963      -0.01212701       0.00067606      -0.00358416      -0.58880324
H       -0.06063896       0.34357069      -3.02537641     -11.72196299       0.01354853       0.02404259       0.02616464       0.31188564
H        0.03122718       2.39941405      -2.28728010     -11.71272532      -0.01103902       0.00177301      -0.00533314       0.30114916
47
Properties=species:S:1:pos:R:3:energies:R:1:forces:R:3:charge:R:1 energy=-2291.0699592234746 free_energy=-2291.0699592234746 dipole="-0.18921564742381836 0.8976661257405675 0.9320115872474922" pbc="F F F"
O       -2.57828806       0.62211561      -1.19804149    -113.41066519      -0.00414632      -0.00197790       0.00099509      -0.46862826
O       -2.57836828       0.92113316       2.37476724    -113.23248885       0.00236669      -0.00756470       0.00263076      -0.45652220
O       -1.49026501      -1.74263241      -0.55919561    -113.16912152       0.00018495       0.00030525      -0.00677718      -0.47345145
O       -4.92638106       2.45395458       1.99697295    -113.05775662       0.00986063       0.00482553       0.00402909      -0.43865948
O        0.35096391      -0.75980729      -3.53220547    -114.49305143       0.00581255      -0.00012289      -0.00541909      -0.59061718
O        1.18263122       1.99744770       0.12532545    -113.09179000      -0.00127451      -0.00196009      -0.00613134      -0.42275958
C       -2.68699890       0.09583056       0.10622386     -59.04632751      -0.00017205      -0.00231238       0.00122654       0.09978769
C       -3.04333156       1.22278204       1.08131931     -59.15834361       0.00461349      -0.00241301       0.00298190       0.09309397
C       -1.43742713      -0.74311603       0.44322897     -59.13762929       0.00061221      -0.00317792      -0.00327740       0.10142071
C       -4.56738314       1.42405081       1.10559277     -59.23979904       0.00556112       0.00490034       0.00219516       0.05952693
C       -0.10316400      -0.02680835       0.47334443     -58.47856110       0.00022116      -0.00213435      -0.00231588      -0.00702495
C        0.04800479       1.24506902       0.10411160     -58.53133538       0.00031158      -0.00400933      -0.00614327       0.06237132
H       -3.51017986      -0.63708108       0.12130321     -13.03873638      -0.00088773      -0.00148178       0.00389899       0.03873513
H       -2.57841195       2.15997732       0.73339148     -13.12101671       0.00956531      -0.00395374       0.00539935       0.03289360
H       -1.59719103      -1.19315591       1.43763459     -13.14712868       0.00182650      -0.00657917      -0.00465398       0.03430446
H       -4.93239602       1.61390528       0.09071459     -13.22919980       0.00731014       0.00872868       0.00226008       0.03806004
H       -5.04228628       0.51948784       1.49412242     -13.00593254       0.00087178       0.00638146      -0.00004831       0.06099099
H       -2.26744261      -0.12966268      -1.72865294     -11.18733436      -0.00454129      -0.00183991       0.00045469       0.33293389
H       -3.16456618       1.38527378       2.99055843     -11.30852466       0.00427891      -0.00607987       0.00328078       0.31659146
H       -0.78430712       1.79894962      -0.29155345     -13.08251513       0.00016309      -0.00590349      -0.01077661       0.06329297
H       -1.29201011       1.70787750      -2.46419702     -11.78088554      -0.00516836      -0.00255747      -0.01039232       0.30035337
H       -0.67866432      -2.27758540      -0.57465922     -11.49882321      -0.00039961      -0.00089319      -0.00672938       0.32402522
H        1.80987643       1.65650664       0.79104760     -11.26711213      -0.00231105       0.00099133      -0.00234331       0.32526119
H       -4.66758076       3.30196719       1.61936999     -11.56187077       0.01429336       0.00434815       0.00600601       0.29365293
O        2.46651305      -1.76232204      -2.13392282    -112.28871080       0.00075986       0.00713540       0.00137741      -0.34323763
O        0.97673125      -2.89454515      -0.91085303    -112.48407477       0.00098860       0.00306789      -0.00210299      -0.42860660
O        5.30123748      -1.96134443      -0.47253408    -112.26545776       0.00322330       0.00021317       0.00911050      -0.41812106
N        0.98931756      -0.79839041       0.98785913     -80.86593463      -0.00041581      -0.00064026       0.00163986      -0.24618629
N        4.92078704       0.07505871       0.42053707     -80.92052234      -0.00105845       0.00044542       0.00645411      -0.27433880
C        2.11673195      -1.02616453       0.08408449     -58.92353949       0.00152750       0.00000212       0.00346919       0.01998280
C        3.30687941      -1.63762841       0.85195784     -59.31067764      -0.00004092      -0.00106275       0.00462155      -0.10650168
C        1.77769976      -1.99892506      -1.04212493     -58.89521317       0.00162936       0.00314215       0.00074168       0.36101269
C        4.61858292      -1.22090746       0.19364206     -59.16931050       0.00099110      -0.00003092       0.00689416       0.28645354
H        2.40949714      -0.07593520      -0.36788761     -12.84586595       0.00261616       0.00033487       0.00525090       0.07912144
H        3.29957081      -1.28059354       1.88095958     -12.90594380      -0.00144351      -0.00212019       0.00501223       0.07771497
H        3.23586844      -2.72602242       0.85440835     -13.08333888       0.00022923      -0.00106849       0.00332576       0.06893254
H        0.65187465      -1.69248775       1.33536367     -12.51734463       0.00014604      -0.00019906       0.00216405       0.16093253
H        0.93240464      -0.01484149      -3.35667730     -11.83774999      -0.01593836       0.01261796      -0.00451674       0.29265808
H        4.36457672       0.64441899       1.03706098     -12.07097838      -0.00322559       0.00073156       0.00433424       0.20658250
H        5.76536158       0.45589168       0.02875278     -12.20332565      -0.00120352       0.00147325       0.00693885       0.19382883
H        2.19402252      -2.34664852      -2.86175060     -10.73243513      -0.00213091       0.01280324      -0.00221264       0.35751965
O        2.56870788       1.06242594       2.36103434    -114.94935238      -0.00598923       0.00307939      -0.00051002      -0.59812300
H        1.90809395       0.35146903       2.26282650     -11.46255235      -0.00334528       0.00078631      -0.00251083       0.31361301
H        2.31189346       1.59326844       3.11728229     -11.76045374      -0.00901163       0.00086175      -0.00002916       0.28969794
O       -0.50322815       1.91682075      -2.97835892    -114.57417274      -0.00294240      -0.00193506      -0.00662004      -0.59362036
H       -0.45634211      -0.35893750      -3.86347681     -11.84908755      -0.00609532      -0.01861329      -0.00813420       0.29268777
H        0.11319605       2.33326746      -2.37080403     -11.87796748      -0.00822274       0.00345598      -0.00504825       0.28836436
47
Properties=species:S:1:pos:R:3:energies:R:1:forces:R:3:charge:R:1 energy=-2291.1096225796914 free_energy=-2291.1096225796914 dipole="-0.12085050161571591 0.8500501343996719 0.567523300200041" pbc="F F F"
O       -2.45672445       0.67285410      -1.22748302    -113.40842616       0.00855841       0.00252236      -0.00201689      -0.46971674
O       -2.63730499       1.07601043       2.30284592    -113.20550301       0.00698052      -0.00095546      -0.00158411      -0.45585957
O       -1.50106324      -1.77227803      -0.38809827    -113.11362133      -0.00163574      -0.00442969      -0.00015262      -0.47399886
O       -5.11154208       2.36552043       1.88884074    -113.04962610       0.00872465       0.00110739       0.00411231      -0.43900422
O        0.10918262      -0.77588084      -3.04672685    -114.61785217      -0.00056942       0.03387593       0.02139497      -0.60929769
O        1.17167704       2.07141573       0.27912378    -113.08379395       0.00745186      -0.01144354      -0.02875001      -0.42302872
C       -2.67380951       0.14582310       0.06318212     -59.06130544       0.00442291       0.00147938      -0.00292547       0.09745102
C       -3.13662590       1.26914223       1.00152812     -59.15010697       0.00716456       0.00174679      -0.00139959       0.09354674
C       -1.44884352      -0.67940138       0.50852653     -59.16970874       0.00021020      -0.00421200      -0.00078222       0.10129653
C       -4.67243594       1.33047728       1.03933365     -59.24059380       0.00712240       0.00417863      -0.00063309       0.05911433
C       -0.10587617       0.02264709       0.50311462     -58.49063319       0.00270675      -0.01008272       0.00029982      -0.00436175
C        0.02983176       1.32690903       0.26620011     -58.51667751       0.00602772      -0.01099937      -0.01937036       0.06184072
H       -3.48237037      -0.60158837       0.00838258     -13.01852708       0.00149533       0.00486201      -0.00606833       0.04091220
H       -2.77186388       2.23265109       0.60582704     -13.13209314       0.00928458       0.00170092       0.00045398       0.03081670
H       -1.63598382      -1.03564704       1.53697004     -13.12015601      -0.00299523      -0.00298035      -0.00106924       0.03560605
H       -5.06636117       1.44193085       0.02341354     -13.24563985       0.00674816       0.00884537      -0.00004717       0.03612468
H       -5.06046416       0.40687460       1.47608755     -13.00960779       0.00621277       0.00270596      -0.00428300       0.06124481
H       -2.08157560      -0.06702142      -1.73451770     -11.18577976       0.00859640       0.00266392      -0.00234383       0.33583825
H       -3.26282623       1.50839021       2.90304555     -11.32731595       0.00633202      -0.00274884      -0.00086936       0.31577327
H       -0.82058403       1.92816214       0.00251035     -13.11770366       0.00729562      -0.01373593      -0.03152356       0.06007371
H       -1.00653847       1.81994041      -2.19872414     -11.65631288      -0.02443867      -0.01469418      -0.02881359       0.31055273
H       -0.63247896      -2.19207653      -0.51400680     -11.50215815      -0.00117849      -0.00256632      -0.00314847       0.32548488
H        1.85968316       1.63324331       0.81172935     -11.30634245       0.00053092       0.00120813       0.00610192       0.32190525
H       -4.90888748       3.21433768       1.47946863     -11.57385950       0.00549531       0.00281686       0.00589274       0.29309985
O        2.57149843      -1.88070081      -2.17280937    -112.22635143      -0.00087971       0.01059950       0.00287900      -0.34077403
O        0.95846788      -2.88957401      -1.00213237    -112.44097138       0.00084034       0.00190349      -0.00143226      -0.42603824
O        5.28262742      -1.98829410      -0.59659566    -112.27592821       0.00165000       0.00471528       0.00084257      -0.42010134
N        0.99466512      -0.79864280       0.90389364     -80.84011509       0.00025340      -0.00807064       0.00933744      -0.24553963
N        4.95097227       0.04874495       0.31532429     -80.91420826      -0.00119401       0.00333853       0.00245200      -0.27435305
C        2.09743707      -1.00800703      -0.02902632     -58.94080600       0.00168599      -0.00369324       0.00958597       0.02168223
C        3.29644348      -1.62598509       0.72906126     -59.29141661       0.00401238      -0.00162749       0.00636604      -0.10767545
C        1.78125608      -2.01467357      -1.13096027     -58.88779532       0.00123819       0.00250007       0.00348267       0.36528891
C        4.61554983      -1.23613849       0.07312111     -59.17483499       0.00132844       0.00252411       0.00276326       0.28729596
H        2.37643960      -0.06015645      -0.49291343     -12.86170681      -0.00099094      -0.00096926       0.01315343       0.08018708
H        3.29788286      -1.26830139       1.75722053     -12.87689578       0.00569016      -0.00197670       0.00658013       0.08030352
H        3.20998150      -2.71363691       0.73692153     -13.09636319       0.00661670      -0.00183022       0.00560189       0.06684041
H        0.65043004      -1.70427163       1.21278734     -12.49877044       0.00469732      -0.00936849       0.01410284       0.16259238
H        0.11373731       0.19617815      -3.03461519     -11.71803608      -0.01219914       0.03570026       0.02551534       0.31286299
H        4.41482410       0.61641250       0.95070107     -12.07723335      -0.00284253       0.00400104       0.00033082       0.20650950
H        5.81355408       0.40774905      -0.05722741     -12.21713827      -0.00441673       0.00668636      -0.00229789       0.19282682
H        2.38402050      -2.55797533      -2.84209093     -10.85734709      -0.00432796       0.01771103      -0.00436439       0.34551254
O        2.69472985       0.98794367       2.34993145    -114.90717303      -0.01456781       0.00587778      -0.00269176      -0.59400015
H        1.98114444       0.33062671       2.28286860     -11.46289803      -0.00652884      -0.00517034       0.00045586       0.31360459
H        2.47278426       1.58611592       3.06618733     -11.73763379      -0.01370441      -0.00842613       0.01304248       0.29136101
O       -0.20481207       1.99276478      -2.71029215    -114.65890236      -0.03505336      -0.00932899      -0.05305396      -0.59397599
H       -0.08317875      -1.03462350      -3.94961850     -12.05656106      -0.02222669       0.04343949       0.02049779       0.27381748
H        0.36814106       2.52541587      -2.15240733     -11.78719140       0.01037563      -0.07940068       0.02437589       0.29635826
47
Properties=species:S:1:pos:R:3:energies:R:1:forces:R:3:charge:R:1 energy=-2289.0565397070795 free_energy=-2289.0565397070795 dipole="-0.17641316212866753 1.041746585706883 -0.139442345956113" pbc="F F F"
O       -2.54684407       0.63770110      -1.20849399    -113.32045758       0.01856590       0.04005239      -0.00385022      -0.46649201
O       -2.71314208       1.09296513       2.31422326    -113.16642685       0.00231889       0.00091909      -0.00117123      -0.45397096
O       -1.48365651      -1.73374703      -0.36934666    -113.11903477      -0.00284031       0.01916301      -0.01923594      -0.47702192
O       -5.20716716       2.35213971       1.83823451    -113.03890241      -0.00409071      -0.00062336       0.00703525      -0.43959472
O        0.09821427      -1.14136291      -3.25455943    -114.34669946      -0.02639553       0.00682337      -0.00548515      -0.57870081
O        1.09028947       2.19475659       0.59453709    -112.75436637       0.00323204       0.00544269       0.00383849      -0.39474761
C       -2.72155705       0.12586672       0.09319065     -59.07058091       0.00538313       0.02366615      -0.01187001       0.09980932
C       -3.21573750       1.24951011       1.01046069     -59.14445975       0.00221414       0.01303656       0.00019822       0.09488716
C       -1.45168609      -0.63427838       0.52159577     -59.13863114      -0.00217732       0.01201286      -0.01041590       0.10203158
C       -4.75102264       1.28244679       1.04177536     -59.23669276       0.00188751       0.00669420       0.00073287       0.05940515
C       -0.13557679       0.12463233       0.49968391     -58.46866978       0.00086404       0.00689756       0.00172928      -0.01275071
C       -0.03780322       1.45258207       0.47886714     -58.50459212       0.00443969       0.00589461      -0.00243129       0.07680086
H       -3.49735910      -0.65860954       0.07360380     -13.04338589       0.00209331       0.02772273      -0.02982740       0.03791864
H       -2.87632147       2.21217203       0.58974948     -13.14702800      -0.00026480       0.01858091       0.01113953       0.02819919
H       -1.60293144      -0.99385919       1.55619733     -13.14808764      -0.00997386       0.00506191      -0.01413191       0.03180476
H       -5.14227105       1.34075249       0.01994979     -13.24870571       0.00129691       0.01072555       0.00125413       0.03538538
H       -5.12767185       0.37558546       1.52072598     -13.01704549       0.00677246       0.00171223      -0.00479006       0.06117391
H       -2.16336076      -0.10212396      -1.70764420     -11.26954243       0.01842191       0.04497275      -0.01122523       0.33046619
H       -3.33298820       1.54477280       2.90535651     -11.34647328       0.00325548      -0.00343264       0.00302317       0.31470789
H       -0.90091822       2.07727624       0.35513260     -13.12062337       0.00571831       0.00598350      -0.01324673       0.06039503
H       -0.74244985       2.00223753      -1.88175937     -11.94930855      -0.00290911      -0.00275386      -0.01262066       0.28963574
H       -0.61874346      -2.16741279      -0.47111974     -11.53099776      -0.00632762       0.01133987      -0.01064910       0.32317917
H        1.85469503       1.61692756       0.73675061     -11.31665321       0.00152193       0.00714416       0.01992809       0.31735355
H       -4.96810727       3.18166207       1.40874385     -11.59294431      -0.01434220       0.00329374       0.00921307       0.29183431
O        2.57928395      -2.00404950      -2.20937565    -112.29051597      -0.01155648       0.02323178      -0.00409063      -0.34723412
O        0.94928748      -2.91704973      -0.98664661    -112.42633030       0.00184180       0.00892133       0.00402148      -0.42543621
O        5.26468068      -2.03716682      -0.61116599    -112.30385486      -0.01250571       0.02374201      -0.00886740      -0.42440946
N        0.99163275      -0.71003994       0.79537693     -80.86586614      -0.00167348       0.00335806       0.00685839      -0.25628508
N        4.96265603       0.01277377       0.28767645     -80.93040444       0.00305278       0.01232584       0.00414899      -0.27644872
C        2.07785811      -0.96957194      -0.13987788     -58.92445703      -0.00117124       0.01024017       0.00549241       0.02494854
C        3.25229303      -1.60972202       0.65354197     -59.25481113       0.00158659       0.01141766       0.00191705      -0.10949480
C        1.76650745      -2.04735560      -1.17283070     -58.87243175      -0.00094970       0.01472458       0.00212622       0.36380332
C        4.60077055      -1.26330825       0.03878530     -59.18686275       0.00422550       0.00569865      -0.00999038       0.28720951
H        2.38631153      -0.05287670      -0.64521553     -12.96289692      -0.00481500       0.01326421       0.00870142       0.07415154
H        3.23339611      -1.24918784       1.67972631     -12.80616362       0.00463567       0.01143253       0.00159869       0.08833527
H        3.13852913      -2.69542316       0.66892315     -13.10080416       0.00282785       0.01133608       0.00170324       0.06579732
H        0.59794543      -1.60196513       1.05194798     -12.42043218       0.10531654      -0.46433079       0.30618732       0.16752521
H        0.25766543      -0.19384627      -3.30320400     -11.77941091       0.00601703       0.00098968      -0.00312198       0.29877738
H        4.44433736       0.57031098       0.94809454     -12.05300409       0.00491772       0.00943548       0.00556182       0.21050296
H        5.86058649       0.33581873      -0.03059158     -12.24466983      -0.00041799       0.01267027      -0.00213852       0.19083681
H        2.43462462      -2.76638484      -2.79260951     -10.89013095      -0.01088808       0.02396513      -0.00557619       0.34237265
O        2.85609991       0.91965969       2.37804984    -114.85058622      -0.00571803       0.00478093       0.00898775      -0.59599786
H        2.05282512       0.38664514       2.27284971     -11.52350966      -0.00461188       0.00224979       0.01241130       0.31094631
H        2.62154816       1.67916039       2.91555205     -11.76219254      -0.00242400      -0.00250772       0.02072313       0.29100549
O        0.18438152       2.11663404      -2.10942582    -113.78520518       0.21464633       5.02761693      -1.59131647      -0.54289679
H        0.17196191      -1.50918631      -4.13926149     -11.91454795      -0.02305071       0.16936989       0.06730407       0.28156513
H        0.24374529       3.42694496      -2.41827174     -10.86714158      -0.27794970      -5.20426250       1.26021704       0.24871651
