47
Properties=species:S:1:pos:R:3 pbc="F F F"
O       -2.73378810       0.21385006      -1.39376315
O       -2.67583283       1.18196353       2.04129634
O       -1.52531629      -2.14234853       0.15507854
O       -5.07219479       2.47426058       1.42060831
O       -0.00536785      -0.43757677      -1.42790685
O        1.24219700       1.84289546      -0.20235218
C       -2.74434370      -0.11257260      -0.03033353
C       -3.15853677       1.16759328       0.71753314
C       -1.43504234      -0.77021377       0.47289990
C       -4.68824451       1.30923522       0.72471333
C       -0.10853103      -0.17383034      -0.03866748
C       -0.01100637       1.34864268       0.19690008
H       -3.50697661      -0.88639182       0.16478514
H       -2.74298550       2.02595396       0.16545389
H       -1.43678701      -0.66604886       1.56769728
H       -5.06600881       1.30331518      -0.30242477
H       -5.13124417       0.47764127       1.27821311
H       -2.33380571      -0.52090498      -1.87495824
H       -3.32275228       1.68681510       2.55730728
H       -0.24152220       1.56792418       1.24304847
H       -0.73801826       1.84189846      -0.45202437
H       -0.74031291      -2.45145810      -0.32530990
H        1.88509071       1.70982911       0.51442354
H       -4.81364682       3.24553881       0.90321702
O        2.44827676      -2.09443784      -2.29809771
O        1.00430244      -3.11832488      -0.93472152
O        5.32259148      -2.07979038      -0.60544079
N        0.99509023      -0.82551416       0.70379276
N        4.88638671       0.03714613       0.04081699
C        2.14327552      -1.14811474      -0.13785145
C        3.33022079      -1.66022106       0.69620661
C        1.78769564      -2.22898792      -1.15784061
C        4.62623238      -1.28616714      -0.01894089
H        2.45648081      -0.24302917      -0.66812871
H        3.31467138      -1.18720244       1.67646507
H        3.27683251      -2.74187225       0.81922916
H        0.65684411      -1.69140060       1.11977304
H        0.77989811       0.03255110      -1.75200152
H        4.32891501       0.65946101       0.60253296
H        5.71226037       0.39428100      -0.40914688
H        2.26315994      -2.83120131      -2.90292371
O        2.60799571       1.13986391       2.08305980
H        1.93554738       0.44303746       1.98565569
H        2.29995739       1.75535407       2.75115228
O       -0.11479522       2.10778733      -2.58391490
H       -0.13347161       1.19466367      -2.28818469
H       -0.08857970       3.38951367      -2.99902320
