44
Properties=species:S:1:pos:R:3 reactant=T mapped=T (centered)=T pbc="F F F"
O       -3.15702859       1.10661916      -1.59427967
O       -3.20103013       0.66318221       1.97946815
O       -1.62376780      -1.18262018      -1.45997235
O       -5.21166247       2.54984969       1.80180513
O        0.05382674       0.78919492      -1.16432190
O        0.82994771       1.92876721       1.14557380
C       -3.12327475       0.35186438      -0.41456547
C       -3.42258227       1.30417384       0.74516185
C       -1.77346121      -0.41884746      -0.28597009
C       -4.87461496       1.80090525       0.65732456
C       -0.56343350       0.49771651      -0.16750535
C       -0.17005261       0.93252967       1.21827608
H       -3.89993860      -0.42960493      -0.44399169
H       -2.75328699       2.17623680       0.65138573
H       -1.83955621      -1.08043490       0.58064406
H       -5.00495619       2.37016679      -0.26678478
H       -5.55493074       0.94583275       0.65362529
H       -2.91601225       0.51287280      -2.31941305
H       -3.86818503       1.00573494       2.59479942
H       -1.04848196       1.27923344       1.77002166
H        0.20331954       0.02606209       1.71449149
H       -0.92878771      -0.73814188      -1.97787904
H        1.14369394       2.12881827       2.03320079
H       -4.80700198       3.42241686       1.74484022
O        3.51878897      -3.03261260      -1.86526638
O        2.64908439      -4.14089859      -0.12728915
O        5.16612338      -1.79727743       0.16795818
N        0.77388171      -2.08048838       0.22856825
N        4.65836906       0.22142760      -0.68858358
C        2.03976634      -1.83042151      -0.44473234
C        2.92785967      -0.97889833       0.48372098
C        2.77178429      -3.13213633      -0.76845710
C        4.36397188      -0.90523822      -0.02227923
H        1.86044514      -1.28889601      -1.37822656
H        2.50151003       0.01856482       0.56006678
H        2.93536075      -1.45527206       1.46571870
H        0.94139794      -2.76841996       0.96024637
H        0.11043630      -2.49962924      -0.41666690
H        3.97876597       0.95725162      -0.86208172
H        5.59338840       0.32765747      -1.04531265
H        4.04346361      -3.83805282      -2.00080883
O        2.61214140       2.16529408      -1.14221681
H        2.07316524       1.92369170      -1.90001237
H        1.99155354       2.19182595      -0.40028149
44
Properties=species:S:1:pos:R:3 reactant=T mapped=T (centered)=T pbc="F F F"
O       -3.16110011       1.03906494      -1.59247121
O       -3.17509859       0.70037212       1.99188867
O       -1.67768349      -1.25417473      -1.40615899
O       -5.21015294       2.55468602       1.77733301
O        0.03303270       0.71415389      -1.24441770
O        0.77544839       1.98338642       1.09229842
C       -3.12650212       0.31499715      -0.39373693
C       -3.41765534       1.29898351       0.74016781
C       -1.78194201      -0.45616493      -0.25075907
C       -4.87800961       1.76608079       0.65830019
C       -0.56787332       0.46134137      -0.21973852
C       -0.19889373       0.98236176       1.13114025
H       -3.89769178      -0.47258035      -0.39290363
H       -2.76941791       2.18089522       0.60117170
H       -1.83998285      -1.07762403       0.64624380
H       -5.02933672       2.29529202      -0.28615297
H       -5.54270968       0.90011158       0.70238084
H       -2.91986576       0.43094896      -2.30476904
H       -3.82921783       1.06467500       2.60820056
H       -1.04490610       1.35921511       1.71149001
H        0.15095435       0.09447096       1.67520648
H       -0.98264243      -0.85301038      -1.96037307
H        1.15708736       2.14481924       1.96073265
H       -4.81627304       3.42845643       1.67741939
O        3.43431176      -2.97588268      -1.92708541
O        2.52585235      -4.10370797      -0.19801384
O        5.19636964      -1.84320499       0.11480740
N        0.78828029      -1.97907903       0.25477284
N        4.70699545       0.20859226      -0.63562998
C        2.04656052      -1.76470295      -0.44719115
C        2.97728881      -1.00828275       0.51092213
C        2.70428203      -3.09119809      -0.82010193
C        4.39994685      -0.93859078      -0.01880761
H        1.90329320      -1.19547057      -1.36918017
H        2.57968223      -0.00635806       0.64584885
H        2.98792806      -1.54185382       1.46232067
H        0.91804641      -2.68280397       0.98071926
H        0.12632257      -2.45492227      -0.52589042
H        4.03374116       0.95591046      -0.76400504
H        5.63576076       0.33364543      -1.00030944
H        3.91069742      -3.80448235      -2.09486435
O        2.67817938       2.15769181      -1.05205268
H        2.08732110       1.87998222      -1.75663196
H        2.10957256       2.25396003      -0.28212081
44
Properties=species:S:1:pos:R:3 reactant=T mapped=T (centered)=T pbc="F F F"
O       -3.16932900       0.97831358      -1.58640407
O       -3.15235449       0.73498135       2.00299912
O       -1.73643786      -1.32740167      -1.34983058
O       -5.20857121       2.55943096       1.75432689
O        0.00608956       0.63389522      -1.32937606
O        0.72524364       2.04369270       1.02885770
C       -3.12998047       0.27956845      -0.37232035
C       -3.41445853       1.29296385       0.73628538
C       -1.78944848      -0.49378220      -0.21712178
C       -4.88204028       1.73309461       0.66131694
C       -0.57167607       0.41972061      -0.27379017
C       -0.23049318       1.03224490       1.03910696
H       -3.89708397      -0.51175904      -0.34188411
H       -2.78844097       2.18296558       0.55289130
H       -1.83997620      -1.07973758       0.70449263
H       -5.05374013       2.22297863      -0.30071736
H       -5.53064408       0.85873046       0.75161412
H       -2.93570127       0.36016701      -2.29139529
H       -3.79288032       1.12162935       2.61960258
H       -1.04566602       1.43362884       1.64956715
H        0.10372214       0.17085745       1.63638472
H       -1.06820775      -0.95168646      -1.95556466
H        1.13277778       2.16186701       1.89466469
H       -4.82583852       3.43262091       1.61339455
O        3.35628416      -2.92234549      -1.98454134
O        2.41368662      -4.06647825      -0.26553147
O        5.22402981      -1.88686098       0.06007721
N        0.80646834      -1.88167819       0.28070216
N        4.75667503       0.19066466      -0.58701925
C        2.06031446      -1.70059485      -0.44374176
C        3.02519929      -1.03637634       0.53864982
C        2.64695339      -3.04971284      -0.86462640
C        4.43397466      -0.97258092      -0.01748936
H        1.94925353      -1.10822632      -1.35427165
H        2.65688247      -0.03463613       0.73670381
H        3.04029424      -1.62953033       1.45345966
H        0.89599447      -2.59754932       1.00225510
H        0.15960728      -2.42021662      -0.63011624
H        4.09108536       0.94772845      -0.66969492
H        5.67840490       0.33622177      -0.95997346
H        3.78234406      -3.77043770      -2.18546663
O        2.74474431       2.14623287      -0.96948506
H        2.10050599       1.84342815      -1.61088967
H        2.27243333       2.32396384      -0.15610184
44
Properties=species:S:1:pos:R:3 reactant=T mapped=T (centered)=T pbc="F F F"
O       -3.17957743       0.92446874      -1.57627051
O       -3.13156207       0.76745098       2.01338811
O       -1.80269072      -1.41172380      -1.27824942
O       -5.20685294       2.56405433       1.73343711
O       -0.02413292       0.54593494      -1.41775833
O        0.68372904       2.10151882       0.94262488
C       -3.13326501       0.24623174      -0.35004469
C       -3.41276636       1.28652608       0.73394813
C       -1.79603245      -0.52979912      -0.18267810
C       -4.88642146       1.70253848       0.66640665
C       -0.57463535       0.37372889      -0.32902999
C       -0.26287274       1.08241643       0.94300808
H       -3.89827889      -0.54607837      -0.29114054
H       -2.81030316       2.18315157       0.50734136
H       -1.84022054      -1.08313941       0.76015821
H       -5.07754579       2.15460298      -0.31042959
H       -5.51888183       0.82219771       0.80054579
H       -2.95952643       0.29978011      -2.27830069
H       -3.75898992       1.17573551       2.62924730
H       -1.04835897       1.50870944       1.58070364
H        0.05850181       0.24971226       1.59119487
H       -1.18295583      -1.05772362      -1.94814310
H        1.08550097       2.19564137       1.81703303
H       -4.83532587       3.43513902       1.55405572
O        3.28606238      -2.87318739      -2.03718237
O        2.31165489      -4.02950347      -0.32763327
O        5.24955688      -1.92731929       0.00533353
N        0.82715128      -1.78664783       0.29923320
N        4.80544384       0.16993181      -0.54380423
C        2.08358064      -1.63969448      -0.43574467
C        3.07276050      -1.06452588       0.56828507
C        2.60354863      -3.00998783      -0.90037947
C        4.46680824      -1.00576074      -0.01725278
H        2.00552560      -1.02690280      -1.33519718
H        2.73138838      -0.06872348       0.83059086
H        3.08806083      -1.71882680       1.43980029
H        0.87039080      -2.51540159       1.01224126
H        0.20767369      -2.35949917      -0.75064358
H        4.14790736       0.93441699      -0.58187354
H        5.71976202       0.33618977      -0.92488889
H        3.66014294      -3.73687947      -2.27138177
O        2.79704168       2.13661317      -0.86560121
H        2.12663239       1.81344292      -1.46429234
H        2.45237187       2.38119047      -0.01065782
44
Properties=species:S:1:pos:R:3 reactant=T mapped=T (centered)=T pbc="F F F"
O       -3.18791032       0.87532699      -1.56370424
O       -3.11190969       0.79809256       2.02327099
O       -1.87381462      -1.51726598      -1.17603417
O       -5.20502209       2.56824196       1.71494627
O       -0.05426639       0.45972577      -1.50259798
O        0.64242858       2.16009955       0.83777148
C       -3.13526436       0.21519954      -0.32723744
C       -3.41216385       1.27965499       0.73311840
C       -1.80090553      -0.56386361      -0.14643524
C       -4.89079238       1.67459721       0.67317439
C       -0.57731479       0.32534122      -0.38305606
C       -0.29664407       1.13177175       0.84537329
H       -3.90122288      -0.57451970      -0.24137489
H       -2.83481223       2.18170250       0.46473516
H       -1.84076347      -1.08566308       0.81613926
H       -5.09988849       2.09077228      -0.31596882
H       -5.50746988       0.79048662       0.84821978
H       -2.98039835       0.24759045      -2.26487181
H       -3.72751053       1.22620518       2.63739379
H       -1.05221186       1.58710625       1.50671610
H        0.01457066       0.32900224       1.53976489
H       -1.33294745      -1.19417257      -1.92574618
H        1.03351227       2.25056809       1.72016842
H       -4.84456923       3.43607804       1.50023200
O        3.22470803      -2.82983799      -2.08388917
O        2.20979915      -3.99106083      -0.38464653
O        5.27262657      -1.96399709      -0.04805753
N        0.84707863      -1.69527084       0.30349080
N        4.85185722       0.14856852      -0.50524226
C        2.11712575      -1.58306239      -0.42448743
C        3.11949244      -1.09372102       0.60008546
C        2.57136772      -2.97489944      -0.92854635
C        4.49857357      -1.03694387      -0.01632401
H        2.07909242      -0.94961514      -1.31249805
H        2.79929567      -0.10955428       0.92368637
H        3.12679025      -1.80854210       1.42196909
H        0.84070777      -2.43767292       1.00219423
H        0.27749642      -2.23963110      -0.91023948
H        4.20322466       0.91900395      -0.50020129
H        5.75852738       0.33452795      -0.89460507
H        3.54501050      -3.70515891      -2.35120304
O        2.83099638       2.13011648      -0.72775225
H        2.18245015       1.78304310      -1.33472751
H        2.62107029       2.41162968       0.15699566
44
Properties=species:S:1:pos:R:3 reactant=T mapped=T (centered)=T pbc="F F F"
O       -3.18880347       0.82296019      -1.55260094
O       -3.09271730       0.82694899       2.03262811
O       -1.93272667      -1.65181074      -1.02780674
O       -5.20287359       2.57126642       1.69878314
O       -0.08282785       0.40564932      -1.57472624
O        0.59547980       2.22729217       0.71189923
C       -3.13309380       0.18479634      -0.30481388
C       -3.41147241       1.27114004       0.73311033
C       -1.80262227      -0.59933288      -0.10878782
C       -4.89409277       1.64874740       0.68096344
C       -0.58058933       0.27609713      -0.43027550
C       -0.33339074       1.18549422       0.74811521
H       -3.90413271      -0.59769287      -0.19420994
H       -2.86056983       2.17754396       0.42551205
H       -1.84060221      -1.08571972       0.87544632
H       -5.11911509       2.03087273      -0.31851581
H       -5.49585326       0.76290499       0.89371217
H       -2.97847952       0.19213663      -2.24827014
H       -3.69824233       1.27239736       2.64426391
H       -1.05526242       1.67275880       1.43562789
H       -0.02894758       0.41171081       1.48150830
H       -1.51154518      -1.39708976      -1.86929133
H        0.98200286       2.32516443       1.59792818
H       -4.85332213       3.43517069       1.45227012
O        3.17183080      -2.79350343      -2.12281760
O        2.09422992      -3.94540198      -0.43978204
O        5.29184548      -1.99725891      -0.09951316
N        0.85588596      -1.61239647       0.28121857
N        4.89627555       0.12611146      -0.47022345
C        2.15113701      -1.53389696      -0.41148931
C        3.16094769      -1.12629308       0.62956030
C        2.53579117      -2.94415800      -0.95426070
C        4.52762919      -1.06671246      -0.01379331
H        2.17293160      -0.87617250      -1.28528897
H        2.85560987      -0.15862046       1.01062139
H        3.15306886      -1.89677614       1.39842080
H        0.80943610      -2.35911820       0.97167272
H        0.36585879      -2.03174475      -1.13635842
H        4.26011584       0.90314232      -0.42022227
H        5.79476741       0.33110336      -0.86869144
H        3.43639230      -3.67615489      -2.42320189
O        2.85874231       2.12073958      -0.55944892
H        2.26444959       1.75601355      -1.21182200
H        2.76685435       2.41169131       0.34294867
44
Properties=species:S:1:pos:R:3 reactant=T mapped=T (centered)=T pbc="F F F"
O       -3.17754348       0.74754076      -1.54804607
O       -3.07246082       0.85640229       2.04267700
O       -1.96551428      -1.80610630      -0.83323176
O       -5.19966739       2.57250683       1.68360549
O       -0.11215427       0.42500863      -1.63014500
O        0.53533037       2.32024254       0.53970295
C       -3.12324553       0.14841501      -0.28141354
C       -3.40843444       1.25779370       0.73339280
C       -1.80066397      -0.64652663      -0.06660790
C       -4.89484681       1.62163946       0.69032131
C       -0.58215802       0.21740953      -0.46905578
C       -0.37953649       1.26344272       0.64020076
H       -3.90328664      -0.62187816      -0.14847705
H       -2.88547772       2.16731537       0.38927406
H       -1.83785091      -1.08606181       0.94489018
H       -5.13458180       1.96813549      -0.31880285
H       -5.48174374       0.73597021       0.94073831
H       -2.93556232       0.09771416      -2.21608023
H       -3.66861660       1.31842408       2.65117021
H       -1.05028533       1.78834821       1.38181682
H       -0.08597068       0.51279023       1.40265646
H       -1.64691139      -1.70156489      -1.73650115
H        0.92772160       2.43489857       1.42315626
H       -4.86185412       3.43175096       1.40629063
O        3.12000834      -2.76091373      -2.15534852
O        1.95288250      -3.88252922      -0.50269364
O        5.30515950      -2.03072277      -0.15478469
N        0.84282087      -1.53143665       0.22686355
N        4.94225745       0.09775977      -0.43680350
C        2.15609505      -1.49419581      -0.40359780
C        3.18849004      -1.16832723       0.64592324
C        2.46888194      -2.90594623      -0.98947435
C        4.55075932      -1.09996114      -0.01173048
H        2.27848758      -0.80817837      -1.25012660
H        2.89717275      -0.22401187       1.09107368
H        3.16627195      -1.98849874       1.36047322
H        0.77924674      -2.26304190       0.93347073
H        0.45219838      -1.73111722      -1.47447380
H        4.32763363       0.88445774      -0.33052702
H        5.83138080       0.32382806      -0.84564984
H        3.32267785      -3.64590081      -2.49230873
O        2.90325533       2.10143389      -0.34819742
H        2.36779596       1.73219137      -1.05152675
H        2.89183882       2.37149992       0.56790582
44
Properties=species:S:1:pos:R:3 reactant=T mapped=T (centered)=T pbc="F F F"
O       -3.15516820       0.65369745      -1.54450251
O       -3.06378782       0.87944000       2.05725878
O       -2.03048508      -1.92275257      -0.69165827
O       -5.19648438       2.57220327       1.67186962
O       -0.15153038       0.47582751      -1.66680516
O        0.46359379       2.47363263       0.30999157
C       -3.11021231       0.10350573      -0.25519768
C       -3.40152976       1.23935157       0.73696575
C       -1.80705443      -0.72519201      -0.02267904
C       -4.89372479       1.59471870       0.70234557
C       -0.56284622       0.07950990      -0.51955837
C       -0.36641349       1.37671878       0.45094128
H       -3.90040636      -0.65419636      -0.10932433
H       -2.89178558       2.14779510       0.37668028
H       -1.82655685      -1.11839872       1.01343731
H       -5.14446313       1.90720785      -0.31497928
H       -5.46718780       0.71049043       0.98678156
H       -2.87659536      -0.03372359      -2.16351045
H       -3.64620206       1.36286755       2.66288787
H       -0.99880250       1.99277316       1.48591036
H       -0.25073736       0.66189396       1.24397972
H       -1.53124931      -2.03426504      -1.49497257
H        0.88666798       2.60724782       1.17548142
H       -4.86874378       3.42600639       1.36720392
O        3.06708722      -2.73123897      -2.17928572
O        1.81006917      -3.80881445      -0.56841951
O        5.30959512      -2.06103149      -0.21225535
N        0.82865615      -1.42813195       0.22724505
N        4.98283727       0.06425774      -0.41228253
C        2.10746908      -1.46005981      -0.41526787
C        3.19127488      -1.21847995       0.63441382
C        2.36480855      -2.85065753      -1.03971594
C        4.55990137      -1.13544310      -0.01784080
H        2.33203173      -0.75907195      -1.22088213
H        2.91832647      -0.30682659       1.15546344
H        3.16908932      -2.07780871       1.30228279
H        0.74963204      -2.16080731       0.93082772
H        0.52839434      -1.42939176      -1.94891689
H        4.40253851       0.86356737      -0.23826294
H        5.86394441       0.31177158      -0.82865514
H        3.20904234      -3.61182393      -2.55508388
O        2.96133278       2.06199546      -0.09124978
H        2.46607766       1.68299865      -0.82240761
H        2.96959677       2.27863719       0.84174492
44
Properties=species:S:1:pos:R:3 reactant=T mapped=T (centered)=T pbc="F F F"
O       -3.14710009       0.61848835      -1.53913143
O       -3.10236520       0.87003233       2.08018829
O       -2.06671927      -1.96606758      -0.69878110
O       -5.20286766       2.57577682       1.67201778
O       -0.17483395       0.42950063      -1.69803572
O        0.42179379       2.57295118       0.19979057
C       -3.12668961       0.06871170      -0.24965843
C       -3.43409419       1.23154072       0.74284058
C       -1.82264119      -0.80744771      -0.00314739
C       -4.91561043       1.58701281       0.70903834
C       -0.49786782      -0.09666077      -0.55712308
C        0.07608262       1.22920561       0.25203696
H       -3.91066099      -0.68788532      -0.09245795
H       -2.93017499       2.15342608       0.39076332
H       -1.76963698      -1.13836461       1.05160037
H       -5.15801117       1.88628834      -0.31378060
H       -5.47392550       0.69793685       1.00523004
H       -2.85087733      -0.07587193      -2.14343191
H       -3.65671622       1.38480689       2.68327588
H       -0.83600599       2.07116874       1.95006860
H       -0.75201011       1.06873011       0.79671071
H       -1.39039573      -2.16805214      -1.34172528
H        0.87256507       2.74467951       1.03914389
H       -4.87435988       3.42626940       1.35872390
O        3.03397449      -2.71612805      -2.18991128
O        1.74973635      -3.77384192      -0.59457814
O        5.31206806      -2.07238270      -0.23456929
N        0.83723985      -1.35415029       0.28545873
N        4.99801068       0.04849385      -0.40700281
C        2.08084334      -1.44265226      -0.42111584
C        3.19097330      -1.24369805       0.62325285
C        2.30845377      -2.81996649      -1.06557375
C        4.56130512      -1.15080451      -0.02511471
H        2.33370042      -0.74344444      -1.21771066
H        2.92865904      -0.35132879       1.18319733
H        3.17143178      -2.11881584       1.27146383
H        0.72751903      -2.11007347       0.95307253
H        0.54853943      -1.30183516      -2.17153147
H        4.43712956       0.85381629      -0.20476858
H        5.87744116       0.30444473      -0.82322419
H        3.15892644      -3.59304994      -2.57969413
O        2.98440852       2.04155037       0.03878399
H        2.50807703       1.63973582      -0.69274377
H        2.97468546       2.22795482       0.97815200
44
Properties=species:S:1:pos:R:3 reactant=T mapped=T (centered)=T pbc="F F F"
O       -3.16923121       0.58874322      -1.54009799
O       -3.03290065       0.88311672       2.07223602
O       -2.03233170      -1.91354543      -0.65383199
O       -5.20233993       2.57024658       1.67725122
O       -0.16491700       0.35160449      -1.67416447
O        0.47723633       2.52305296       0.13386751
C       -3.11520721       0.06261944      -0.23470522
C       -3.43565582       1.21384170       0.75834665
C       -1.77187711      -0.73846299       0.02882681
C       -4.92058919       1.57600173       0.71709551
C       -0.43945496      -0.10604622      -0.45976637
C       -0.11114491       1.18445165       0.71527262
H       -3.89131297      -0.69838615      -0.07383880
H       -3.00141892       2.17394959       0.41781751
H       -1.69775246      -1.00903145       1.09048210
H       -5.16975540       1.86881391      -0.30722429
H       -5.46831613       0.68462375       1.01970412
H       -2.84309938      -0.09864890      -2.13666720
H       -3.61587868       1.37549419       2.67124795
H       -0.68680922       1.61635507       1.67739571
H       -0.89872947       1.53872396       0.11032751
H       -1.34153326      -2.19915928      -1.24859656
H        0.86253967       2.77601313       0.97824519
H       -4.88286521       3.42298618       1.35981877
O        3.00597953      -2.70006598      -2.20165737
O        1.71606290      -3.75369180      -0.61151502
O        5.31525717      -2.07481119      -0.24685964
N        0.84538604      -1.32746454       0.29821323
N        4.99853797       0.04889675      -0.40121850
C        2.07777113      -1.42672875      -0.42325283
C        3.19646202      -1.26153053       0.61657106
C        2.27818805      -2.80107889      -1.08029565
C        4.56434322      -1.15493834      -0.03150699
H        2.33375957      -0.72695196      -1.21729905
H        2.94582103      -0.38168168       1.19978019
H        3.17742682      -2.14612991       1.25239785
H        0.71756566      -2.09180077       0.95291522
H        0.53319637      -1.23646340      -2.20655087
H        4.44562536       0.85608554      -0.18704410
H        5.87864007       0.30578873      -0.81574288
H        3.12730297      -3.57586427      -2.59521975
O        2.96821205       2.02375909       0.11876563
H        2.47926623       1.57839385      -0.57913751
H        2.94854065       2.19892021       1.05961363
44
Properties=species:S:1:pos:R:3 reactant=T mapped=T (centered)=T pbc="F F F"
O       -3.17866498       0.51268396      -1.52399188
O       -2.95927729       0.92322875       2.07675262
O       -1.95408397      -1.88801197      -0.59539862
O       -5.19007265       2.55912982       1.66900088
O       -0.21222106       0.25747224      -1.66411115
O        0.53892733       2.47521453      -0.20533654
C       -3.07864020       0.04110666      -0.19993332
C       -3.40938747       1.19577109       0.76977475
C       -1.71809041      -0.69721843       0.07817373
C       -4.90346207       1.54028898       0.73553312
C       -0.39905085      -0.05034623      -0.38102931
C       -0.23620665       1.26901192       0.46500660
H       -3.84272914      -0.72987218      -0.02223211
H       -3.00647180       2.16380501       0.42488563
H       -1.63285056      -0.91846884       1.15088740
H       -5.17631549       1.80010257      -0.29196393
H       -5.43510689       0.65114076       1.07029052
H       -2.82971311      -0.17951733      -2.10216776
H       -3.55418487       1.40928230       2.66867871
H       -0.64618010       1.52435098       1.45420513
H       -0.97334086       1.74885857      -0.19127685
H       -1.18748571      -2.27160812      -1.02262125
H        0.81843384       2.87064885       0.63125015
H       -4.88920881       3.40795130       1.32381753
O        2.92461419      -2.63991280      -2.24793818
O        1.60137046      -3.68026058      -0.67715222
O        5.31760081      -2.08310313      -0.31589375
N        0.87074555      -1.22672870       0.33500176
N        4.99717992       0.05684316      -0.37291112
C        2.06736082      -1.37877091      -0.44136272
C        3.21278423      -1.32961020       0.58966015
C        2.18935016      -2.73728705      -1.13347532
C        4.57317762      -1.16886472      -0.06171710
H        2.32230826      -0.66617232      -1.22706103
H        3.00826842      -0.51175647       1.27470137
H        3.18824198      -2.25144389       1.17187791
H        0.71250172      -2.00676304       0.96554868
H        0.49721525      -1.10314929      -2.30954723
H        4.46806354       0.87487954      -0.13497162
H        5.87712211       0.31788189      -0.78680137
H        3.00306193      -3.50967685      -2.66551423
O        2.97858597       1.98754366       0.42610012
H        2.45251539       1.35814822      -0.06679985
H        2.79331541       2.08319830       1.36006073
44
Properties=species:S:1:pos:R:3 reactant=T mapped=T (centered)=T pbc="F F F"
O       -3.16880279       0.45424332      -1.50420234
O       -2.90356356       0.96183480       2.07766117
O       -1.88758406      -1.90922341      -0.53181362
O       -5.17405253       2.55111938       1.65370389
O       -0.28341404       0.16130860      -1.66797516
O        0.63351490       2.33131274      -0.48558714
C       -3.04620173       0.01841260      -0.17078229
C       -3.37815326       1.18849424       0.77185720
C       -1.68448871      -0.69395806       0.11758205
C       -4.87901387       1.50914214       0.74912667
C       -0.37935033      -0.03991151      -0.35504845
C       -0.26490962       1.34866735       0.28817207
H       -3.80116338      -0.75887069       0.02372394
H       -2.97938897       2.14736318       0.40445544
H       -1.58781758      -0.87077780       1.19763103
H       -5.17439381       1.73543684      -0.27999580
H       -5.39935992       0.62542718       1.11602650
H       -2.81930984      -0.24963009      -2.06792092
H       -3.50302228       1.45020013       2.66305573
H       -0.59799853       1.57682714       1.30608761
H       -1.00963786       1.83655809      -0.35443617
H       -1.09049174      -2.29107138      -0.90904113
H        0.90186837       2.87197384       0.27589830
H       -4.88742345       3.39265216       1.27995874
O        2.84942852      -2.57700549      -2.28484701
O        1.49689284      -3.60053781      -0.73338942
O        5.31613659      -2.07774029      -0.37965774
N        0.88974004      -1.12662363       0.35651968
N        4.96733683       0.08268837      -0.33714352
C        2.06496395      -1.32234930      -0.45196500
C        3.22631664      -1.38721672       0.56746517
C        2.11317930      -2.66620149      -1.17290711
C        4.57676919      -1.17066052      -0.08879014
H        2.31736498      -0.57048573      -1.20437581
H        3.07580860      -0.64407749       1.34792704
H        3.19134296      -2.34482225       1.09062963
H        0.70678139      -1.91492874       0.97102153
H        0.48671244      -0.97547498      -2.37354449
H        4.40793091       0.88543807      -0.10795663
H        5.84844932       0.34623394      -0.74618406
H        2.88421205      -3.43966973      -2.72429166
O        2.92229716       1.91394162       0.67154390
H        2.35621236       1.17970641       0.41349381
H        2.66628252       2.06225495       1.58831352
44
Properties=species:S:1:pos:R:3 reactant=T mapped=T (centered)=T pbc="F F F"
O       -3.15631194       0.40040056      -1.48187660
O       -2.85269462       1.00280645       2.07427764
O       -1.82160579      -1.94516948      -0.45894105
O       -5.15602935       2.54570051       1.63415722
O       -0.37761461       0.00655133      -1.64792256
O        0.72649246       2.15101114      -0.68470904
C       -3.01714858      -0.00512749      -0.14109627
C       -3.34471778       1.18775215       0.76883092
C       -1.65973046      -0.70405648       0.16281072
C       -4.85179100       1.48067662       0.76073130
C       -0.36071933      -0.04343897      -0.31794447
C       -0.26879735       1.40262065       0.13745635
H       -3.76341477      -0.78727459       0.07142384
H       -2.93946767       2.12919804       0.36888093
H       -1.54920312      -0.83336169       1.24757448
H       -5.16987785       1.67161675      -0.26865537
H       -5.36201763       0.60461475       1.16111630
H       -2.81668859      -0.31907206      -2.03194799
H       -3.45418655       1.49610023       2.65333158
H       -0.55558501       1.64098788       1.16616898
H       -1.01948704       1.88137907      -0.50254572
H       -1.00816997      -2.27999874      -0.85481230
H        1.06782150       2.76047930      -0.01191839
H       -4.88256651       3.37767456       1.23066748
O        2.76969061      -2.51197255      -2.31648861
O        1.39064854      -3.50948304      -0.78621463
O        5.30888594      -2.06710500      -0.43857005
N        0.90431325      -1.03063121       0.37479114
N        4.93146190       0.10948635      -0.29164053
C        2.06358069      -1.25988130      -0.45184354
C        3.23249012      -1.42331491       0.54821834
C        2.03304755      -2.58292152      -1.20704949
C        4.57560931      -1.16793811      -0.10922256
H        2.32327761      -0.47115653      -1.16214354
H        3.12938080      -0.74196925       1.39098185
H        3.18624542      -2.41304021       1.00916510
H        0.69763965      -1.82447966       0.97451679
H        0.51518811      -0.77892663      -2.43498685
H        4.33705638       0.88188078      -0.04055494
H        5.81188870       0.37636988      -0.69855000
H        2.76001352      -3.36557033      -2.77589786
O        2.83195759       1.80872822       0.87160143
H        2.23202421       1.05655086       0.75746801
H        2.55911168       2.09330366       1.75136096
44
Properties=species:S:1:pos:R:3 reactant=T mapped=T (centered)=T pbc="F F F"
O       -3.13743259       0.34782079      -1.46186764
O       -2.80722414       1.04480073       2.06572785
O       -1.76900536      -1.99282740      -0.37282852
O       -5.13760973       2.54281058       1.61048606
O       -0.42141214      -0.23554290      -1.60841832
O        0.77682820       2.01618413      -0.82627983
C       -2.99118522      -0.02962653      -0.11356728
C       -3.31217113       1.19122330       0.76018823
C       -1.64152800      -0.72485290       0.21503914
C       -4.82455596       1.45563949       0.76877865
C       -0.34317941      -0.06034792      -0.28408083
C       -0.26164904       1.42253798      -0.00321372
H       -3.73215986      -0.81216001       0.11770918
H       -2.89452880       2.10959527       0.32167250
H       -1.51567709      -0.80005687       1.30218585
H       -5.16375131       1.61062382      -0.25979296
H       -5.32548236       0.58907962       1.20268132
H       -2.80807757      -0.38666896      -1.99790089
H       -3.40878960       1.54447319       2.63895574
H       -0.51768140       1.69430623       1.02466926
H       -1.02494664       1.85095637      -0.65910052
H       -0.94863843      -2.29638931      -0.78961993
H        1.25774139       2.57307179      -0.20188043
H       -4.87622130       3.36370196       1.17770241
O        2.67033307      -2.43600269      -2.35131272
O        1.28373836      -3.40926354      -0.83637016
O        5.29573911      -2.05903320      -0.49035617
N        0.91386674      -0.93653395       0.39475857
N        4.90777945       0.12496808      -0.24303963
C        2.05853601      -1.19812871      -0.44437037
C        3.22980613      -1.44095592       0.53351371
C        1.93793395      -2.48434459      -1.24376023
C        4.57127395      -1.16781287      -0.12154719
H        2.34249211      -0.38799883      -1.11805336
H        3.15461603      -0.79992340       1.41017455
H        3.17251090      -2.45555269       0.93469247
H        0.68495009      -1.73663054       0.97793538
H        0.56339550      -0.41580883      -2.46093906
H        4.29754984       0.87113851       0.04928334
H        5.78626143       0.39535712      -0.65107436
H        2.62738441      -3.28311684      -2.82149253
O        2.74479491       1.71291840       1.02431980
H        2.11620745       0.97205255       0.97722494
H        2.46916804       2.11631948       1.85316671
44
Properties=species:S:1:pos:R:3 reactant=T mapped=T (centered)=T pbc="F F F"
O       -3.10025404       0.29241645      -1.44869683
O       -2.76423582       1.08538371       2.05156794
O       -1.73730833      -2.03584601      -0.27595417
O       -5.12002420       2.53914179       1.58192995
O       -0.35733583      -0.46031597      -1.61934776
O        0.79236813       1.97688474      -0.91176789
C       -2.95809467      -0.05331256      -0.09297577
C       -3.28120306       1.19218662       0.74651124
C       -1.60817933      -0.73599199       0.24607730
C       -4.79832502       1.42978807       0.77315707
C       -0.32127764      -0.08557192      -0.31022471
C       -0.25553959       1.41725944      -0.13101020
H       -3.69699688      -0.83214179       0.15897760
H       -2.85726699       2.08782196       0.26813532
H       -1.47654146      -0.75849013       1.33581909
H       -5.15664665       1.54635590      -0.25393426
H       -5.28779349       0.57365309       1.24124124
H       -2.76547420      -0.45365700      -1.96464040
H       -3.36428621       1.59324364       2.61906317
H       -0.47507555       1.72895099       0.89289589
H       -1.04008734       1.78884850      -0.79380464
H       -0.91015841      -2.36780709      -0.66104774
H        1.43855528       2.34701828      -0.30462820
H       -4.87190863       3.34812452       1.12016615
O        2.56439387      -2.35130740      -2.38808724
O        1.17876830      -3.30723659      -0.88136402
O        5.27866313      -2.05337011      -0.53857950
N        0.91595484      -0.83298099       0.40522209
N        4.89451699       0.12837900      -0.19345307
C        2.05318376      -1.13603384      -0.43738700
C        3.21978911      -1.44983639       0.52199254
C        1.84885149      -2.38607806      -1.27338765
C        4.56317024      -1.17220359      -0.12931869
H        2.35054482      -0.31754561      -1.09484628
H        3.15679539      -0.83992706       1.42167710
H        3.15252072      -2.48438831       0.86475812
H        0.67005456      -1.63842716       0.97523327
H        0.49095670      -0.04614072      -2.38078671
H        4.28140292       0.85343303       0.14362999
H        5.77094892       0.40428850      -0.60200880
H        2.49215852      -3.19243703      -2.86643283
O        2.66681250       1.63924396       1.14042217
H        2.02197436       0.90823216       1.11107859
H        2.40162877       2.11039299       1.93412754
44
Properties=species:S:1:pos:R:3 reactant=T mapped=T (centered)=T pbc="F F F"
O       -3.05806619       0.23004002      -1.43557169
O       -2.71978731       1.12874612       2.03391614
O       -1.69406259      -2.06522940      -0.18557746
O       -5.10329326       2.53326152       1.54688957
O       -0.26231595      -0.55887644      -1.66626675
O        0.82374911       1.97772646      -0.95570140
C       -2.91976554      -0.07890326      -0.07203069
C       -3.25184074       1.18909053       0.73154487
C       -1.56095403      -0.73843115       0.26423546
C       -4.77325003       1.39882793       0.77704238
C       -0.29267045      -0.10567709      -0.35398000
C       -0.25678528       1.41538047      -0.25147839
H       -3.65327805      -0.85527113       0.20395352
H       -2.83248512       2.06395513       0.21172800
H       -1.43104522      -0.71057342       1.35604834
H       -5.15114473       1.47020461      -0.24717241
H       -5.24604100       0.55477655       1.28368486
H       -2.71199555      -0.52743686      -1.92712944
H       -3.31699714       1.64775378       2.59427023
H       -0.42719275       1.75636017       0.77195514
H       -1.06802997       1.75916350      -0.89558691
H       -0.85669044      -2.42073844      -0.52754443
H        1.56233941       2.11810600      -0.35303939
H       -4.87206381       3.32798720       1.05292233
O        2.46533486      -2.27257732      -2.42024706
O        1.06176255      -3.19556312      -0.92671778
O        5.26088882      -2.04803249      -0.58958479
N        0.91525612      -0.71692701       0.40170544
N        4.88874023       0.12304318      -0.13640638
C        2.05344232      -1.07411811      -0.42892943
C        3.20852950      -1.46051782       0.51552617
C        1.77178049      -2.29296010      -1.29330847
C        4.55580018      -1.18109761      -0.13269212
H        2.35979396      -0.24936536      -1.07639031
H        3.14769776      -0.88205780       1.43619933
H        3.12967892      -2.51344533       0.79113483
H        0.65285009      -1.52455734       0.96283934
H        0.33553841       0.12832952      -2.28496003
H        4.27837386       0.82794727       0.24613507
H        5.76193862       0.40845478      -0.54564435
H        2.34713280      -3.09847113      -2.91637619
O        2.58458604       1.58700943       1.22668080
H        1.93878064       0.85493981       1.19069110
H        2.35576045       2.06972377       2.02323196
44
Properties=species:S:1:pos:R:3 product=T mapped+aligned=T onto=T reactant=T pbc="F F F"
O       -3.01740278       0.16506020      -1.41965918
O       -2.67612200       1.17358658       2.01390748
O       -1.63830503      -2.09156959      -0.09604295
O       -5.08769106       2.52521425       1.50740234
O       -0.19172415      -0.54428327      -1.72259337
O        0.88023779       1.94544165      -0.99885267
C       -2.88110575      -0.10662123      -0.04865398
C       -3.22452243       1.18346874       0.71650378
C       -1.51217472      -0.74154213       0.28502182
C       -4.74960177       1.36490392       0.78074735
C       -0.25870522      -0.11798293      -0.38172008
C       -0.26371541       1.42397746      -0.36879074
H       -3.60672025      -0.88159914       0.25239708
H       -2.81621217       2.03838603       0.15539596
H       -1.38566084      -0.66380935       1.37685562
H       -5.14668899       1.38738120      -0.23850866
H       -5.20262278       0.53486962       1.32771746
H       -2.66223951      -0.60398201      -1.88657279
H       -3.26981231       1.70523791       2.56603496
H       -0.37864812       1.78040331       0.65864846
H       -1.11073320       1.75444550      -0.97278318
H       -0.78933250      -2.45528715      -0.40323052
H        1.61586778       1.95457388      -0.36420145
H       -4.87544489       3.30355521       0.98009559
O        2.36840877      -2.20023855      -2.44642561
O        0.92957224      -3.07083088      -0.97193886
O        5.24463990      -2.04213804      -0.64074465
N        0.91360738      -0.59865756       0.39309830
N        4.88776636       0.11206215      -0.07496366
C        2.05500965      -1.01793609      -0.41592346
C        3.19807561      -1.47817672       0.51088421
C        1.69598533      -2.20153783      -1.30760214
C        4.55120234      -1.19272029      -0.13338492
H        2.38331002      -0.18666666      -1.04590565
H        3.13954633      -0.93729491       1.45482930
H        3.10761658      -2.54617433       0.71354846
H        0.63316652      -1.40767858       0.94451481
H        0.21485010       0.17139436      -2.23317384
H        4.28073437       0.79757114       0.34729830
H        5.75674330       0.41034329      -0.48479939
H        2.19636424      -3.00257768      -2.96538286
O        2.49772790       1.54898439       1.28954574
H        1.86302225       0.80789927       1.22862448
H        2.33173112       2.00054483       2.11878212
