44
Properties=species:S:1:pos:R:3:energies:R:1:forces:R:3:charge:R:1 product=T mapped+aligned=T onto=T reactant=T charge=0 multiplicity=1 energy=-2152.455638502038 free_energy=-2152.455638502038 dipole="0.06950625677217824 1.4207630537267855 0.11794549197497926" pbc="F F F"
O       -2.87954189       0.17805119      -1.42046948    -113.16738090       0.00620292      -0.00362252      -0.00192483      -0.45382073
O       -2.71223318       1.38656431       1.93669449    -113.30353986       0.00451354       0.01385597      -0.01045121      -0.46360137
O       -1.71099438      -2.07643337       0.27441456    -112.97386841       0.00000595      -0.00130100       0.04457753      -0.45248302
O       -5.14556876       2.59004687       1.43913409    -113.05738326       0.00171953      -0.00050880      -0.00321123      -0.43868891
O       -0.35440502      -0.94335155      -3.34243339    -114.39443875      -0.03080379       0.01593958       0.02165800      -0.57677938
O        0.98451620       1.74195411      -1.02756059    -113.20582398       0.00988397      -0.00955282       0.00748309      -0.45963975
C       -2.89261254      -0.05283860      -0.03345360     -59.10777627       0.00329389      -0.00152156      -0.00173566       0.09412268
C       -3.26976683       1.27908879       0.64518842     -59.10564931       0.00106511       0.00191136      -0.00803472       0.09145546
C       -1.59202928      -0.69453415       0.49815674     -59.24383565       0.00240002       0.00339778       0.00766836       0.08777570
C       -4.79591131       1.42186941       0.73129212     -59.24997800       0.00104948      -0.00088632      -0.00309900       0.05950519
C       -0.27787524      -0.18839078      -0.09087717     -58.24434846       0.00068807      -0.01188141      -0.00735301       0.07899835
C       -0.24337685       1.25018940      -0.54537263     -59.39326426       0.00553891      -0.00972228      -0.00314428       0.05685626
H       -3.66846497      -0.79764856       0.20903185     -12.96672181       0.00300273      -0.00102945      -0.00157950       0.04762091
H       -2.88234870       2.09814136       0.01745159     -13.09126046      -0.00287822      -0.00152477      -0.01503509       0.03633541
H       -1.56634855      -0.50447284       1.58520205     -12.85387350       0.00695597       0.03060474       0.00271986       0.06163278
H       -5.22573970       1.40655873      -0.27506731     -13.21072760      -0.00273527      -0.00285224      -0.00138661       0.04046697
H       -5.20880119       0.59350486       1.31235220     -13.00679703       0.00450478      -0.00065610      -0.00035363       0.06124623
H       -2.49840548      -0.60005467      -1.85091513     -11.32272667       0.01214954      -0.00010294      -0.00304671       0.32471910
H       -3.37731930       1.82721308       2.48716399     -11.31295423       0.00238801       0.01121196      -0.01068250       0.31775230
H       -0.61142879       1.86653000       0.28763769     -13.16141470      -0.00049567      -0.01053761      -0.00569929       0.03975375
H       -0.95549704       1.34436352      -1.37198048     -12.71546844       0.01209432      -0.00791286      -0.00871400       0.09254664
H       -0.82365004      -2.40469559       0.04240534     -11.35049899      -0.00393457      -0.00385510       0.03312832       0.32644661
H        1.59366233       1.85274884      -0.28106965     -11.49166421       0.00464979      -0.01497203       0.01264717       0.30981548
H       -4.90759658       3.36023405       0.91042382     -11.56363305      -0.00045327      -0.00070878      -0.00452356       0.29377022
O        2.56755748      -1.97885916      -2.78448956    -112.52911241       0.00585114       0.01497049      -0.02096186      -0.37181617
O        1.31235799      -3.28821887      -1.48826225    -111.98438783       0.03794000      -0.01961739      -0.02544502      -0.38744572
O        5.08643451      -1.99390812      -0.66696191    -112.31022909      -0.01666676       0.00948090       0.00064282      -0.42519053
N        0.60680722      -1.08503470      -0.09903498     -79.98959414      -0.00794949      -0.01685575      -0.02025863      -0.24033408
N        4.69011329       0.15293689      -0.11365563     -80.87886514      -0.00691813       0.00071063       0.00159878      -0.27383013
C        1.90656001      -1.08467886      -0.68853518     -58.92148155      -0.00447166      -0.01034251      -0.01615360       0.03719577
C        2.97385293      -1.45118954       0.36835260     -59.21242556      -0.00965187      -0.00297904      -0.00764913      -0.09656812
C        1.87417346      -2.24796599      -1.67815598     -58.86000614       0.01551416      -0.00672256      -0.02038839       0.36786519
C        4.35865081      -1.15441099      -0.18981220     -59.19578772       0.00117689      -0.01540255      -0.00968464       0.28581867
H        2.18549598      -0.16703617      -1.21935025     -13.06399245      -0.00779869      -0.00693355      -0.01116434       0.05703703
H        2.81489187      -0.87087314       1.27603223     -13.08375642      -0.01717686       0.00143486      -0.01294011       0.06069379
H        2.88973477      -2.51083602       0.60998480     -12.97397672      -0.00898326      -0.00209110      -0.00459178       0.07967223
H       -0.32386346      -1.45911259      -4.15103617     -11.86447934      -0.00319619       0.01122254       0.02542171       0.28489689
H        0.27950375      -0.22827631      -3.44014791     -11.79103352      -0.01318755       0.00384143       0.04582028       0.29377051
H        4.06835786       0.83529886       0.28715714     -12.14010363      -0.00734983      -0.00492718       0.00304513       0.20200900
H        5.56951714       0.45700580      -0.49653096     -12.23582855      -0.00724543      -0.00245831       0.00513678       0.19143735
H        2.60460541      -2.76817263      -3.34832804     -10.96507565       0.02698805       0.01795964      -0.02467271       0.33587205
O        2.33860365       1.60786434       1.46964464    -114.74082670      -0.00662603      -0.00136806       0.01657839      -0.57617380
H        1.68785762       0.94064306       1.70979882     -11.58371030      -0.01452702       0.01462940       0.04011822       0.30247824
H        2.35708108       2.25409905       2.17892092     -11.63593787       0.00347278       0.02167532      -0.00435939       0.29680494
