44
Properties=species:S:1:pos:R:3 product=T mapped+aligned=T onto=T reactant=T pbc="F F F"
O       -3.06044300       0.12362400      -1.43936300
O       -2.73801300       1.13637300       1.98170800
O       -1.64196300      -2.08321500      -0.14571200
O       -5.07929900       2.52986900       1.43568800
O       -0.10909827      -1.04147190      -3.43936588
O        0.87986500       1.91835400      -1.01571800
C       -2.88277400      -0.11747500      -0.06046500
C       -3.23873200       1.17977900       0.66099000
C       -1.52073800      -0.73391000       0.26147600
C       -4.74621600       1.36863600       0.68946100
C       -0.27574100      -0.10091400      -0.38525700
C       -0.27769300       1.42598700      -0.37134000
H       -3.59056200      -0.88484000       0.28316800
H       -2.80521800       2.02826800       0.11934300
H       -1.38984600      -0.66713800       1.34736600
H       -5.14218800       1.40452900      -0.32786700
H       -5.20204900       0.52945600       1.21779100
H       -2.65131900      -0.60942200      -1.91697500
H       -3.25523100       1.77233600       2.49251800
H       -0.37539200       1.79548900       0.65361900
H       -1.12804500       1.76113200      -0.96203400
H       -0.79056800      -2.45765400      -0.42029600
H        1.58127900       2.01970700      -0.35569900
H       -4.93227000       3.30647300       0.88799200
O        2.25272081      -2.14144031      -2.52132421
O        0.81493681      -3.03705031      -1.06447021
O        5.08181681      -1.97587231      -0.65920821
N        0.72783181      -0.53389831       0.28090079
N        4.74227381       0.19952469      -0.12880121
C        1.88243881      -0.95730431      -0.50135821
C        3.02922081      -1.39326831       0.44086879
C        1.55916081      -2.14740031      -1.38898521
C        4.39233881      -1.11059231      -0.16938921
H        2.21030981      -0.12658931      -1.12591021
H        2.93644881      -0.84207431       1.37597979
H        2.96439181      -2.45843531       0.65755279
H       -0.20323632      -1.54728923      -4.24985145
H        0.36933073      -0.35378390      -3.92411588
H        4.14989381       0.88593669       0.31544579
H        5.61456781       0.47561769      -0.54645421
H        2.07062481      -2.96791131      -2.99350821
O        2.45825100       1.52617600       1.29216700
H        1.80510300       0.78788800       1.27709900
H        2.34038600       2.00770800       2.11527400
