44
Properties=species:S:1:pos:R:3:energies:R:1:forces:R:3:charge:R:1 reactant=T mapped=T (centered)=T energy=-2152.7053304497385 free_energy=-2152.7053304497385 dipole="-1.0090149706656824 0.8999448640467411 0.06575476600450278" pbc="F F F"
O       -3.15702859       1.10661916      -1.59427967    -113.16867861       0.00521235       0.00680709      -0.00000451      -0.44663762
O       -3.20103013       0.66318221       1.97946815    -113.40653012       0.00403305       0.01778865      -0.00841793      -0.46292526
O       -1.62376780      -1.18262018      -1.45997235    -113.12689013      -0.02202176       0.00387287      -0.00028983      -0.44683263
O       -5.21166247       2.54984969       1.80180513    -113.09111209       0.00758169      -0.00467301      -0.00089999      -0.43668912
O        0.05382674       0.78919492      -1.16432190    -111.67060709      -0.00841724       0.01076912      -0.00114809      -0.34175449
O        0.82994771       1.92876721       1.14557380    -113.01744398       0.00077298      -0.00740449       0.00147190      -0.43105825
C       -3.12327475       0.35186438      -0.41456547     -58.95708394      -0.00041483       0.01032806       0.00022800       0.10289751
C       -3.42258227       1.30417384       0.74516185     -59.08311388       0.00308872       0.01755592      -0.00912257       0.09500581
C       -1.77346121      -0.41884746      -0.28597009     -59.11227057      -0.00417556       0.00250787       0.00342654       0.07053294
C       -4.87461496       1.80090525       0.65732456     -59.22886051      -0.00394785       0.00183579      -0.00601410       0.06077843
C       -0.56343350       0.49771651      -0.16750535     -58.34415692      -0.00762912       0.00448992      -0.00282606       0.22849245
C       -0.17005261       0.93252967       1.21827608     -59.36251659       0.00349364      -0.01136855      -0.00200240       0.04230373
H       -3.89993860      -0.42960493      -0.44399169     -13.02370011       0.00198896       0.00469661       0.01984937       0.04237101
H       -2.75328699       2.17623680       0.65138573     -13.14357546      -0.00204542       0.02334118      -0.02301801       0.03157867
H       -1.83955621      -1.08043490       0.58064406     -12.85714117       0.01528481       0.00547692       0.00830572       0.07295793
H       -5.00495619       2.37016679      -0.26678478     -13.14932718      -0.03630671      -0.00530805      -0.00676866       0.04709747
H       -5.55493074       0.94583275       0.65362529     -12.98323832       0.01300015      -0.01433278       0.00750594       0.06240779
H       -2.91601225       0.51287280      -2.31941305     -11.23476482       0.01346625       0.00153273       0.00554133       0.31992874
H       -3.86818503       1.00573494       2.59479942     -11.19771590      -0.02016349      -0.00347557      -0.02256235       0.32334435
H       -1.04848196       1.27923344       1.77002166     -12.82337523       0.00761518      -0.02959274       0.01611523       0.07723019
H        0.20331954       0.02606209       1.71449149     -12.69153732       0.00765972      -0.02417520      -0.02644756       0.08412630
H       -0.92878771      -0.73814188      -1.97787904     -11.25200659      -0.01571988      -0.01111082       0.00031288       0.32087731
H        1.14369394       2.12881827       2.03320079     -11.41546595      -0.00536339      -0.00486822       0.00393912       0.30383383
H       -4.80700198       3.42241686       1.74484022     -11.51209187       0.02675562      -0.00679778       0.00001693       0.29566960
O        3.51878897      -3.03261260      -1.86526638    -112.51151270      -0.01545728      -0.00083520      -0.00811738      -0.37240629
O        2.64908439      -4.14089859      -0.12728915    -112.13319954       0.00344777      -0.00761961      -0.00082728      -0.40493723
O        5.16612338      -1.79727743       0.16795818    -112.48284637      -0.00992066       0.00466409      -0.00329411      -0.45200155
N        0.77388171      -2.08048838       0.22856825     -81.59586451       0.00102689       0.00763588      -0.00102807      -0.35898898
N        4.65836906       0.22142760      -0.68858358     -80.93024007      -0.00582287      -0.01125906       0.01129203      -0.28177275
C        2.03976634      -1.83042151      -0.44473234     -58.92257430       0.00466851       0.00240662       0.00438092       0.03640450
C        2.92785967      -0.97889833       0.48372098     -59.28128997       0.00771922      -0.00562517       0.00846440      -0.10266810
C        2.77178429      -3.13213633      -0.76845710     -58.96892035      -0.00096276       0.01409889      -0.00862730       0.35554523
C        4.36397188      -0.90523822      -0.02227923     -59.27258087       0.01568520       0.01021926      -0.00943170       0.28365701
H        1.86044514      -1.28889601      -1.37822656     -13.09860449       0.01041344       0.01133167       0.00940045       0.05528145
H        2.50151003       0.01856482       0.56006678     -13.01454628      -0.00990884      -0.01584892       0.01454497       0.07021412
H        2.93536075      -1.45527206       1.46571870     -13.05796689       0.02993688      -0.00533568       0.00510497       0.06768168
H        0.94139794      -2.76841996       0.96024637     -12.54627084      -0.00710739       0.01020885       0.00238564       0.16284870
H        0.11043630      -2.49962924      -0.41666690     -12.62873225       0.00676998       0.00241745      -0.00585060       0.15685888
H        3.97876597       0.95725162      -0.86208172     -11.98095114      -0.01386712       0.00228965       0.00640619       0.22795584
H        5.59338840       0.32765747      -1.04531265     -12.30928042      -0.00321841       0.00848206      -0.03264837       0.18704513
H        4.04346361      -3.83805282      -2.00080883     -10.99770032       0.00625108       0.00646715       0.03069670       0.33755003
O        2.61214140       2.16529408      -1.14221681    -114.67104313      -0.00059254       0.00970167       0.00288422      -0.59086066
H        2.07316524       1.92369170      -1.90001237     -11.80095356      -0.00534214      -0.01669852       0.01282443       0.29388756
H        1.99155354       2.19182595      -0.40028149     -11.64704807       0.00253319      -0.01459658       0.00424899       0.31316871
44
Properties=species:S:1:pos:R:3:energies:R:1:forces:R:3:charge:R:1 reactant=T mapped=T (centered)=T energy=-2152.7469534095444 free_energy=-2152.7469534095444 dipole="-1.0803303612441373 0.872740576627845 0.15486312100800342" pbc="F F F"
O       -3.44144149       0.77252186      -1.67992944    -113.13504945       0.00186770       0.00092921       0.00043429      -0.44417217
O       -3.24456721       0.91896539       1.91504307    -113.40851612      -0.00041316      -0.00156605       0.00008930      -0.46308365
O       -1.60939064      -1.21180610      -1.39204917    -113.13669150      -0.00135374      -0.00147692      -0.00002417      -0.44495737
O       -5.24543892       2.76448575       1.53832177    -113.09657925       0.00238892       0.00153548      -0.00031556      -0.43716187
O       -0.27650322       1.09791873      -1.21239962    -111.66621696      -0.00363068      -0.00923212       0.01321262      -0.34367582
O        0.59902160       2.08051561       1.20340212    -112.98460214       0.00188262      -0.00571146       0.00107012      -0.42748470
C       -3.25913516       0.23791915      -0.39954354     -58.95754516       0.00036979       0.00046169      -0.00049795       0.10307418
C       -3.51252544       1.36340705       0.60555546     -59.06708974       0.00122900      -0.00011126       0.00009980       0.09645262
C       -1.84327011      -0.40354138      -0.26173572     -59.05435335      -0.00056314      -0.00203720      -0.00005333       0.07073312
C       -4.97059609       1.83798921       0.51380865     -59.22854170       0.00197111       0.00198623      -0.00065106       0.06111862
C       -0.74089622       0.64868031      -0.19175477     -58.38577828       0.00661534       0.00229309      -0.01167311       0.22294155
C       -0.23594752       0.93866493       1.19110422     -59.40930434       0.00059986      -0.00284748       0.00170051       0.03099342
H       -3.98405770      -0.57183036      -0.21756443     -13.07115418      -0.00065998       0.00110988      -0.00122976       0.03841408
H       -2.84563541       2.20596796       0.35307365     -13.15565708       0.00246870      -0.00113702       0.00134463       0.03293290
H       -1.83444509      -1.03149403       0.63121015     -12.95236701      -0.00186160      -0.00231288      -0.00024297       0.06446010
H       -5.16919296       2.24494228      -0.48125280     -13.14131944       0.00352100       0.00296207      -0.00036618       0.04833843
H       -5.63656642       0.99047128       0.69528290     -12.98328908       0.00054646       0.00295881      -0.00190143       0.06228876
H       -3.20337834       0.08240684      -2.31552497     -11.23576858       0.00161023       0.00134151      -0.00007608       0.31947306
H       -3.89261391       1.35687887       2.48962008     -11.18626126      -0.00000416      -0.00090254      -0.00020318       0.32421005
H       -1.08472017       1.04268380       1.87500044     -12.81148484       0.00021158      -0.00127951       0.00049872       0.08233545
H        0.32673329       0.02571187       1.46284326     -12.56676141      -0.00169531      -0.00422040       0.00232593       0.09826929
H       -1.11498608      -0.66155059      -2.02287738     -11.26588817       0.00070713      -0.00179432       0.00050641       0.31910768
H        0.90746106       2.23148267       2.10243970     -11.42215439       0.00444902      -0.00694391       0.00080262       0.30319201
H       -4.80399078       3.59760442       1.33768294     -11.50915072       0.00353813       0.00105631       0.00058625       0.29624917
O        3.34293932      -2.57275212      -2.08787279    -112.55153424      -0.01139496      -0.01165697       0.01653882      -0.37397251
O        2.33140785      -4.01771282      -0.71489025    -112.15348101      -0.03211622      -0.13362403       0.03548105      -0.40481780
O        5.60787698      -1.94752727      -0.10637174    -112.43031025       0.01161387      -0.01127885       0.00056550      -0.44467701
N        1.06121419      -1.90106854       0.62232160     -81.62674319      -0.00502546      -0.00260409       0.00248747      -0.35453512
N        4.76957739       0.04962986      -0.72583708     -80.92095253      -0.00129733      -0.00220905       0.00281758      -0.27944292
C        2.25209863      -1.66659480      -0.18235903     -58.97797062       0.00503112      -0.01147385      -0.00565450       0.03037323
C        3.43997859      -1.32688215       0.73471192     -59.24097470      -0.00431376       0.00263903      -0.00299748      -0.09831486
C        2.63710133      -2.89394975      -1.00449629     -58.96343351       0.04294546       0.15588234      -0.03958655       0.35153216
C        4.72006825      -1.12198398      -0.07352523     -59.26441883      -0.01892983       0.02111799      -0.00268348       0.28485241
H        2.06480813      -0.83047121      -0.86299754     -12.98025059      -0.00337503      -0.00297585      -0.00168831       0.06640824
H        3.20426398      -0.42315435       1.29578132     -13.05431762      -0.00328397       0.00443720      -0.00386778       0.06467228
H        3.60152548      -2.15306478       1.42932556     -13.07694393      -0.00337324       0.00604755       0.00105436       0.06763796
H        1.22594008      -2.71723434       1.20716144     -12.53650520       0.00097763      -0.00110919       0.00113600       0.16278308
H        0.28713888      -2.14385422       0.00909390     -12.63752362      -0.00038229      -0.00383465       0.00119180       0.15575577
H        3.99215329       0.70055067      -0.74540351     -11.97897862      -0.00141546       0.00266679      -0.00153065       0.22828323
H        5.56187242       0.22936450      -1.31964400     -12.29390081      -0.00119013       0.00233073      -0.00022450       0.18822126
H        3.66190376      -3.37024068      -2.54033155     -10.98176637       0.00249367       0.00446737      -0.00056883       0.33717933
O        2.50982451       1.80361634      -0.88375227    -114.75421518      -0.00081858       0.00387787      -0.00207680      -0.60157090
H        1.93110481       1.76382497      -1.64982698     -11.84218432       0.00063060       0.00224229      -0.00282265       0.29267435
H        1.91328506       1.98050915      -0.14084505     -11.64902410      -0.00057093      -0.00000385      -0.00300746       0.31290891
44
Properties=species:S:1:pos:R:3:energies:R:1:forces:R:3:charge:R:1 reactant=T mapped=T (centered)=T energy=-2152.781474216126 free_energy=-2152.781474216126 dipole="-1.336100984758154 1.0816652354535978 -0.28278743158702396" pbc="F F F"
O       -3.40380951       0.90107966      -1.61696714    -113.16356268       0.00212923       0.00272734      -0.00089519      -0.44424596
O       -3.19344203       0.89674928       1.97178547    -113.41078151      -0.00034095      -0.00292282      -0.00066533      -0.46118812
O       -1.45615654      -1.01420491      -1.36711906    -113.12560574      -0.00061845      -0.00104455      -0.00155392      -0.44299957
O       -5.51640966       2.36424351       1.73721757    -113.08843073       0.00272672       0.00168891      -0.00004093      -0.43523034
O       -0.25654956       1.37305749      -1.21672645    -112.01755246       0.00153986      -0.00094013       0.00034558      -0.37066122
O        0.58382345       2.50411311       1.08173651    -113.03604480       0.00269146      -0.00689206       0.00408576      -0.42977618
C       -3.19466761       0.30107331      -0.36937324     -58.93601903       0.00037345       0.00060497      -0.00152246       0.10308464
C       -3.59958910       1.32352900       0.69472232     -59.07489990       0.00147195      -0.00021524      -0.00032104       0.09676400
C       -1.72649384      -0.21386945      -0.23799704     -59.07942595      -0.00051155      -0.00165876      -0.00103548       0.07335781
C       -5.12318035       1.52539769       0.67782497     -59.23706035       0.00193232       0.00279608      -0.00122367       0.06055937
C       -0.71245421       0.91191870      -0.19021229     -58.36241968       0.00031626      -0.00352826       0.00199132       0.21422421
C       -0.25706665       1.37840114       1.15961113     -59.49764579       0.00169176      -0.00669171       0.00172576       0.03408564
H       -3.82820579      -0.59373072      -0.26419056     -13.04039928      -0.00117167       0.00154014      -0.00314052       0.04153131
H       -3.11274391       2.28344652       0.44664215     -13.17275301       0.00356939      -0.00082482       0.00152855       0.02886468
H       -1.65587095      -0.82544331       0.66354125     -12.85092762      -0.00211712      -0.00263272      -0.00156878       0.07451529
H       -5.43879349       1.90802638      -0.29694652     -13.15460733       0.00352187       0.00514764      -0.00081877       0.04641345
H       -5.61341371       0.56634135       0.86424489     -12.97023714      -0.00012256       0.00349229      -0.00333502       0.06329497
H       -3.13187719       0.26574010      -2.29393872     -11.21992044       0.00133248       0.00321251      -0.00163303       0.31960753
H       -3.87653754       1.19344658       2.59381692     -11.15209710      -0.00034360      -0.00282094      -0.00074130       0.32598634
H       -1.12079556       1.55955478       1.81080229     -12.69425971       0.00200081      -0.00781729       0.00252492       0.09045666
H        0.32206679       0.55509270       1.59589342     -12.47778477       0.00132449      -0.00830735      -0.00081830       0.10879504
H       -0.97579809      -0.45113262      -1.99659113     -11.25424331      -0.00035135      -0.00088679      -0.00112150       0.31950910
H        0.30834827       3.03409015       0.32018615     -11.33939927       0.00197725      -0.00381629       0.01161546       0.31110042
H       -5.25446737       3.27087655       1.54120992     -11.49462128       0.00478644       0.00144162       0.00185827       0.29629432
O        3.38694009      -2.81905762      -2.12404008    -112.53684378       0.00101196       0.00346118       0.00145307      -0.37379302
O        2.18108823      -4.11393106      -0.75734265    -112.16823248       0.00858391       0.02070856      -0.00280206      -0.40732407
O        5.58394662      -2.26159783      -0.07199869    -112.40599591      -0.00240889       0.00589871       0.00337204      -0.44233217
N        1.01682668      -1.80024346       0.38725532     -81.62690403      -0.00055427      -0.00028868       0.00266468      -0.35919923
N        4.95126689      -0.16024023      -0.58238483     -80.90767081      -0.00263047       0.00232740      -0.00293479      -0.27843802
C        2.28807775      -1.74228586      -0.31613720     -58.97142343      -0.00180504       0.00246424       0.00258821       0.03298134
C        3.42682093      -1.51136443       0.69306775     -59.24692442      -0.00105305       0.00367481       0.00164883      -0.09901191
C        2.60097255      -3.03142027      -1.06989018     -58.96704907      -0.00791919      -0.01989290       0.00838398       0.35067960
C        4.76682235      -1.36712074      -0.02172957     -59.26023182       0.00080703       0.00028631       0.00098178       0.28518809
H        2.26174993      -0.91642577      -1.03388955     -13.02619369      -0.00295980       0.00137488       0.00192059       0.06029999
H        3.20548268      -0.61109001       1.26525468     -13.01648636      -0.00133019       0.00434129       0.00013230       0.06895190
H        3.48198369      -2.36639834       1.36880356     -13.08432119      -0.00040487       0.00466839       0.00262342       0.06750771
H        1.03817350      -2.59443501       1.02223785     -12.58122383       0.00056231      -0.00017532       0.00291670       0.15913314
H        0.27284969      -1.98966938      -0.27957709     -12.61855879      -0.00088127      -0.00174784       0.00305735       0.15886205
H        4.23346368       0.55323757      -0.57755478     -12.01094060      -0.00344771       0.00103209      -0.00498132       0.22375336
H        5.79154505      -0.00046217      -1.11225236     -12.29516209      -0.00287690       0.00092002      -0.00316295       0.18816505
H        3.66083868      -3.65909822      -2.52610527     -10.99734475       0.00079426       0.00175753       0.00280116       0.33654027
O        2.73862107       1.72247072      -0.59398259    -114.73160885      -0.00352487       0.00015048      -0.00874958      -0.59572459
H        2.00862184       1.63607054      -1.21469490     -11.81479657      -0.00278476       0.00244193      -0.01030415       0.29306656
H        2.33799226       2.01526462       0.23578677     -11.66286286      -0.00498668      -0.00505486      -0.00684964       0.30635061
44
Properties=species:S:1:pos:R:3:energies:R:1:forces:R:3:charge:R:1 reactant=T mapped=T (centered)=T energy=-2152.720846930992 free_energy=-2152.720846930992 dipole="-1.010712017233067 1.086433430737499 -0.13284521039487027" pbc="F F F"
O       -3.75888810       0.75196674      -1.58885158    -113.13234544      -0.00331304      -0.00198353      -0.00021949      -0.44299976
O       -3.15133588       0.92622677       1.95001871    -113.40333971       0.00002281      -0.00212181      -0.00078541      -0.46238001
O       -1.69011795      -1.08407906      -1.44041914    -113.11229527      -0.00316053      -0.00146405      -0.00274105      -0.44308268
O       -5.51582111       2.33317008       1.92212529    -113.08101242       0.00266249       0.00236210      -0.00095215      -0.43560093
O       -0.68785305       1.41655862      -1.54453618    -111.91374191      -0.00694512       0.00167759       0.00094472      -0.36366709
O        0.50562724       2.57442125       0.50396574    -113.10064742       0.00297702      -0.00859663      -0.00025035      -0.43990648
C       -3.39591679       0.22119208      -0.34541183     -58.93953402      -0.00230574      -0.00188634      -0.00052402       0.10319102
C       -3.70607057       1.28698411       0.70866439     -59.08069474       0.00018702      -0.00131956      -0.00072321       0.09638423
C       -1.90305588      -0.23016986      -0.33873989     -59.07588186      -0.00264529      -0.00287457      -0.00170969       0.07492725
C       -5.22530398       1.46704569       0.85123441     -59.23868913       0.00070445       0.00154373      -0.00051572       0.06070599
C       -0.96274656       0.95081636      -0.45847477     -58.40606834      -0.00255394      -0.00236825      -0.00137756       0.21092781
C       -0.32042164       1.47508281       0.79029160     -59.52744291       0.00213375      -0.00825620      -0.00083689       0.03369215
H       -3.98438475      -0.68396736      -0.12794363     -13.05861314      -0.00287403      -0.00110070       0.00054265       0.04019488
H       -3.26703453       2.24030530       0.36510142     -13.16087560       0.00187361      -0.00241449      -0.00100262       0.03072209
H       -1.71502699      -0.78446028       0.58229838     -12.88271547      -0.00239753      -0.00415260      -0.00249239       0.07214346
H       -5.64968512       1.81624937      -0.09442605     -13.15603738       0.00104115       0.00186215      -0.00060496       0.04630891
H       -5.67800547       0.50834439       1.11699556     -12.97755659      -0.00090711       0.00267239       0.00000974       0.06276831
H       -3.53298461       0.09867228      -2.26502375     -11.24348648      -0.00356272      -0.00185628      -0.00028112       0.31811579
H       -3.77184664       1.23420441       2.62962830     -11.16874689       0.00101297      -0.00077628      -0.00077559       0.32544124
H       -1.08359251       1.73556088       1.53243257     -12.67623700       0.00465656      -0.00962687       0.00240157       0.09272519
H        0.28331309       0.65344937       1.20326649     -12.58168720       0.00245203      -0.01055748      -0.00586502       0.09703141
H       -1.36398629      -0.52620281      -2.16555303     -11.27687387      -0.00477701      -0.00042072      -0.00284656       0.31832335
H        0.34789278       2.80673719      -0.42744342     -11.31423679      -0.00184526      -0.00375178       0.00126479       0.31655837
H       -5.27748690       3.23435139       1.67654729     -11.50316593       0.00405480       0.00164658      -0.00151235       0.29634834
O        3.35395897      -2.96601955      -2.18110173    -112.49021164       0.00022075       0.00357189       0.00181163      -0.36980316
O        2.10611714      -4.05427733      -0.67890530    -112.17024174      -0.00558641      -0.00834921       0.00285377      -0.40795103
O        5.56192389      -2.46136364      -0.22133439    -112.40310860      -0.00106308      -0.00225286       0.00543362      -0.44053730
N        1.10109571      -1.53458712       0.20073963     -81.63236547      -0.00200826      -0.00067608       0.00187898      -0.35765251
N        5.24756956      -0.23666392      -0.39544762     -80.90685847      -0.00089054      -0.00160680      -0.00085872      -0.27695870
C        2.40627581      -1.67364337      -0.42958194     -58.93699282      -0.00139007       0.00104601       0.00137350       0.03434551
C        3.50967758      -1.53242652       0.63508893     -59.27489696      -0.00195024       0.00220569       0.00154906      -0.10215284
C        2.59525400      -3.03628695      -1.09091717     -58.96687819       0.00478187       0.01470622      -0.00374791       0.35280494
C        4.88110966      -1.47715743      -0.02900542     -59.24777721      -0.00238472       0.00106260       0.00231182       0.28505437
H        2.52021148      -0.89424121      -1.19023571     -13.07747847      -0.00282441       0.00262978       0.00258196       0.05591765
H        3.32721966      -0.62421943       1.20731363     -12.95976167      -0.00115373       0.00334172       0.00014702       0.07515215
H        3.47239878      -2.39798611       1.29862451     -13.08008334      -0.00292586       0.00330504       0.00315842       0.06805711
H        1.00234530      -2.27420677       0.89229973     -12.55828420      -0.00083162      -0.00172859       0.00065373       0.16085997
H        0.37308045      -1.69734676      -0.49081036     -12.64753639      -0.00139155      -0.00038505       0.00144901       0.15583024
H        4.66148624       0.56571860      -0.21489375     -11.99845497      -0.00195316      -0.00087041      -0.00560860       0.22270647
H        6.12862855      -0.10825384      -0.86397031     -12.28499910      -0.00117392      -0.00309263      -0.00205851       0.18840319
H        3.55631234      -3.85283740      -2.52018777     -10.98681847       0.00101664       0.00498580       0.00050090       0.33731777
O        3.24130035       1.78692275       0.24145309    -114.69368638       0.00689722       0.00755363      -0.00617379      -0.58745221
H        2.36001261       1.50541041      -0.02276116     -11.63685074      -0.00354683       0.02251731       0.01011962       0.30341969
H        3.09875415       2.54100587       0.81788522     -11.75563659       0.03166657       0.00579954       0.00347717       0.29376585
44
Properties=species:S:1:pos:R:3:energies:R:1:forces:R:3:charge:R:1 reactant=T mapped=T (centered)=T energy=-2152.8480181528776 free_energy=-2152.8480181528776 dipole="-0.7681202848801527 1.2313992082008172 -0.04318525750019318" pbc="F F F"
O       -4.00072457       0.42023036      -1.45268728    -113.13732995       0.00014180       0.00118017      -0.00034423      -0.44460619
O       -2.91823021       1.09141506       1.91573766    -113.38840190      -0.00060981       0.00021927       0.00023934      -0.46121623
O       -2.12951209      -1.50925607      -1.38180394    -113.10155586       0.00031421       0.00127408      -0.00046126      -0.44244580
O       -4.92927558       2.95804231       1.74714842    -113.08855249      -0.00082100      -0.00091668       0.00019328      -0.43668194
O       -0.77597847       0.77969700      -1.76709486    -111.95821509       0.00080866       0.00129325      -0.00096663      -0.36815267
O        0.64733878       2.00985437       0.09074453    -113.22634748      -0.00048984       0.00205729       0.00075082      -0.44399046
C       -3.49852774       0.07943299      -0.19216145     -58.94668761      -0.00006182       0.00071769      -0.00032446       0.10319734
C       -3.49351590       1.35127271       0.65843188     -59.07060696      -0.00046313       0.00032301       0.00001000       0.09711899
C       -2.08681096      -0.58036782      -0.32323555     -59.09805624       0.00003940       0.00097800      -0.00018506       0.07362711
C       -4.92461415       1.87765391       0.84383756     -59.22937370      -0.00045729      -0.00024337      -0.00045353       0.06104850
C       -1.01655228       0.44900137      -0.62400872     -58.41280925      -0.00045675       0.00086034       0.00116721       0.21130071
C       -0.19439906       0.96311572       0.51639081     -59.50740818      -0.00087174       0.00171966       0.00074594       0.02667216
H       -4.14849038      -0.66838429       0.28894704     -13.06478173       0.00019302       0.00047114      -0.00076358       0.03953433
H       -2.90290446       2.11843767       0.12701345     -13.17929713      -0.00064040       0.00066623       0.00033279       0.02920876
H       -1.85757154      -1.10808857       0.60441575     -12.89373008      -0.00017290       0.00072905      -0.00008288       0.07069033
H       -5.35324118       2.14357126      -0.12629047     -13.14036442      -0.00022868       0.00024218      -0.00064120       0.04821817
H       -5.53790942       1.10130523       1.30777587     -12.98007035      -0.00034019      -0.00065065      -0.00114055       0.06290361
H       -3.91238286      -0.36319898      -2.01538876     -11.22488103       0.00020793       0.00133816      -0.00049768       0.32077558
H       -3.39620465       1.64169689       2.55643261     -11.17519063      -0.00099310      -0.00039990       0.00026756       0.32508712
H       -0.82247466       1.29829627       1.34516737     -12.64929127      -0.00131044       0.00196066       0.00044641       0.10048949
H        0.39791061       0.09624213       0.85887682     -12.48083581      -0.00099693       0.00178773       0.00136032       0.10695371
H       -1.79255250      -1.04749560      -2.16779054     -11.27317137       0.00030959       0.00139891      -0.00044181       0.31946003
H        0.61136329       2.00436998      -0.88218895     -11.25626098      -0.00056558       0.00239780       0.00086979       0.32181286
H       -4.52574674       3.72512178       1.32500802     -11.51262480      -0.00093773      -0.00060993       0.00079544       0.29586691
O        3.35374093      -2.39458497      -2.41126522    -112.48857943       0.00048768      -0.00014302      -0.00376634      -0.37059267
O        2.50165552      -3.98505070      -1.08853798    -112.13515028       0.01356018       0.07657969      -0.01243652      -0.40521555
O        5.34003641      -2.08388385      -0.37946919    -112.44814947      -0.00080160       0.00510780      -0.00295263      -0.44657051
N        0.93050412      -1.96878979       0.16824416     -81.58084047       0.00283862       0.00078952       0.00039180      -0.35239574
N        4.96343611       0.11910369      -0.10706053     -80.93335603       0.00138148       0.00246971      -0.00052999      -0.27943247
C        2.21084284      -1.67335244      -0.46047440     -58.92358226      -0.00106688       0.00223509       0.00164625       0.03517661
C        3.26329604      -1.41794900       0.63370734     -59.28972529       0.00261580      -0.00034026       0.00000548      -0.10214455
C        2.70658890      -2.82528538      -1.33187283     -58.96736263      -0.01369863      -0.08728056       0.01721584       0.35523299
C        4.63257231      -1.17728303       0.00808679     -59.24211776       0.00413648      -0.00264822      -0.00293100       0.28511183
H        2.10560634      -0.78409106      -1.09099473     -13.09470485       0.00149071      -0.00116590      -0.00103198       0.05425207
H        2.95596514      -0.56545280       1.23741508     -13.00342036       0.00183452      -0.00108083      -0.00031423       0.07240456
H        3.32494032      -2.30836056       1.26210698     -13.03142437       0.00340259      -0.00059939      -0.00133365       0.07132303
H        1.03454754      -2.81293458       0.72588909     -12.51623504       0.00142696       0.00093363       0.00105258       0.16505438
H        0.23631180      -2.18247158      -0.54316571     -12.67663346       0.00070775       0.00070011       0.00134461       0.15210590
H        4.39409489       0.85701107       0.28780944     -11.97737828       0.00104220       0.00055060       0.00108010       0.22609476
H        5.86088803       0.34935632      -0.50042350     -12.29269941       0.00085919       0.00253432      -0.00079250       0.18733673
H        3.76229289      -3.13590142      -2.88600609     -10.98505678      -0.00280919      -0.00624265       0.00133277       0.33847552
O        3.24139106       2.09119528       1.08486063    -114.76947658      -0.00235090      -0.00299828       0.00125647      -0.59927488
H        2.31891455       2.07583069       0.77841231     -11.58168938      -0.00174163      -0.00525647      -0.00186009       0.31640662
H        3.42338097       2.99092841       1.35946011     -11.91459172      -0.00491259      -0.00293901       0.00174700       0.27977896
44
Properties=species:S:1:pos:R:3:energies:R:1:forces:R:3:charge:R:1 reactant=T mapped=T (centered)=T energy=-2152.7667380732837 free_energy=-2152.7667380732837 dipole="-0.6856051320635257 1.195356127313907 0.09079528507716586" pbc="F F F"
O       -4.12359405       0.05210547      -1.02102626    -113.14590232      -0.00531271       0.00194129       0.00157830      -0.44704052
O       -2.60017566       1.58877080       1.85875447    -113.40673165      -0.00449324      -0.00307719       0.00084388      -0.46240899
O       -2.33030871      -1.87175057      -0.66204531    -113.02922982      -0.00111981       0.00419369      -0.00556919      -0.43712624
O       -4.67745681       3.36357037       1.46641202    -113.09469686      -0.00065969      -0.00004265       0.00049548      -0.43737685
O       -0.94817253       0.10966271      -1.83837826    -111.92385162      -0.00451781       0.00803715       0.00310996      -0.36476866
O        0.73032542       1.74526469      -0.59388747    -113.23667416      -0.00501857       0.00187897       0.00860987      -0.44727970
C       -3.46427459       0.04246528       0.21237209     -58.95505030      -0.00369697       0.00064920      -0.00003841       0.10303823
C       -3.36292506       1.49556462       0.67892779     -59.06989605      -0.00264422      -0.00062490       0.00047373       0.09626809
C       -2.09250096      -0.70092656       0.08208502     -59.11882882      -0.00318236       0.00124239      -0.00193986       0.07428782
C       -4.76751483       2.06418206       0.93037902     -59.22678632      -0.00204422       0.00212259      -0.00162696       0.06087954
C       -1.05427447       0.14054761      -0.63059939     -58.41018457      -0.00441083       0.00381031       0.00105599       0.21611645
C       -0.13330882       0.97526921       0.20878846     -59.48238522      -0.00286380      -0.00264016       0.00416692       0.03235354
H       -4.04863698      -0.52906993       0.95140586     -13.05233011      -0.00260200       0.00096777       0.00019549       0.03975735
H       -2.88436823       2.08127597      -0.12562448     -13.17055307      -0.00040254      -0.00161207       0.00223727       0.03016116
H       -1.74229177      -0.97017492       1.08090701     -12.91844890      -0.00311732      -0.00184225      -0.00330237       0.06638209
H       -5.35304099       2.03273391       0.00767222     -13.13581972      -0.00006344       0.00530595      -0.00211956       0.04892091
H       -5.26636662       1.46241446       1.69429815     -12.98272120      -0.00481318       0.00264720      -0.00440087       0.06243898
H       -4.05126700      -0.84619006      -1.37982031     -11.20883174      -0.00791189      -0.00241764       0.00144749       0.32332017
H       -2.99659492       2.29962486       2.38684432     -11.18141599      -0.00460048      -0.00321202       0.00048831       0.32434872
H       -0.70096997       1.62780872       0.87808498     -12.63134882      -0.00122932      -0.00792029       0.00929848       0.09942082
H        0.44474486       0.27769171       0.82875116     -12.60783895      -0.00135050      -0.00689114      -0.00292398       0.09148035
H       -1.97712766      -1.70958405      -1.55135808     -11.27926940       0.00145450       0.00757354      -0.00475316       0.31923356
H        0.60852852       1.42770324      -1.50493393     -11.27915489      -0.00404314       0.00595916       0.00774297       0.32186132
H       -4.39172580       3.97122779       0.77480159     -11.51551212       0.00229647      -0.00011877       0.00277480       0.29577603
O        3.76120987      -1.91974760      -2.63738054    -112.49159460       0.00573899      -0.00471753       0.00494030      -0.37157295
O        2.82553369      -3.72829801      -1.71254130    -112.12291339       0.00076765      -0.01937275       0.00295268      -0.40504306
O        5.24069939      -1.99191343      -0.20614603    -112.44464923       0.00547186      -0.00377759       0.00522345      -0.44586781
N        0.87630977      -1.93612800      -0.61851150     -81.49233462       0.00447477      -0.00074291       0.00147890      -0.34885021
N        4.85549508       0.02432716       0.71839396     -80.92908436      -0.00076693       0.00026964      -0.00792269      -0.27780154
C        2.26630542      -1.55272700      -0.82888066     -58.91749170       0.00436287      -0.00268617       0.00048358       0.03562183
C        3.00278008      -1.50867600       0.51889815     -59.29148480       0.00375497      -0.00153075      -0.00015205      -0.10054380
C        2.99003024      -2.53876443      -1.74594240     -58.96176773       0.00572707       0.01328970       0.00235295       0.35697563
C        4.47869916      -1.19557679       0.30171021     -59.23268807       0.00231122      -0.00098730       0.00019502       0.28476028
H        2.29209516      -0.56486024      -1.30144964     -13.06004353       0.00367332      -0.00264653       0.00042870       0.05676720
H        2.53844071      -0.76938316       1.16911942     -13.05192654       0.00353152      -0.00097473      -0.00093657       0.06751022
H        2.93030221      -2.49655742       0.97879992     -13.01866207       0.00439477      -0.00113930       0.00026714       0.07189852
H        0.84839030      -2.82682368      -0.12922218     -12.52747781       0.00513078      -0.00412098      -0.00435130       0.16411375
H        0.43423633      -2.09213126      -1.51948368     -12.69889037       0.00260443       0.00620514       0.00193572       0.14838025
H        4.19119185       0.70585322       1.06056651     -11.97451041      -0.00107102       0.00105143      -0.00982085       0.22532695
H        5.81293799       0.30237380       0.57878765     -12.27416334      -0.00129052       0.00043442      -0.00809969       0.18858968
H        4.28050539      -2.56367180      -3.14463873     -11.00213752       0.00666976      -0.00443077       0.00590891       0.33736046
O        2.75219764       1.88516857       1.36003057    -114.79190986       0.00386962       0.00338055      -0.00534697      -0.59735722
H        2.15723981       1.92329375       0.59556199     -11.53763147      -0.00079734       0.00180813       0.00096496       0.31826979
H        2.64869756       2.71405491       1.82951663     -11.88191406       0.00778928       0.00475818      -0.00834678       0.28141789
44
Properties=species:S:1:pos:R:3:energies:R:1:forces:R:3:charge:R:1 reactant=T mapped=T (centered)=T energy=-2153.0879671541534 free_energy=-2153.0879671541534 dipole="0.17209892934324023 0.9596465397530894 0.05229670043459259" pbc="F F F"
O       -3.44267260      -0.29900383      -1.28340526    -113.27265529       0.00389519      -0.00182341      -0.00183397      -0.46607281
O       -2.86387010       1.39083340       1.89250120    -113.30725008      -0.00110321      -0.00090520      -0.00043794      -0.46386182
O       -1.90029876      -2.17751346      -0.03058768    -113.17146806       0.00086810      -0.00235587       0.00364272      -0.45216032
O       -4.88810272       3.05866686       0.98323708    -113.05771689       0.00191011       0.00069984      -0.00492615      -0.43976039
O       -0.85864627       0.36873951      -1.45184773    -113.35882117       0.00225343      -0.00193553       0.00306756      -0.52787392
O        0.74269774       1.84216623      -0.14779855    -113.40533654      -0.00048329      -0.00085405       0.00265112      -0.46905026
C       -3.19809751      -0.18340386       0.09086497     -59.08926484       0.00132359      -0.00108925      -0.00133577       0.09931202
C       -3.30802167       1.27553964       0.55918420     -59.06962205       0.00133408      -0.00084257      -0.00159795       0.08915590
C       -1.83609740      -0.84264164       0.41331658     -59.10627629       0.00060691      -0.00212644       0.00194663       0.07169366
C       -4.76127091       1.75724969       0.45699681     -59.22828434       0.00174087       0.00036508      -0.00451448       0.06177509
C       -0.71072692      -0.03989403      -0.27840795     -58.82376758       0.00184825      -0.00290217       0.00194505       0.19800151
C        0.03325154       0.93082035       0.65812551     -59.27366397       0.00038185      -0.00157956       0.00313052       0.03949522
H       -3.97280355      -0.77158099       0.59887108     -13.01874689      -0.00047640      -0.00033963      -0.00269771       0.05085502
H       -2.68014460       1.90532511      -0.09617541     -13.22146816       0.00325869      -0.00139458      -0.00050316       0.02624696
H       -1.67039114      -0.85825120       1.49307774     -13.12699400      -0.00113688      -0.00073247       0.00256766       0.04873259
H       -5.10609751       1.69470728      -0.57980647     -13.20872912       0.00357627       0.00039801      -0.00529474       0.04148104
H       -5.39537662       1.12449263       1.08298704     -13.01695290      -0.00013189       0.00117308      -0.00544531       0.06022255
H       -2.63421528       0.03216462      -1.73291088     -11.31582590       0.00890619       0.00358810      -0.00240347       0.33122132
H       -3.39671016       2.08969212       2.30176551     -11.30540580      -0.00122192      -0.00010416      -0.00170991       0.31896490
H       -0.71474903       1.45816642       1.26096001     -12.97699310      -0.00071696      -0.00231064       0.00239632       0.06420978
H        0.72002475       0.42192142       1.33477925     -13.17736639       0.00125456       0.00009823       0.00366633       0.04344864
H       -2.42706039      -2.17321812      -0.84544735     -11.35011018      -0.00319763      -0.00292744       0.00309652       0.31837094
H        0.34456895       1.70971174      -1.03930585     -11.27648779      -0.00164240      -0.00126207       0.00242626       0.32853395
H       -4.44629857       3.68113873       0.39451156     -11.58024904       0.00393984       0.00006364      -0.00426230       0.29343130
O        3.57162089      -1.47885398      -2.34647419    -112.43723861       0.00024132       0.00925068      -0.00177985      -0.35420730
O        1.75000473      -2.77558997      -2.39401512    -112.22582838       0.02792711       0.05187495       0.02593125      -0.39960325
O        4.93241889      -2.57652624      -0.01059465    -112.46263932      -0.00009854       0.00342439      -0.00478185      -0.43962356
N        0.54774852      -1.43798375      -0.40109654     -80.44629342      -0.00096685       0.00057291       0.00502531      -0.21535593
N        4.87380946      -0.34399137       0.29505100     -80.95570213      -0.00050643       0.00176992      -0.00336925      -0.27560348
C        1.96271428      -1.15014546      -0.63458024     -58.99824197      -0.00335006       0.00265384       0.00482641       0.01566909
C        2.82059149      -1.58086965       0.56571525     -59.28154772       0.00134267      -0.00252118       0.00066682      -0.10315743
C        2.40854863      -1.90693209      -1.88672631     -58.87523367      -0.04538164      -0.04756305      -0.02996948       0.36037676
C        4.32100965      -1.56237450       0.24716537     -59.18220938       0.00213592      -0.00402947      -0.00356586       0.28719245
H        2.10085185      -0.08098861      -0.82800769     -12.53964942      -0.00269963       0.00239682       0.00607476       0.10692329
H        2.62595528      -0.91715753       1.40820804     -13.01265205       0.00238095      -0.00534753       0.00254565       0.07074517
H        2.56256959      -2.60641587       0.83877094     -13.02881641       0.00267711      -0.00387185      -0.00340821       0.07056397
H        0.40050551      -2.01480084       0.42399711     -11.94397526      -0.00089651       0.00472065       0.00931285       0.20909151
H        0.18950072      -1.97257587      -1.20032625     -11.76681975      -0.00104391      -0.00505920       0.00740120       0.23040612
H        4.34240110       0.49350806       0.50301635     -11.89360429      -0.00146521       0.00020877      -0.00099906       0.23266544
H        5.85279139      -0.25757180       0.07917194     -12.21968527      -0.00135017       0.00217557      -0.00478307       0.19207337
H        3.88415587      -2.02743383      -3.08414222     -10.76866365      -0.00823530       0.00705992      -0.00324033       0.34788740
O        3.29476527       1.95549812       0.85531587    -114.84605261       0.00029789       0.00008069       0.00159349      -0.60471500
H        2.39809826       1.98379978       0.47742154     -11.54855230      -0.00096890      -0.00003110       0.00223753       0.32186900
H        3.53104736       2.86157677       1.05664340     -11.91510519       0.00297282       0.00133332      -0.00329213       0.28042951
44
Properties=species:S:1:pos:R:3:energies:R:1:forces:R:3:charge:R:1 reactant=T mapped=T (centered)=T energy=-2153.6154175445427 free_energy=-2153.6154175445427 dipole="-0.18159524636026267 1.1778757886868665 -0.12050034348844701" pbc="F F F"
O       -3.03593336       0.46919980      -1.62174299    -113.08478367       0.00515097       0.00782052      -0.00219212      -0.44551029
O       -2.88139726       1.06140447       1.89217761    -113.31276334       0.00090256      -0.00154715       0.00028203      -0.46096479
O       -1.77460382      -1.91096674      -0.69423461    -113.18512708      -0.00026702       0.00361219       0.00040033      -0.45990036
O       -5.21570998       2.55326622       1.42653223    -113.05110893      -0.00434981      -0.00597815       0.00426203      -0.43787592
O       -0.16425676       0.05957622      -1.60499495    -113.18379401       0.00761206      -0.00680880      -0.00174314      -0.45349231
O        1.01296786       1.94034421      -0.16439737    -113.28245543       0.00480663       0.00056006      -0.00498992      -0.45182133
C       -3.02775055       0.01652788      -0.29346431     -59.10161418       0.00257904       0.00197310      -0.00305513       0.10215933
C       -3.37991843       1.22238483       0.58729807     -59.09764346      -0.00084974      -0.00055419       0.00045856       0.09476814
C       -1.72764862      -0.72889913       0.07715939     -59.00633768       0.00217830      -0.00014082      -0.00249644       0.08030200
C       -4.89986615       1.43796466       0.62534678     -59.24607603      -0.00149880      -0.00483423       0.00257850       0.05930882
C       -0.34965045      -0.07489212      -0.22424813     -59.01616293       0.00331747      -0.00061305      -0.00259128       0.18557937
C       -0.12905745       1.31975184       0.38807320     -59.15830844      -0.00299368       0.00636576      -0.00935256       0.05906642
H       -3.81139724      -0.74823299      -0.15669153     -13.01367792       0.00283054       0.00010057      -0.00680340       0.04037492
H       -2.93736672       2.11917345       0.11969814     -13.10786543      -0.00381244       0.00240423       0.00176418       0.03277013
H       -1.77309554      -0.95335443       1.15125938     -13.12450417       0.00074063       0.00286436      -0.00060021       0.04101327
H       -5.28200922       1.54530993      -0.39510876     -13.19464074      -0.00266957      -0.00465656       0.00301843       0.04138345
H       -5.38163785       0.58320449       1.10551560     -13.00044531       0.00128314      -0.00685979       0.00239555       0.06195265
H       -2.80136264      -0.28377440      -2.17839356     -11.32764416       0.00073090      -0.00381942      -0.00307296       0.31697517
H       -3.46927874       1.56650340       2.47424232     -11.25010775       0.00016947      -0.00369159       0.00155211       0.32053942
H       -0.99997500       1.94686299       0.20229846     -13.08455725      -0.00187594       0.00677338      -0.02456548       0.04878059
H        0.02651740       1.23792160       1.46429428     -13.11386418      -0.01271709       0.01643573      -0.00544698       0.05384402
H       -0.91921377      -2.36943370      -0.60607365     -11.29466053       0.01827892      -0.00449325       0.00725346       0.32841450
H        0.92533655       1.84680455      -1.12355432     -11.31313637       0.00878992      -0.00284674      -0.00220925       0.32174978
H       -4.91185389       3.35361576       0.98282128     -11.55634136      -0.00693799      -0.00469594       0.00448191       0.29387117
O        2.98679527      -1.92332892      -2.22767918    -112.45352924       0.00592297       0.01119615      -0.00441617      -0.36251510
O        0.99933168      -2.80565085      -1.71735008    -112.34041223       0.18177354       0.16536549       0.05922420      -0.41555718
O        4.87412397      -2.75010047      -0.12012757    -112.40184874      -0.00664982       0.00738734      -0.00353266      -0.43829039
N        0.59568239      -1.06920334       0.29733153     -80.74998011       0.00493261       0.00693435       0.00799968      -0.29470319
N        4.93992718      -0.50240266       0.03898497     -80.92481232       0.00180103      -0.00161830      -0.00001109      -0.27929521
C        1.93082807      -1.10248663      -0.27551822     -58.90541791      -0.00194838       0.01023503       0.01508393       0.03599302
C        2.93837411      -1.61562825       0.76214787     -59.29045496       0.00267550      -0.00451093       0.00457246      -0.09986421
C        1.90557205      -2.04663995      -1.46949353     -58.88153291      -0.20964784      -0.17069144      -0.05731071       0.35991982
C        4.34910956      -1.70035510       0.18111299     -59.22321160       0.00561992      -0.01722455      -0.00355864       0.28739658
H        2.26424660      -0.12347813      -0.64387481     -12.89900656       0.00551960       0.00417733       0.00852538       0.06716065
H        2.94437962      -0.92724867       1.60896243     -13.05220226       0.00371676      -0.00829902       0.00454159       0.06612518
H        2.63623156      -2.60875710       1.09709957     -13.05901367      -0.00029456      -0.00511608      -0.00264476       0.06995026
H        0.62115946      -1.03232508       1.30703234     -12.54918861       0.00497116       0.01786961       0.01151000       0.15597882
H       -0.48536350      -0.76014196      -2.01073972     -11.32160881      -0.00633818       0.00331146      -0.00691490       0.32236698
H        4.50439595       0.35459749       0.35802474     -11.99359909       0.00130672      -0.00438748       0.00325318       0.22452480
H        5.87405919      -0.46868748      -0.33280270     -12.28911393      -0.00039135      -0.00365856      -0.00142727       0.18775157
H        3.00721969      -2.59621968      -2.92678637     -10.90247179      -0.01656605       0.00288732      -0.00226342       0.34068472
O        3.54145467       1.84092016       0.97683548    -114.74627626       0.00003000      -0.00489431       0.00298280      -0.59834906
H        2.62920735       1.88015074       0.64370123     -11.60602821       0.00058719      -0.00179542       0.00051591       0.31728485
H        3.85142676       2.74672313       1.01932547     -11.91808797       0.00158071      -0.00453820       0.00454225       0.28014893
44
Properties=species:S:1:pos:R:3:energies:R:1:forces:R:3:charge:R:1 reactant=T mapped=T (centered)=T energy=-2153.5131681861117 free_energy=-2153.5131681861117 dipole="0.014892653617436686 1.1331130041999382 0.10847792788877006" pbc="F F F"
O       -2.66756295       1.16378998      -1.53842058    -113.16443334       0.00449758       0.00315208       0.00063521      -0.45609504
O       -3.11373152       0.69846669       1.93782223    -113.28724004       0.00191556       0.00002816      -0.00087103      -0.46205983
O       -1.75781427      -1.75116324      -0.83946256    -113.18437667      -0.00007431      -0.00019222      -0.00233624      -0.45985930
O       -5.56880753       1.94436506       1.63642551    -113.04674093       0.00178074       0.00003083      -0.00009683      -0.43769880
O       -0.05283282       0.07204885      -1.67149035    -113.19104554       0.00128614      -0.00093335       0.00163169      -0.45437072
O        1.08163577       1.83462283       0.72358306    -113.23621971       0.01054405      -0.00025023       0.00318535      -0.44688910
C       -2.92101834       0.27771509      -0.47637925     -59.15739486       0.00169202       0.00113985      -0.00149023       0.09481661
C       -3.50117671       1.14759567       0.65997910     -59.10084610       0.00136353       0.00029570      -0.00083065       0.09112349
C       -1.70886222      -0.57851299      -0.05850817     -59.05251777      -0.00028900      -0.00117779      -0.00081932       0.07531702
C       -5.03323994       1.18970166       0.57350152     -59.26003206       0.00130448      -0.00004412      -0.00029854       0.05912377
C       -0.30979778       0.05819155      -0.29680046     -59.02635153       0.00001189      -0.00097107       0.00163255       0.18475904
C       -0.20587325       1.50285843       0.24757537     -59.19109662      -0.00496863      -0.00041030       0.00141256       0.05284592
H       -3.68292072      -0.45875617      -0.78194389     -12.96350134       0.00100938       0.00286980      -0.00407749       0.04744129
H       -3.11620121       2.16973995       0.50287356     -13.06193780       0.00108063       0.00055203      -0.00057121       0.03864937
H       -1.81293505      -0.81900243       1.00679947     -13.04226120      -0.00183013      -0.00247654      -0.00130182       0.05043811
H       -5.33881894       1.58080380      -0.40213471     -13.21584553       0.00086711      -0.00009439      -0.00025770       0.03951188
H       -5.43259032       0.18028265       0.69983241     -12.99590773       0.00143705      -0.00012075      -0.00003120       0.06213168
H       -2.08846941       0.72588705      -2.17563221     -11.34019398       0.01518706       0.00117682       0.00228502       0.31878942
H       -3.85815920       0.88544862       2.53007395     -11.28926100       0.00215361       0.00040034      -0.00061868       0.31942329
H       -0.41985117       2.19543474      -0.56549792     -12.84112085      -0.01852663       0.00218959      -0.00045571       0.08195268
H       -0.93784745       1.63017803       1.04895907     -13.19165410      -0.00849476      -0.00207086       0.00193300       0.04167867
H       -0.97348182      -2.29511189      -0.63897063     -11.30427959      -0.00118334      -0.00131857      -0.00153831       0.32938933
H        1.26091645       1.30154615       1.50763466     -11.46925238       0.01499130       0.00158693       0.00779206       0.29885024
H       -5.34388495       2.87270138       1.50588943     -11.55588281       0.00206847       0.00001057      -0.00018724       0.29436122
O        2.87099808      -2.26560492      -2.03085617    -112.45570583      -0.00076077       0.00234907       0.00097743      -0.36187582
O        0.88926999      -2.95650140      -1.27745325    -112.31357138      -0.00330738       0.00110765      -0.00167627      -0.41228427
O        4.70718326      -2.91069461       0.18108545    -112.40536942       0.00272299       0.00073572       0.00083221      -0.43785651
N        0.61469202      -0.86352669       0.36060811     -80.63145699       0.00016761       0.00029680       0.00315786      -0.28814618
N        5.01153949      -0.71431441      -0.22239663     -80.90355752      -0.00226077       0.00108240       0.00225138      -0.27464648
C        1.92939484      -1.04557708      -0.22578258     -58.92589331       0.00001483      -0.00048202       0.00259973       0.03486576
C        2.96708949      -1.38554961       0.85198173     -59.29337489      -0.00086609      -0.00500627       0.00192431      -0.09966166
C        1.82615783      -2.20153033      -1.21689535     -58.86192459       0.00113820       0.00346799       0.00041923       0.36048597
C        4.31352698      -1.76619964       0.23417484     -59.21940969       0.00027266      -0.00215675       0.00135752       0.28728535
H        2.25759834      -0.16398157      -0.79387447     -12.83377498       0.00186900       0.00029932       0.00487275       0.07572156
H        3.10901487      -0.51934443       1.50057750     -13.12264790      -0.00192583      -0.00814154       0.00632508       0.05814465
H        2.60735704      -2.23240134       1.43862384     -13.05396911      -0.00074655      -0.00797859      -0.00233664       0.06975353
H        0.62624450      -0.74608134       1.36309734     -12.63174694       0.00172454       0.00416698       0.00265220       0.14817513
H       -0.38911230      -0.77406814      -2.01722855     -11.32062639       0.00336925      -0.00229192       0.00172429       0.32027610
H        4.65702761       0.23101903      -0.17310026     -11.98328366      -0.00553675      -0.00021278      -0.00020592       0.22452560
H        5.89231387      -0.88390029      -0.67794374     -12.25572444      -0.00267751       0.00295224       0.00099816       0.19026449
H        2.82379192      -3.05133055      -2.59922225     -10.88566193      -0.00084503       0.00367412      -0.00089437       0.34149548
O        3.80713884       1.92031056       0.07986385    -114.74308367      -0.00525534       0.00056639      -0.01337697      -0.59667758
H        2.84132894       1.98935824       0.12424769     -11.61575464      -0.01102642      -0.00186004      -0.00726217       0.31431915
H        4.14076974       2.81108709      -0.03521671     -11.88723746      -0.00389443       0.00405871      -0.00906504       0.28220549
44
Properties=species:S:1:pos:R:3:energies:R:1:forces:R:3:charge:R:1 reactant=T mapped=T (centered)=T energy=-2153.226537731811 free_energy=-2153.226537731811 dipole="0.5643894152288014 1.781472376316847 0.5326750567868899" pbc="F F F"
O       -2.68257675       0.97206797      -1.67213801    -113.02440227       0.01566855       0.01474313       0.00657726      -0.44707076
O       -2.93394402       0.94138630       1.88532219    -113.32661288       0.00619708       0.03246274      -0.00361836      -0.46681324
O       -1.75876268      -1.79917286      -0.76274386    -113.04455714       0.00017634       0.00831462       0.01166410      -0.45424768
O       -5.50109489       1.90345870       1.69997124    -113.05773459      -0.00768468      -0.00820313       0.00140854      -0.44008002
O       -0.03277647       0.05060231      -1.66517636    -113.05313953      -0.00288504       0.01168699       0.00919847      -0.44703104
O       -0.79859073       2.40241822       0.03409969    -113.11777650       0.07334123       0.01717593       0.00211500      -0.44554129
C       -2.89821494       0.24764240      -0.49638131     -59.21813447       0.00625742       0.01025919       0.00249760       0.09490583
C       -3.46807548       1.18903691       0.60092481     -59.05647551      -0.00569972       0.00971281      -0.00268499       0.08121102
C       -1.68733092      -0.59529016      -0.03452922     -59.01652751       0.00274065       0.00848027       0.00971226       0.08402854
C       -4.99880184       1.10264703       0.65180966     -59.25754517      -0.00367681      -0.00906714       0.00508485       0.05857467
C       -0.26723221      -0.02061362      -0.29416621     -59.07062641       0.00269890       0.00784655       0.01078786       0.18467740
C        0.08755459       1.34690091       0.33638476     -59.10328210       0.00843636       0.00793984       0.01338746       0.06368512
H       -3.66382960      -0.49489586      -0.75286682     -12.84340978       0.00786895       0.01123691      -0.00523355       0.06721523
H       -3.20843205       2.22020859       0.30652457     -13.08349486      -0.02666260       0.01174056      -0.01394737       0.03452374
H       -1.79332361      -0.79016674       1.04139503     -13.11530400       0.00060699       0.01064341       0.00977026       0.04148369
H       -5.41623491       1.39188781      -0.31827554     -13.23664688      -0.00909964      -0.01906616       0.00462387       0.03781506
H       -5.30822703       0.08193473       0.88703625     -13.02727346       0.00840266      -0.01081983       0.01187966       0.06052310
H       -1.92177086       1.55867548      -1.53212646     -11.39168670       0.03381701      -0.00159276       0.00222554       0.32179766
H       -3.66835613       1.03116618       2.51091293     -11.36963698       0.00693411       0.00224774       0.00059456       0.31485998
H        1.07015938       1.61932195      -0.06991768     -12.97192258      -0.00993410      -0.02007961       0.05996534       0.05790062
H        0.16955892       1.20540445       1.41790306     -13.37147994      -0.00147354       0.02959120      -0.02763081       0.02235725
H       -0.94097501      -2.30700952      -0.60832355     -11.36810379       0.00138317       0.00685238       0.00401041       0.32618390
H       -1.22806659       2.67653374       0.84958290     -11.45085029      -0.05807465      -0.08089321      -0.07031808       0.30666643
H       -5.35018334       2.83117709       1.48468806     -11.58413487      -0.01602392      -0.00783619      -0.00323259       0.29222201
O        2.90377490      -2.39284067      -2.08098071    -112.50378764      -0.00402295       0.00165085      -0.00093423      -0.36894334
O        0.95964199      -3.16925153      -1.30618540    -112.12610743       0.00615858       0.02571014       0.00115364      -0.39795093
O        4.81713563      -2.92390540       0.17681014    -112.34029583       0.00341404       0.00103022      -0.00602553      -0.43035398
N        0.61119959      -1.03891988       0.30759046     -80.71070139       0.00559127       0.00964982       0.00715673      -0.29535522
N        4.97160182      -0.71443069      -0.23097960     -80.91833092       0.00092597       0.00118543      -0.00112476      -0.27753306
C        1.92811296      -1.20718320      -0.27648860     -58.92936409       0.00123583       0.00500396       0.00313520       0.03456387
C        2.96310262      -1.52055665       0.81297308     -59.30473560       0.00281857      -0.00484582      -0.00080341      -0.09984459
C        1.85612801      -2.37067355      -1.26066618     -58.89567818      -0.02092913      -0.00837827      -0.00131715       0.36085143
C        4.33701202      -1.81401231       0.21837317     -59.19986530       0.00346422      -0.00277010      -0.00304125       0.28844630
H        2.24139912      -0.32212198      -0.84684754     -12.93621310       0.00393755       0.00544575       0.00635347       0.06534592
H        3.03615882      -0.66039168       1.48127818     -13.11930033       0.00260011      -0.01045815       0.00561327       0.05820112
H        2.63359196      -2.39555224       1.37501041     -13.02418332       0.00339828      -0.00888458      -0.00694791       0.07270876
H        0.65792210      -0.91082061       1.30993677     -12.59795779      -0.02077540      -0.05009747      -0.02669323       0.14997849
H       -0.61934811      -0.59908441      -2.08859949     -11.26007345       0.00720305       0.00157220       0.00989229       0.33084609
H        4.53799199       0.19613032      -0.20700278     -12.07811744       0.00019243       0.00072067       0.00045253       0.21168506
H        5.85501783      -0.82711002      -0.69863575     -12.24946433       0.00150621       0.00309552      -0.00006092       0.18999208
H        2.87789592      -3.17709431      -2.65252817     -10.92420415      -0.00971868       0.00149632      -0.00073848       0.33980797
O        3.78366378       1.99306924       0.15446287    -114.60885506       0.00643569      -0.00440713      -0.01658789      -0.57004466
H        3.64595364       2.61797978      -0.56172211     -11.66032465      -0.01465437      -0.01174942       0.00410799       0.29529608
H        4.20157057       2.47144779       0.87429008     -11.67821952      -0.01209597       0.00165385      -0.01242763       0.29245540
44
Properties=species:S:1:pos:R:3:energies:R:1:forces:R:3:charge:R:1 reactant=T mapped=T (centered)=T energy=-2153.309865601367 free_energy=-2153.309865601367 dipole="-0.10252363532632855 1.3881135859650444 0.18153044287936926" pbc="F F F"
O       -2.60678195       1.13593273      -1.55044492    -113.15854181       0.01365719       0.01236776       0.00824478      -0.46134509
O       -2.99920715       0.74571924       1.96396057    -113.31257141       0.00009573      -0.00112114       0.00504877      -0.46364937
O       -1.70031924      -1.71645994      -0.87363934    -113.14672234       0.00234903       0.00633691      -0.00464490      -0.46119816
O       -5.54411777       1.79242703       1.73071681    -113.04781358      -0.00194579      -0.00402007      -0.00151998      -0.43800869
O       -0.00123186       0.20401994      -1.56394735    -113.13042198       0.00706021       0.00887665       0.01310599      -0.45239122
O        0.61014753       2.36088960      -0.25111140    -113.03985490       0.08546196       0.00234559      -0.03203262      -0.43635607
C       -2.84693115       0.28688018      -0.45626951     -59.16725197       0.00787148       0.00597887       0.00325368       0.09413094
C       -3.46006989       1.13473024       0.69186621     -59.02818376       0.00379211       0.00228881       0.00422659       0.08854331
C       -1.64840624      -0.58837939      -0.02598483     -59.05717839       0.00382687       0.00090010       0.00380499       0.08041514
C       -4.99362287       1.06011229       0.65880298     -59.25088859       0.00372099      -0.00178933      -0.00018149       0.05883369
C       -0.24036306       0.04864430      -0.18602778     -59.00768537       0.00442216       0.00133493       0.01326365       0.18852974
C       -0.09553107       1.41643144       0.53079967     -59.13943702      -0.00418467       0.00020258       0.02187484       0.05533895
H       -3.60718448      -0.43886847      -0.78072179     -12.85092696       0.00700980       0.00882600      -0.00248851       0.06165866
H       -3.17487101       2.18731450       0.50622279     -13.17165393       0.00356015       0.00354647       0.00751611       0.02568989
H       -1.79515854      -0.86880663       1.02502502     -13.08451175      -0.00127363      -0.00469774       0.00185746       0.04781637
H       -5.36397646       1.41054197      -0.30988193     -13.22197991       0.00505518      -0.00338491      -0.00135579       0.03925954
H       -5.31195979       0.02672229       0.81502548     -13.00854693       0.00684761      -0.00308623      -0.00087995       0.06165747
H       -1.65118103       1.22956961      -1.68791387     -11.32783675       0.02954487      -0.02008451      -0.00542777       0.32613120
H       -3.73279780       0.89400743       2.58024623     -11.28871892      -0.00099766       0.00009298       0.00357553       0.31930455
H        0.45989181       1.22281963       1.45342513     -12.99936112      -0.00604084      -0.03306874       0.10613797       0.05256089
H       -1.07794725       1.79198958       0.79798042     -13.14852718      -0.08220124       0.02636312      -0.00670439       0.04573896
H       -0.93496066      -2.30416700      -0.73122842     -11.41586076      -0.00085179       0.00041568      -0.00965575       0.32038328
H        0.31867519       3.23381979       0.02755390     -11.48427189       0.06597880       0.04385302      -0.09170893       0.29854647
H       -5.39638005       2.73273141       1.57748264     -11.56890748      -0.00663208      -0.00320834      -0.00189910       0.29299236
O        2.82040047      -2.41363133      -2.03064698    -112.40629411      -0.00433149       0.00307525       0.00260078      -0.35520865
O        0.85503756      -3.03612369      -1.17412686    -112.55644116      -0.00708780       0.01322460       0.00340116      -0.43453488
O        4.83850234      -2.88718752       0.10281273    -112.41106049       0.00628712       0.00233513      -0.00728299      -0.43964560
N        0.71887014      -0.84551414       0.45771408     -80.74559630       0.00720597       0.00670472       0.01585581      -0.29055372
N        5.00380556      -0.67312083      -0.28918871     -80.90508119       0.00151029       0.00429934      -0.00088738      -0.27532132
C        1.95876015      -1.12075264      -0.22728135     -59.00278085       0.00266558       0.00372860       0.00782282       0.03068533
C        3.03174693      -1.46604675       0.82126393     -59.29525659       0.00610505      -0.00251811       0.00276420      -0.10386543
C        1.81018889      -2.29337639      -1.18827022     -58.86209560      -0.00295651       0.00731654       0.00354396       0.35649148
C        4.37855293      -1.76800944       0.17568355     -59.22660203       0.00444830       0.00267145      -0.00258113       0.28717305
H        2.25740473      -0.23694138      -0.79527556     -12.70360881       0.00062309       0.00676861       0.01242506       0.09509368
H        3.12447516      -0.61406125       1.49312310     -12.92452327       0.00656617      -0.00664894       0.00760172       0.07796008
H        2.70922474      -2.33912162       1.38989272     -13.06907699       0.00818834      -0.00562531      -0.00088896       0.06794190
H        0.30202194      -1.70673268       0.78694872     -12.50996537      -0.03118781      -0.07613569      -0.05095629       0.15864700
H       -0.44960025      -0.53816702      -2.00924987     -11.31207120       0.01381682       0.00561197       0.00933867       0.32250833
H        4.58153245       0.24252750      -0.23334165     -12.00082866      -0.00163156       0.00314024      -0.00246555       0.22203108
H        5.88015840      -0.78388412      -0.77030988     -12.27023411      -0.00006839       0.00673662      -0.00452759       0.18911487
H        2.74770229      -3.22113134      -2.56557617     -10.88635969      -0.00890662       0.00427770       0.00099448       0.34148850
O        3.59884279       1.90588952       0.01448573    -114.68161416      -0.02447601      -0.00414159      -0.02459638      -0.58842011
H        2.67028244       2.05274154      -0.21236437     -11.59450677      -0.08513593      -0.03627162       0.01187740       0.31362467
H        3.95637512       2.74402181       0.31176936     -11.88821354      -0.03776106       0.01218201      -0.01745099       0.28020692
44
Properties=species:S:1:pos:R:3:energies:R:1:forces:R:3:charge:R:1 reactant=T mapped=T (centered)=T energy=-2153.7473872035303 free_energy=-2153.7473872035303 dipole="-0.2789568593520155 0.938242331222019 -0.4523805384659716" pbc="F F F"
O       -2.82787761       1.06011642      -1.41470590    -113.15757888       0.00026716       0.00115069       0.00231532      -0.44954898
O       -3.07829501       0.38414984       2.08898439    -113.22179993      -0.00503083      -0.00544478       0.00131006      -0.45509396
O       -1.73109219      -1.74459513      -0.94196276    -113.26412676      -0.00083012      -0.00224712       0.00509000      -0.46661202
O       -5.35972040       2.04996607       1.86219167    -113.04358909       0.00006901      -0.00090238       0.00188248      -0.43745157
O       -0.02839450       0.07205679      -1.68259037    -113.36712326      -0.00233982      -0.00461954      -0.00274130      -0.47783329
O        0.99881949       2.10689598      -0.21290334    -113.17661199       0.00066639      -0.00023845      -0.01044080      -0.44231810
C       -2.93477106       0.17667114      -0.32627562     -59.10109680       0.00021639      -0.00006127       0.00132118       0.09878122
C       -3.40306083       1.01402466       0.87533900     -59.14536187      -0.00016509      -0.00142202       0.00210811       0.09195014
C       -1.65799314      -0.64486436      -0.05335403     -59.01576132       0.00037402       0.00035758       0.00174735       0.07868961
C       -4.91978648       1.24451329       0.79412983     -59.24813026       0.00072655       0.00310827      -0.00085614       0.05962446
C       -0.29034240       0.05013912      -0.29201571     -58.95041434       0.00006811      -0.00047203      -0.00222744       0.18488748
C       -0.21756787       1.51249514       0.18123146     -59.21859361       0.00112412       0.00087474      -0.00642206       0.05671767
H       -3.70479009      -0.58373604      -0.53645110     -12.97278521       0.00050197      -0.00009520       0.00040730       0.04646569
H       -2.90260055       1.99476379       0.82279716     -13.11082333       0.00307216      -0.00286384       0.00588303       0.03399006
H       -1.71016109      -0.97269959       0.99161637     -13.01342880       0.00182578       0.00324251       0.00269247       0.05510295
H       -5.17694821       1.67746067      -0.17822642     -13.20199910       0.00447897       0.00843002       0.00063200       0.04039657
H       -5.43670822       0.28898233       0.91321348     -12.98663279      -0.00212784       0.00397114      -0.00677396       0.06283414
H       -2.49866034       0.56438273      -2.17387241     -11.33837276       0.00383061       0.00220682       0.00202762       0.31491134
H       -3.71449420       0.70428377       2.74539126     -11.26647668      -0.00726249      -0.00694939      -0.00011509       0.31958330
H       -0.25904893       1.54304616       1.26892963     -13.01939472       0.00346745       0.00360954      -0.00610782       0.06411338
H       -1.04967309       2.07204173      -0.25478143     -13.03325618      -0.00006630       0.00012441      -0.00612646       0.05466200
H       -0.95926969      -2.33006991      -0.82663821     -11.37156558      -0.00070923      -0.00186969       0.00555185       0.32422339
H        1.07608404       1.94362976      -1.16275144     -11.35783838      -0.00112260      -0.00273626      -0.01110782       0.31590846
H       -5.02626248       2.94571070       1.73683630     -11.55703062       0.00304218      -0.00129244       0.00730096       0.29384126
O        2.80190663      -2.08120970      -2.14081271    -112.42518627      -0.00117826      -0.00010891      -0.00167304      -0.35619719
O        0.88670316      -2.84254303      -1.28330034    -112.62602611       0.00034978      -0.00100924       0.00130586      -0.44064133
O        4.78517681      -2.80697957      -0.03685851    -112.43399060       0.00022830       0.00109479      -0.00161206      -0.44227654
N        0.70872316      -0.71622408       0.45394468     -80.77514979       0.00070948       0.00136375      -0.00134259      -0.28595370
N        5.01193390      -0.56384500      -0.07748855     -80.92615517       0.00101134       0.00119985       0.00205202      -0.27814941
C        1.96869097      -0.98327260      -0.20267134     -58.95153541       0.00054003       0.00049891      -0.00133940       0.03429651
C        2.98877284      -1.46432841       0.84371913     -59.30104526       0.00012209       0.00063615      -0.00087282      -0.10400299
C        1.81872611      -2.06977324      -1.25927764     -58.82356755       0.00010608      -0.00014526      -0.00047021       0.35923832
C        4.35301091      -1.69959031       0.20295896     -59.23342969       0.00040222       0.00108568      -0.00024833       0.28625727
H        2.33702937      -0.07517658      -0.68208847     -12.77883583       0.00093316       0.00003188      -0.00190927       0.08508380
H        3.06178224      -0.70058719       1.61645163     -12.89087591      -0.00041963       0.00068399      -0.00086360       0.08260569
H        2.64210204      -2.39825630       1.28837054     -13.08972126       0.00002861       0.00055196      -0.00108885       0.06653114
H        0.32970119      -1.59501593       0.79108550     -12.49965437       0.00121217       0.00175679       0.00025164       0.15738945
H       -0.48560878      -0.69629367      -2.06536825     -11.44800850      -0.00112259      -0.00513038       0.00077399       0.31361653
H        4.62774140       0.34445992       0.15009225     -11.96950933       0.00053999       0.00090800       0.00242999       0.22634328
H        5.91509319      -0.62374781      -0.51632825     -12.28463868       0.00119067       0.00175454       0.00233510       0.18806696
H        2.73996790      -2.84524579      -2.73714143     -10.89295423      -0.00141164      -0.00046714      -0.00120350       0.34078804
O        3.67146303       1.92720688       0.54430434    -114.75579226      -0.00310807      -0.00110536       0.00385247      -0.59880174
H        2.70194496       1.92632162       0.47796642     -11.57853886      -0.00249982       0.00008566      -0.00463201       0.31853748
H        3.94775382       2.83473570       0.40830925     -11.92297989      -0.00171044       0.00045307       0.01690376       0.27944325
44
Properties=species:S:1:pos:R:3:energies:R:1:forces:R:3:charge:R:1 reactant=T mapped=T (centered)=T energy=-2153.495116972252 free_energy=-2153.495116972252 dipole="0.28366570636168065 1.9245836949512185 -0.16760035932152012" pbc="F F F"
O       -2.72801113       1.02138623      -1.35489461    -113.26457809       0.00068369      -0.00362100       0.00009494      -0.46187506
O       -3.46978659       0.15288557       2.06987194    -113.16578725      -0.00070242       0.00376871      -0.00034301      -0.45468643
O       -1.72694637      -1.86219540      -0.66206065    -112.89470085       0.00097102      -0.00256015       0.00985728      -0.44990085
O       -5.58469022       1.91415049       1.66782952    -113.03280850      -0.00093387       0.00034093      -0.00246775      -0.43771557
O       -0.08950276       0.02756426      -1.58996225    -113.12804836      -0.00155722      -0.00450490       0.00032590      -0.45379448
O        0.93814244       2.10844439      -0.09482900    -113.38552002       0.00139439      -0.00248840      -0.00593435      -0.45719383
C       -2.91837905       0.11936794      -0.29152225     -59.11233823       0.00076346      -0.00105698       0.00151652       0.09367807
C       -3.52550460       0.90453712       0.88359598     -59.13992528       0.00007464       0.00095894      -0.00079869       0.09402968
C       -1.64570373      -0.67422697       0.08153245     -59.11481384       0.00102681       0.00046844       0.00380013       0.08807374
C       -4.98077793       1.27617945       0.56539236     -59.24113084       0.00040247       0.00085136      -0.00155093       0.05999366
C       -0.29112469       0.03298036      -0.19396207     -58.98063598       0.00042994      -0.00086530       0.00029101       0.19302677
C       -0.27642038       1.48507117       0.31766490     -59.03193970       0.00125808      -0.00007188      -0.00323931       0.05034300
H       -3.64121470      -0.65770038      -0.58622345     -12.88724375       0.00124781      -0.00157335       0.00306737       0.05646323
H       -2.95277457       1.83722288       1.02406367     -13.23077523       0.00003494       0.00013247      -0.00233582       0.02050767
H       -1.69728780      -0.88723346       1.16068644     -13.03156660       0.00184725       0.00509062       0.00423593       0.04714689
H       -5.01608204       1.89333892      -0.33788256     -13.18874876       0.00111007       0.00054752      -0.00090984       0.04238755
H       -5.55985022       0.36466518       0.40084803     -12.98690674       0.00091267       0.00146954      -0.00204101       0.06357483
H       -2.18032713       0.56312969      -2.00877357     -11.29116443       0.00171562      -0.00463740       0.00160853       0.32652403
H       -4.28144047       0.34501225       2.56290131     -11.30079480      -0.00232750       0.00277625      -0.00219270       0.31876714
H       -0.34986292       1.46809779       1.40837417     -13.18079030       0.00196688       0.00237914      -0.00343568       0.04336886
H       -1.12020057       2.02483274      -0.11928370     -13.04998446       0.00108889      -0.00075764      -0.00359952       0.05603378
H       -0.85648883      -2.29027086      -0.74098911     -11.45550854       0.00091822       0.00008949       0.00431800       0.32478274
H        0.89336621       3.02795183       0.18697417     -11.45709036       0.00324804       0.00424000       0.00187027       0.29941340
H       -5.17057758       2.77471790       1.79867476     -11.59147311      -0.00115319      -0.00036840      -0.00179112       0.29127225
O        2.71901389      -2.14321518      -2.10448151    -112.50775216      -0.00499999       0.00273788      -0.00383972      -0.36468835
O        0.90222911      -2.94656075      -1.08493002    -112.35615347      -0.00203936      -0.00269713       0.00124284      -0.41715088
O        4.70859409      -2.97738538       0.10043621    -112.38777550       0.00165840       0.00288124      -0.00819406      -0.43732325
N        0.74109316      -0.70238856       0.53782950     -80.83780548       0.00126908       0.00078306       0.00046560      -0.28921268
N        5.04344263      -0.78158709      -0.26765894     -80.90585369      -0.00002468       0.00390239       0.00037632      -0.27530026
C        1.97582711      -1.00118644      -0.15553300     -58.95352462       0.00043457      -0.00012704      -0.00094614       0.03274942
C        3.03021486      -1.43669467       0.87807571     -59.29809488       0.00095296      -0.00133410      -0.00223452      -0.10310190
C        1.79162820      -2.13560199      -1.15718928     -58.85948423       0.00080345       0.00274875      -0.00122610       0.35873802
C        4.33918635      -1.82760206       0.19978448     -59.22605168       0.00087440       0.00276788      -0.00350171       0.28619006
H        2.33558088      -0.11945256      -0.68757543     -12.84548097       0.00049914       0.00002877      -0.00084843       0.07736935
H        3.19486261      -0.60952289       1.56739656     -12.95061225       0.00033736      -0.00322217      -0.00014384       0.07555445
H        2.65589425      -2.29790405       1.43281932     -13.03519287       0.00202463      -0.00295539      -0.00457865       0.07189181
H        0.36701390      -1.57369510       0.90102090     -12.40296883       0.00188220       0.00110988       0.00171877       0.16774273
H        0.53725147       0.73140832      -1.79807199     -11.39332766       0.00512403       0.00573720      -0.00082235       0.31208310
H        4.69373999       0.16438431      -0.22912600     -12.02002879       0.00052908       0.00362115       0.00563177       0.21967389
H        5.89293918      -0.96615662      -0.77427126     -12.25793581       0.00069799       0.00669111       0.00084328       0.18984966
H        2.63023426      -2.92675896      -2.67140610     -10.90775511      -0.00564429       0.00323999      -0.00426214       0.34105080
O        3.79273444       1.89755687      -0.24070399    -114.74178333      -0.00152169       0.00169101       0.01189147      -0.59251100
H        2.83564592       1.89571991      -0.09829555     -11.60413237      -0.00010784      -0.00173055       0.00347475       0.31080356
H        4.04431934       2.78673381      -0.49614711     -11.85912922      -0.01717015      -0.02648193       0.00460673       0.28137038
44
Properties=species:S:1:pos:R:3:energies:R:1:forces:R:3:charge:R:1 reactant=T mapped=T (centered)=T energy=-2153.5555143051197 free_energy=-2153.5555143051197 dipole="0.06467152046020316 1.7377108076418903 0.00325162295081647" pbc="F F F"
O       -2.77295451       0.77149625      -1.42048848    -113.26283711      -0.00006455      -0.00206831       0.00006605      -0.46227528
O       -3.23597926       0.56951866       2.14114404    -113.20106744      -0.00101177       0.00164421       0.00160536      -0.45609052
O       -1.71469163      -1.98610534      -0.27523006    -112.93474417       0.00031014      -0.00167856       0.00599430      -0.45342741
O       -5.51085946       2.06514241       1.61124191    -113.03759018      -0.00084462       0.00093712      -0.00190769      -0.43743086
O       -0.17012824      -0.20978730      -1.63020149    -113.18324507      -0.00102319      -0.00244484       0.00012841      -0.45849008
O        0.97656041       2.00893038      -0.43695219    -113.36286839       0.00015200      -0.00063434      -0.00415052      -0.45370675
C       -2.90572214       0.05264894      -0.21754281     -59.10767531       0.00018057      -0.00083202       0.00126482       0.09162510
C       -3.46068158       1.03237535       0.83333487     -59.13268590      -0.00019374       0.00055785       0.00024323       0.09357419
C       -1.61318609      -0.67476540       0.22281339     -59.12917260       0.00044009       0.00019405       0.00255993       0.08658818
C       -4.96428022       1.24381971       0.60466493     -59.24414203      -0.00019616       0.00022541      -0.00136901       0.05975502
C       -0.28407339      -0.02776827      -0.23263906     -58.95472362       0.00015244      -0.00048969       0.00026447       0.19410350
C       -0.23849606       1.47785598       0.08150070     -59.05481259       0.00062285       0.00021958      -0.00190295       0.05068216
H       -3.63781269      -0.75998626      -0.34706761     -12.90970554       0.00044764      -0.00154019       0.00227034       0.05441852
H       -2.95281493       2.00381690       0.70598762     -13.20252126       0.00026363       0.00093586      -0.00045370       0.02299266
H       -1.61053390      -0.69447511       1.32330475     -12.96386311       0.00097938       0.00292944       0.00293937       0.05400661
H       -5.13260603       1.65231348      -0.39678050     -13.19501859       0.00051426      -0.00013591      -0.00225173       0.04171860
H       -5.48242754       0.28631371       0.69479109     -12.98726840      -0.00046870      -0.00026437      -0.00122064       0.06338831
H       -2.25261018       0.21853563      -2.02113331     -11.30641727       0.00005099      -0.00267624       0.00053818       0.32520278
H       -4.01951740       0.80632879       2.65987118     -11.28503410      -0.00169604       0.00146563       0.00070999       0.31950929
H       -0.29207951       1.61420712       1.16556020     -13.16367438       0.00181957       0.00191164      -0.00184640       0.04447174
H       -1.08713689       1.96102478      -0.40710946     -13.05522424       0.00011334      -0.00044436      -0.00173883       0.05621777
H       -0.85079151      -2.32698463      -0.56531238     -11.42568390       0.00043384      -0.00025816       0.00318728       0.32745585
H        0.91098365       2.96972989      -0.43709528     -11.40591245      -0.00061989       0.00007729      -0.00844578       0.30375984
H       -5.16160520       2.95814166       1.51281774     -11.58082657      -0.00051717       0.00136503      -0.00209914       0.29190215
O        2.53334567      -2.01399843      -2.31791363    -112.51166095      -0.00212540       0.00173670      -0.00218374      -0.36511644
O        0.88408216      -2.94485590      -1.13247831    -112.36614689      -0.00077863      -0.00003787      -0.00027349      -0.41878407
O        4.79868038      -2.81904533      -0.32240136    -112.38768013       0.00041489       0.00016658      -0.00451323      -0.43650355
N        0.79131698      -0.68162916       0.51272877     -80.91602882       0.00072637       0.00042104       0.00028839      -0.29175338
N        5.04286487      -0.57912216      -0.27676479     -80.94429762       0.00038514       0.00096777      -0.00107212      -0.28019548
C        1.98932317      -0.99905132      -0.23956887     -58.92367075       0.00023165       0.00016513      -0.00058918       0.03295053
C        3.06859134      -1.51227121       0.72716953     -59.28993061       0.00061485      -0.00079242      -0.00148801      -0.10175552
C        1.72575487      -2.09243955      -1.26962231     -58.86542897      -0.00033997       0.00123040      -0.00106540       0.36012078
C        4.38842117      -1.72285515      -0.01030998     -59.22913360       0.00037447       0.00048285      -0.00252027       0.28526147
H        2.35181903      -0.10727207      -0.75565360     -12.88702294       0.00022882       0.00032032      -0.00038099       0.07371510
H        3.19271894      -0.78141197       1.52519019     -12.97571242       0.00073760      -0.00157217      -0.00052951       0.07198424
H        2.74954674      -2.46284039       1.15669935     -13.05947954       0.00094706      -0.00155737      -0.00236539       0.07024965
H        0.45073450      -1.54116899       0.93431864     -12.35571559       0.00115829       0.00057825       0.00105836       0.17157613
H        0.44678124       0.45499414      -1.96260038     -11.37855786      -0.00107597      -0.00284402      -0.00131686       0.31379436
H        4.65850478       0.32892368      -0.04695704     -12.00565434       0.00012859       0.00107264      -0.00008383       0.22133194
H        5.89956901      -0.62709174      -0.80205308     -12.26720302       0.00014779       0.00182697      -0.00190437       0.18957770
H        2.40863239      -2.77296448      -2.91060766     -10.91447441      -0.00256587       0.00214272      -0.00259988       0.34075897
O        3.66558796       1.87815650       0.45478057    -114.76648686       0.00054369       0.00065632       0.00375422      -0.59275040
H        2.73254729       1.80958641       0.20035324     -11.57559662      -0.00012743      -0.00042023       0.00071478       0.31331478
H        3.68462181       2.17402980       1.36620997     -11.84891812       0.00052918      -0.00353969       0.02268517       0.28227180
44
Properties=species:S:1:pos:R:3:energies:R:1:forces:R:3:charge:R:1 reactant=T mapped=T (centered)=T energy=-2153.614593981179 free_energy=-2153.614593981179 dipole="-0.38183382219323997 1.5056148220751973 -0.274128233820012" pbc="F F F"
O       -2.79871204       0.55596301      -1.39458173    -113.30073783       0.00037715       0.00005490       0.00058546      -0.46704820
O       -3.08609614       0.91248781       2.16329399    -113.23910753      -0.00249274      -0.00128063       0.00088165      -0.45679252
O       -1.57204557      -2.00921813       0.32747046    -112.91031318       0.00114861       0.00015950       0.00358978      -0.43648320
O       -5.42894958       2.25264643       1.51040113    -113.04854193      -0.00133414      -0.00034734      -0.00152872      -0.43727808
O       -0.29989811      -0.44808555      -1.61726703    -113.35915968      -0.00030529      -0.00009491       0.00063556      -0.47144328
O        1.08452876       1.85251687      -0.73718265    -113.33372460       0.00026466       0.00002945      -0.00093845      -0.45034353
C       -2.86092990       0.00963740      -0.09819414     -59.11080619       0.00022853      -0.00018424       0.00057587       0.08661359
C       -3.39478288       1.13686274       0.81121322     -59.10078367      -0.00067524      -0.00043972       0.00048743       0.09404279
C       -1.53957697      -0.60926510       0.42762120     -59.19495494       0.00039481       0.00068248       0.00142274       0.07784609
C       -4.91366712       1.27480540       0.63672593     -59.24727470      -0.00041256       0.00000982      -0.00151433       0.06012736
C       -0.24206510      -0.09386176      -0.23806202     -58.87845374       0.00030090       0.00031097       0.00067820       0.19378939
C       -0.12364968       1.43365910      -0.11702568     -59.09976527       0.00065990       0.00039774       0.00018543       0.05185852
H       -3.58649208      -0.82016033      -0.07783962     -12.99195920       0.00064104      -0.00063297       0.00027433       0.04639633
H       -2.92140552       2.08037298       0.48779609     -13.18464669       0.00007410      -0.00031202       0.00158324       0.02490320
H       -1.48677009      -0.39145212       1.49902793     -12.75847341       0.00028629       0.00194219       0.00130384       0.08112470
H       -5.14783841       1.49246201      -0.41015507     -13.19202553       0.00105144       0.00072852      -0.00180777       0.04201341
H       -5.39676921       0.33886040       0.92747757     -12.98801701      -0.00105316      -0.00017029      -0.00272600       0.06287847
H       -2.20784299      -0.00114569      -1.92344901     -11.33183487       0.00086109       0.00038874       0.00070499       0.32242098
H       -3.84551600       1.22312952       2.67868772     -11.26256122      -0.00317477      -0.00163979       0.00011650       0.32063176
H       -0.13594375       1.70500222       0.94329153     -13.15729871       0.00155882       0.00070582       0.00017411       0.04396606
H       -0.98037770       1.88417673      -0.62527776     -13.07534583       0.00032089       0.00041728       0.00076353       0.05326793
H       -1.27329039      -2.27907602      -0.55318946     -11.40007974      -0.00125287       0.00063473       0.00041983       0.31871022
H        1.07535741       2.81223908      -0.81919676     -11.37635169       0.00035029       0.00003067      -0.00136095       0.30633751
H       -5.11885020       3.12102071       1.22951965     -11.56666312      -0.00063481      -0.00015646      -0.00052318       0.29268585
O        2.35149631      -1.82603564      -2.56227016    -112.60300413      -0.00049981       0.00042373      -0.00027553      -0.37696318
O        1.02358087      -3.05434347      -1.24876884    -112.22805645      -0.00080472      -0.00021950       0.00007895      -0.40940029
O        5.01567133      -2.44939541      -0.68931615    -112.37865450      -0.00008374      -0.00066763      -0.00126045      -0.43556625
N        0.85692180      -0.73914503       0.46084915     -80.98565082       0.00038949       0.00025897       0.00041272      -0.29147909
N        5.00970467      -0.27829279      -0.08036456     -80.95142139       0.00039817      -0.00022719      -0.00094134      -0.28257619
C        2.02746029      -1.04689164      -0.34488185     -58.90319774       0.00010939       0.00002157       0.00001745       0.03125896
C        3.12878918      -1.61947558       0.56319675     -59.29317814       0.00020911      -0.00029907      -0.00032386      -0.10265165
C        1.72681352      -2.09412794      -1.41474779     -58.89716007       0.00003047       0.00076035      -0.00011902       0.35842634
C        4.48240108      -1.51502077      -0.13336313     -59.22967967       0.00013190      -0.00038068      -0.00085805       0.28482678
H        2.38199509      -0.13711320      -0.83684491     -12.93864604       0.00017845       0.00003238       0.00002882       0.06975114
H        3.14222907      -1.05482511       1.49427918     -12.97800685       0.00052894      -0.00033563      -0.00012894       0.07123260
H        2.91438183      -2.66611779       0.78225311     -13.05308628       0.00002506      -0.00045119      -0.00037551       0.07215246
H        0.51453295      -1.61499178       0.85493456     -12.22113145       0.00029958       0.00025381       0.00037776       0.18661510
H        0.34846816       0.09308075      -2.08562647     -11.36343317      -0.00018932      -0.00036873       0.00024712       0.31637923
H        4.53025552       0.49215982       0.37150290     -12.00398129       0.00064235       0.00001353      -0.00058981       0.22107155
H        5.88910953      -0.10737092      -0.53804347     -12.28939097       0.00041437      -0.00026838      -0.00126854       0.18806819
H        2.23509162      -2.55197746      -3.19575625     -10.99196382      -0.00060609       0.00053311      -0.00037467       0.33555875
O        3.23911200       1.68825092       1.12635047    -114.78582931       0.00088739       0.00035722       0.00035259      -0.59400785
H        2.51458947       1.65080105       0.48336344     -11.57681236       0.00064901       0.00030552      -0.00027228       0.31226572
H        2.86897898       1.39725428       1.96214755     -11.83342925       0.00010703      -0.00097661       0.00128950       0.28481235
44
Properties=species:S:1:pos:R:3:energies:R:1:forces:R:3:charge:R:1 reactant=T mapped=T (centered)=T energy=-2153.7325501312557 free_energy=-2153.7325501312557 dipole="-0.018851719188371897 1.0057287291598447 0.18193085419895422" pbc="F F F"
O       -2.77427422       0.43603665      -1.36626228    -113.27582378       0.00008363      -0.00034602       0.00025606      -0.46668442
O       -3.18211873       0.91371809       2.17670449    -113.21005589      -0.00086184      -0.00046531       0.00014022      -0.45686013
O       -1.34455340      -1.88238546       0.62832502    -112.97081574       0.00031052       0.00026174       0.00074617      -0.44272669
O       -5.47946156       2.21869596       1.32907106    -113.04546815      -0.00006890       0.00038322      -0.00118697      -0.43836512
O       -0.22525597      -0.36876886      -1.59175344    -113.32893891       0.00010598       0.00012603       0.00025937      -0.46462490
O        1.05345292       2.02318333      -0.92376957    -113.28425216       0.00011108       0.00014311       0.00012890      -0.45788388
C       -2.77771557      -0.02270641      -0.03711583     -59.11308427       0.00017114      -0.00014429       0.00031251       0.08886101
C       -3.38634663       1.11892293       0.80106951     -59.09810499      -0.00003389      -0.00013774       0.00009528       0.09432810
C       -1.40595144      -0.48308357       0.52359327     -59.19199644       0.00023691       0.00018453       0.00040428       0.07804845
C       -4.88694571       1.24162867       0.50444736     -59.24545836       0.00020293       0.00026026      -0.00080926       0.06070961
C       -0.16034264       0.03521836      -0.23429211     -58.82371353       0.00019347       0.00010925       0.00025071       0.18131293
C       -0.06801663       1.57520605      -0.20564977     -59.30775600       0.00021813       0.00011693       0.00023157       0.05115726
H       -3.43357072      -0.90416662       0.05635788     -13.00240662       0.00032917      -0.00023806       0.00046767       0.04576967
H       -2.89024066       2.05806486       0.50073392     -13.19250993       0.00033470      -0.00020371       0.00055329       0.02580400
H       -1.34927761      -0.11943395       1.55559196     -12.82206412       0.00022873       0.00044089       0.00027472       0.07325062
H       -5.03696356       1.45205416      -0.55885845     -13.17553835       0.00092769       0.00032634      -0.00087885       0.04420115
H       -5.38400591       0.30245967       0.75929739     -13.00115254      -0.00017499       0.00038455      -0.00115754       0.06161542
H       -2.15134488      -0.10833460      -1.87070088     -11.34807698       0.00004489      -0.00040355       0.00034300       0.32197150
H       -3.98541695       1.21620433       2.62589232     -11.29240687      -0.00097505      -0.00026829      -0.00027029       0.31953895
H       -0.06710940       1.92818555       0.82958608     -13.28669211       0.00029768       0.00012926       0.00022925       0.03157675
H       -0.94587793       1.97314721      -0.72076414     -12.95386672       0.00018054       0.00011480       0.00029463       0.06762394
H       -1.06886330      -2.27372842      -0.21593032     -11.39707192       0.00042516      -0.00014447       0.00124904       0.32201636
H        1.83111740       1.97603811      -0.34236394     -11.28504313       0.00076629      -0.00055119       0.00070111       0.32380606
H       -5.15078726       3.08744692       1.07126137     -11.57707515       0.00023244       0.00030560      -0.00100887       0.29304355
O        2.04737770      -1.94475561      -2.64996551    -112.55313597      -0.00100310      -0.00073368       0.00001758      -0.37001145
O        0.75220366      -2.97523108      -1.14878542    -112.37430864      -0.00147418      -0.00083456       0.00087832      -0.42065567
O        5.20225597      -2.26145117      -0.82772196    -112.30287454       0.00052752       0.00099150      -0.00117451      -0.42346367
N        1.01135518      -0.55519291       0.44130008     -81.25709544       0.00031597       0.00011572       0.00008177      -0.30935045
N        4.92131505      -0.13517602      -0.13165153     -80.95045749      -0.00037879       0.00074568      -0.00028515      -0.27892708
C        2.05212995      -1.04966241      -0.45894794     -58.84248217      -0.00005532      -0.00022159      -0.00029355       0.03161439
C        3.17828771      -1.70362687       0.36480549     -59.31567250       0.00029025      -0.00011796      -0.00067816      -0.10449556
C        1.51766340      -2.09252297      -1.43911008     -58.87400293       0.00018038       0.00066633      -0.00012194       0.36403956
C        4.53951318      -1.42135795      -0.26580307     -59.18688147       0.00001338       0.00085169      -0.00059862       0.28550199
H        2.44628265      -0.21099989      -1.04184691     -12.91859008      -0.00021901      -0.00029054      -0.00056121       0.07028654
H        3.16794753      -1.29663081       1.37625456     -12.96467006       0.00027008      -0.00059917      -0.00045933       0.07129975
H        3.02648694      -2.78199126       0.42301951     -13.04105072       0.00073054      -0.00022440      -0.00112706       0.07361130
H        0.67433082      -1.35230312       0.98473066     -12.21477950       0.00039431       0.00023451       0.00032139       0.18823897
H        0.25634311       0.29997481      -2.10376089     -11.21887538      -0.00010186       0.00027541       0.00020866       0.32735104
H        4.34761436       0.54508594       0.34494269     -12.03310395      -0.00057679       0.00039325       0.00006111       0.21331329
H        5.79624116       0.15629111      -0.53338703     -12.23251418      -0.00051902       0.00128120      -0.00026275       0.19175382
H        1.75775852      -2.65471383      -3.24471889     -10.95251669      -0.00138535      -0.00072278       0.00017747       0.33671162
O        2.77057025       1.44401262       1.26301305    -114.98439666      -0.00032658      -0.00042035       0.00055110      -0.60385407
H        2.11287071       0.71885328       1.23899233     -11.47030263      -0.00023845      -0.00103511       0.00059156       0.31446225
H        2.69132252       1.87779515       2.11416894     -11.81546648       0.00026959      -0.00073904       0.00104732       0.28508326
44
Properties=species:S:1:pos:R:3:energies:R:1:forces:R:3:charge:R:1 product=T mapped+aligned=T onto=T reactant=T energy=-2153.638361830693 free_energy=-2153.638361830693 dipole="0.06581660251103648 0.9182343704940237 0.39133146235115657" pbc="F F F"
O       -2.99594631       0.31619634      -1.43934784    -113.16414325       0.02014907       0.01792447      -0.00130171      -0.45358855
O       -2.67809933       1.09309969       2.05613103    -113.28752420      -0.00062897      -0.01100210      -0.01884497      -0.46054959
O       -1.67633670      -2.04823825      -0.25009257    -112.99483815      -0.00779026      -0.00086676       0.02691222      -0.45625668
O       -5.05717166       2.52199861       1.61186441    -113.05008965       0.01892822      -0.00993691      -0.00172562      -0.43865272
O       -0.18068845      -0.42758750      -1.75637438    -113.13761425      -0.02613550      -0.00905098       0.00415871      -0.45420881
O        0.92923377       1.98836668      -0.86034354    -113.28571173       0.01123088      -0.03617428      -0.01140659      -0.46060313
C       -2.88178697      -0.04642170      -0.08749032     -59.13036242       0.01298159       0.00850399      -0.00569202       0.09540531
C       -3.21012825       1.19787350       0.75610614     -59.14146063       0.00229055       0.00421141      -0.01726672       0.09011434
C       -1.52936560      -0.72850195       0.21936345     -59.06200242       0.00079504       0.00654530       0.00759610       0.09008088
C       -4.73217299       1.40479394       0.81506992     -59.24012100       0.00268770      -0.00972066      -0.00880987       0.05947327
C       -0.25615458      -0.08786689      -0.39143687     -58.89877776      -0.00957352      -0.00331716       0.00151925       0.18237814
C       -0.23210054       1.44981065      -0.27828520     -59.30071563      -0.00168296      -0.00391897      -0.00622731       0.05047536
H       -3.62562565      -0.82482859       0.15443039     -12.95313321       0.02195753       0.00285782      -0.00264085       0.04781585
H       -2.77878168       2.07914956       0.25637073     -13.11774052      -0.00230309       0.01963216       0.00688655       0.03224979
H       -1.41491265      -0.72421890       1.31527921     -13.07162610       0.01906488       0.02200163       0.00192870       0.04201935
H       -5.11612834       1.50112020      -0.20491334     -13.18783473      -0.03727653      -0.01223361       0.00434559       0.04269722
H       -5.20757245       0.55014161       1.30182040     -13.00051875       0.03113426      -0.01557918       0.00643559       0.06208558
H       -2.64967479      -0.42781342      -1.95132508     -11.30469458       0.01542829       0.03041677      -0.01786719       0.32429029
H       -3.26838954       1.59944274       2.63504404     -11.28699560      -0.01091528      -0.02617934      -0.02225677       0.31868908
H       -0.35295432       1.74108071       0.76882336     -13.24800750       0.00798848       0.02276298      -0.01198049       0.03674871
H       -1.06516947       1.83537121      -0.86887333     -12.92480707       0.00288004      -0.00416530      -0.00995686       0.06934120
H       -0.83067595      -2.40794425      -0.57083936     -11.42787632      -0.01187968       0.01326214       0.02136202       0.32732428
H        1.65700031       1.94183453      -0.21830953     -11.32208030      -0.01521919       0.00914248       0.01768862       0.32167427
H       -4.82370822       3.32854857       1.13869693     -11.57297264       0.02580116      -0.01431871      -0.00260922       0.29325605
O        2.35635661      -2.08328835      -2.55790955    -112.44807374      -0.01128862       0.01757772      -0.00807244      -0.35812757
O        0.88315568      -3.01909551      -1.15925422    -112.46818944      -0.01326728      -0.03709397      -0.01209231      -0.42721347
O        5.21251830      -2.09930686      -0.71392776    -112.29402723       0.00630471      -0.00400693       0.00304061      -0.42150615
N        0.89716674      -0.64077561       0.36344745     -81.23676686      -0.00495282       0.00270798      -0.00353062      -0.31056496
N        4.88956549       0.02030247      -0.01321166     -80.92664841      -0.01360567       0.00010352      -0.00778887      -0.27520080
C        2.04033509      -1.02914927      -0.45840525     -58.82312245      -0.00394037      -0.00747452       0.00091857       0.03344888
C        3.16292500      -1.57094688       0.44914139     -59.30668123       0.00342580      -0.00334424       0.00088453      -0.10508897
C        1.66999796      -2.14515086      -1.42912316     -58.84572393       0.02480687       0.03727741      -0.01643846       0.36561172
C        4.52908220      -1.27105911      -0.16012199     -59.17955131       0.00920070      -0.00268682       0.00844275       0.28605807
H        2.39209580      -0.16542464      -1.02929204     -12.90815072      -0.00658292       0.00106645       0.01412131       0.07356608
H        3.10298847      -1.09134432       1.42556351     -12.92626056      -0.01000152      -0.01102069       0.00464489       0.07470370
H        3.04974257      -2.64784428       0.58088455     -13.07244415       0.02514105      -0.00522156      -0.01053272       0.06981338
H        0.59464648      -1.47815356       0.85791880     -12.36978048      -0.00599355       0.02183671       0.02214105       0.17050906
H        0.24565889       0.31152772      -2.21476955     -11.30176720      -0.01621709      -0.01232146       0.01396137       0.32172479
H        4.29045881       0.68883102       0.44597931     -12.04718657      -0.00763320      -0.00714314       0.00949316       0.21054308
H        5.76904092       0.32733353      -0.39309690     -12.20931022      -0.01163448       0.00865963      -0.01006088       0.19331058
H        2.17556788      -2.84675101      -3.12983980     -10.89476878      -0.03209378       0.00831669       0.01423169       0.34060828
O        2.51049762       1.41258907       1.41524533    -114.97219328       0.00422306      -0.00865068       0.00471090      -0.60411385
H        1.86266301       0.68966928       1.29919746     -11.47797766       0.00629316      -0.01273825       0.02049653       0.31432334
H        2.34284680       1.81263009       2.27020446     -11.81808920      -0.01209675       0.01335896      -0.00881822       0.28533531
