44
Properties=species:S:1:pos:R:3 reactant=T mapped=T (centered)=T pbc="F F F"
O       -3.15046700       1.11181500      -1.58010600
O       -3.25688800       0.58545900       1.95172900
O       -1.63187800      -1.17188700      -1.47165600
O       -5.18129200       2.53496500       1.81641400
O        0.07899400       0.77982700      -1.12734400
O        0.82671400       1.93743500       1.13066900
C       -3.11547000       0.33986700      -0.40509200
C       -3.43360600       1.28423000       0.73790200
C       -1.77658700      -0.41681900      -0.28893000
C       -4.86018200       1.80194000       0.64401300
C       -0.56653400       0.49598000      -0.14781700
C       -0.18183900       0.95744100       1.23196000
H       -3.88510200      -0.44311700      -0.43037200
H       -2.74838300       2.14450400       0.67969900
H       -1.81769100      -1.08310400       0.57493000
H       -4.99279900       2.39344900      -0.26265200
H       -5.54730100       0.95401600       0.61755500
H       -2.94584900       0.52428800      -2.31655100
H       -3.79527900       1.03847600       2.61446100
H       -1.06013900       1.31603200       1.77220200
H        0.17295100       0.04899500       1.73423400
H       -0.92625700      -0.74263800      -1.97984200
H        1.15867700       2.14313500       2.00871900
H       -4.84529900       3.43178200       1.73060000
O        3.49314500      -3.03648900      -1.89937700
O        2.66454000      -4.14726800      -0.14052900
O        5.15310800      -1.79347800       0.21856500
N        0.77533600      -2.08824200       0.23387800
N        4.69125200       0.22556400      -0.68943100
C        2.03756100      -1.84461200      -0.44838800
C        2.92660100      -0.98121000       0.46355700
C        2.75526800      -3.14353600      -0.78864400
C        4.37001900      -0.89090600      -0.00810500
H        1.84851700      -1.29960900      -1.37544200
H        2.46083300       0.00231800       0.54003200
H        2.95068900      -1.45171800       1.44826000
H        0.94030000      -2.78464500       0.95679500
H        0.55680351      -1.18815803      -0.19331329
H        4.02153000       0.96899100      -0.86343900
H        5.63302700       0.30209500      -1.03585400
H        4.03190900      -3.83801700      -1.97319300
O        2.59861800       2.20908900      -1.15174500
H        2.05752400       1.93435500      -1.89825500
H        1.96820200       2.18983700      -0.41471600
