44
Properties=species:S:1:pos:R:3:energies:R:1:forces:R:3:charge:R:1 reactant=T mapped=T (centered)=T charge=0 multiplicity=1 energy=-2152.4691848846196 free_energy=-2152.4691848846196 dipole="-1.0148166298780017 1.103405654908631 0.377738582733091" pbc="F F F"
O       -3.22568112       1.16951303      -1.61365112    -113.15156301      -0.00232638       0.00648034       0.00009308      -0.44508697
O       -3.20641185       0.78905911       1.96577096    -113.46295529      -0.00303447       0.01038535       0.00015845      -0.46711191
O       -1.74478442      -1.08012749      -1.49288585    -112.96489421      -0.00970163       0.00543569       0.00090447      -0.43388591
O       -5.26178621       2.59909318       1.83072017    -113.08806375      -0.00612365       0.00444751       0.00059946      -0.43562323
O        0.00501089       0.87966470      -1.14329544    -111.53380630      -0.00552611      -0.00681325       0.01399884      -0.33169068
O        0.82191461       1.91253732       1.16529773    -113.01868270       0.00222798      -0.00428092       0.00270146      -0.43055875
C       -3.19386953       0.43514564      -0.42636115     -58.96790611      -0.00377099       0.00667232      -0.00030795       0.10629585
C       -3.48236202       1.39867955       0.72480191     -59.07167185      -0.00511876       0.00736128      -0.00083473       0.09437053
C       -1.84576823      -0.33767454      -0.30334852     -59.07705076      -0.00419294       0.00525782       0.00078083       0.07582503
C       -4.94940732       1.84881638       0.68112403     -59.24427919      -0.00647062       0.00394170       0.00068539       0.06049359
C       -0.63959627       0.57800282      -0.16883727     -58.43875760       0.00679017       0.00586948      -0.01293187       0.21756306
C       -0.24920814       0.99855150       1.23396838     -59.23184154      -0.00469224       0.00470023       0.00019721       0.05102293
H       -3.96726904      -0.35020943      -0.44082021     -12.98963549      -0.00419479       0.00694534      -0.00095655       0.04468099
H       -2.83953782       2.28622689       0.59392019     -13.14441541      -0.00758851       0.00877383      -0.00297213       0.03201933
H       -1.91811231      -1.00396482       0.56508296     -12.95682960      -0.00473970       0.00671469       0.00226523       0.05846640
H       -5.13840083       2.40069393      -0.24377838     -13.13550184      -0.00954045       0.00250216       0.00061798       0.04848405
H       -5.59919328       0.97081688       0.71536945     -12.97534736      -0.00428296       0.00249734       0.00302452       0.06306956
H       -2.90623072       0.57660815      -2.31153528     -11.16052756       0.00489160       0.00852916       0.00166861       0.32741369
H       -3.91537709       1.05816129       2.57091130     -11.17115985      -0.00173954       0.01308099       0.00063049       0.32495740
H       -1.11596232       1.41279571       1.75557121     -12.81030799      -0.00430037       0.01416044      -0.00697767       0.07937985
H        0.04716914       0.09164728       1.78314023     -12.97805188      -0.01533875       0.00503195       0.00588482       0.05445373
H       -0.86509380      -0.93412803      -1.87099723     -11.23792047       0.00513712      -0.04116171       0.02531674       0.32352484
H        1.06699020       2.19024279       2.05368823     -11.39225628      -0.00676682       0.00503014       0.00235952       0.30564212
H       -4.82830560       3.45837432       1.77588961     -11.49756263      -0.00895916       0.00572155      -0.00129972       0.29620250
O        3.66484872      -3.13099399      -1.90470403    -112.45929459       0.01755845       0.00015207       0.00173173      -0.36633533
O        2.92744867      -4.14484251      -0.05576709    -112.04544064       0.00311337      -0.00675176      -0.00682401      -0.39671436
O        5.26986870      -1.75213120       0.14665296    -112.48171467       0.00842729       0.00552610      -0.00424749      -0.45220519
N        0.87057054      -2.28709627      -0.02864253     -81.40153352       0.00445340      -0.00282182      -0.00596123      -0.34972512
N        4.66630380       0.23981881      -0.71146374     -80.93494111      -0.00289893       0.00234911      -0.00247701      -0.28277848
C        2.17948761      -1.90746215      -0.52288770     -58.94192689       0.00624667      -0.00490978      -0.00487236       0.03404768
C        2.99937210      -1.04465036       0.46896306     -59.18870663       0.00515080      -0.00768709      -0.00231727      -0.10223839
C        2.96058413      -3.18891718      -0.78035718     -58.97919357       0.00832801      -0.00290681      -0.00494287       0.36653514
C        4.42984916      -0.89398670      -0.03462624     -59.28883775       0.00472827      -0.00023514      -0.00304997       0.28209026
H        2.06633658      -1.36168781      -1.46617620     -13.07058079       0.00911861      -0.00346461      -0.00455130       0.05523743
H        2.52522399      -0.06937207       0.57818674     -13.19362235       0.00194994      -0.01002971       0.00331631       0.05442531
H        3.02928211      -1.55923727       1.43214597     -13.15481929       0.00842085      -0.01219961      -0.00483692       0.06037335
H        0.97312541      -3.07059552       0.61036781     -12.52442363      -0.00054937      -0.02596833      -0.03729965       0.16671138
H        0.44133363      -1.52218378       0.47452911     -12.76145554       0.02484868      -0.01940443       0.03147808       0.13753646
H        3.96092727       0.95490260      -0.86837305     -11.99395993      -0.00690054      -0.00100476      -0.00010137       0.22725343
H        5.58707781       0.37727374      -1.09424369     -12.30800016      -0.00437792       0.00811249      -0.00346119       0.18732625
H        4.21729829      -3.92358286      -1.99856238     -10.94660787       0.02064996       0.00242388       0.00435743       0.34012053
O        2.59799021       2.15244407      -1.14075649    -114.65335823      -0.00290281      -0.00178221       0.00109485      -0.58895879
H        2.05226145       1.91400455      -1.89491406     -11.77485513      -0.00605839      -0.00374340       0.00381588       0.29583266
H        1.98535943       2.18020171      -0.39373649     -11.66492393       0.00005565      -0.00293759       0.00354190       0.31155778
