44
product mapped+aligned onto reactant
O -3.060443 0.123624 -1.439363
O -2.738013 1.136373 1.981708
O -1.641963 -2.083215 -0.145712
O -5.079299 2.529869 1.435688
O -0.202273 -0.515579 -1.731726
O 0.879865 1.918354 -1.015718
C -2.882774 -0.117475 -0.060465
C -3.238732 1.179779 0.660990
C -1.520738 -0.733910 0.261476
C -4.746216 1.368636 0.689461
C -0.275741 -0.100914 -0.385257
C -0.277693 1.425987 -0.371340
H -3.590562 -0.884840 0.283168
H -2.805218 2.028268 0.119343
H -1.389846 -0.667138 1.347366
H -5.142188 1.404529 -0.327867
H -5.202049 0.529456 1.217791
H -2.651319 -0.609422 -1.916975
H -3.255231 1.772336 2.492518
H -0.375392 1.795489 0.653619
H -1.128045 1.761132 -0.962034
H -0.790568 -2.457654 -0.420296
H 1.581279 2.019707 -0.355699
H -4.932270 3.306473 0.887992
O 2.422687 -2.214771 -2.408503
O 0.984903 -3.110381 -0.951649
O 5.251783 -2.049203 -0.546387
N 0.897798 -0.607229 0.393722
N 4.912240 0.126194 -0.015980
C 2.052405 -1.030635 -0.388537
C 3.199187 -1.466599 0.553690
C 1.729127 -2.220731 -1.276164
C 4.562305 -1.183923 -0.056568
H 2.380276 -0.199920 -1.013089
H 3.106415 -0.915405 1.488801
H 3.134358 -2.531766 0.770374
H 0.607066 -1.393030 0.969613
H 0.276156 0.172109 -2.216476
H 4.319860 0.812606 0.428267
H 5.784534 0.402287 -0.433633
H 2.240591 -3.041242 -2.880687
O 2.458251 1.526176 1.292167
H 1.805103 0.787888 1.277099
H 2.340386 2.007708 2.115274
