44
Properties=species:S:1:pos:R:3 charge=0 multiplicity=1 source=products.log pbc="F F F"
O       -3.18453700       0.01463415      -1.30405572
O       -3.18894246       1.59030986       1.91317480
O       -2.02651568      -1.97835445       0.49670585
O       -5.38495771       2.93852741       0.87326196
O       -0.34649492      -0.75042744      -1.15112774
O        0.76929908       1.73692014      -0.73180730
C       -3.17091370       0.00896277       0.10691477
C       -3.53938184       1.42097536       0.55471317
C       -1.88429615      -0.58337254       0.68357364
C       -5.02979171       1.65687423       0.37578352
C       -0.54635956      -0.10846382       0.08913793
C       -0.47464903       1.39746544      -0.15305527
H       -3.94896951      -0.66640990       0.48953361
H       -3.00795510       2.15038352      -0.06721854
H       -1.86989079      -0.33486584       1.75071299
H       -5.30981017       1.52916589      -0.67222270
H       -5.58145979       0.93501052       0.98052629
H       -2.76219409      -0.80149622      -1.60139329
H       -3.72701064       2.31978286       2.24670328
H       -1.23771851       1.65133638      -0.88627843
H       -0.66561091       1.94041399       0.77719043
H       -1.16965912      -2.41969218       0.38950526
H        1.39840998       1.92921941      -0.02108954
H       -5.14082291       3.60467339       0.22414727
O        2.24990400      -2.61833106      -1.22421615
O        0.61899422      -3.20680073       0.18489632
O        4.86294080      -2.21973368       0.89989067
N        0.50852993      -0.50816815       1.07290582
N        4.57490803       0.02361922       1.01556347
C        1.71955232      -1.09405473       0.51211697
C        2.73347770      -1.39562506       1.64082192
C        1.43715160      -2.40882153      -0.19524095
C        4.16744325      -1.26292213       1.15446381
H        2.15429503      -0.39324199      -0.20028270
H        2.56618381      -0.68936341       2.45326424
H        2.59296643      -2.40526620       2.02372590
H        0.11819368      -1.17423067       1.73446336
H        1.38129691       0.99029287       1.80965593
H        3.97198758       0.79357090       1.26674637
H        5.50019512       0.19761575       0.66183065
H        2.08010647      -3.50785348      -1.56930954
O        2.06442362       1.70032993       1.77672811
H        1.88104493       2.31949304       2.48826195
H        0.21537914      -0.17091506      -1.68522040
