44
reactant mapped (centered)
O -3.150467 1.111815 -1.580106
O -3.256888 0.585459 1.951729
O -1.631878 -1.171887 -1.471656
O -5.181292 2.534965 1.816414
O 0.078994 0.779827 -1.127344
O 0.826714 1.937435 1.130669
C -3.115470 0.339867 -0.405092
C -3.433606 1.284230 0.737902
C -1.776587 -0.416819 -0.288930
C -4.860182 1.801940 0.644013
C -0.566534 0.495980 -0.147817
C -0.181839 0.957441 1.231960
H -3.885102 -0.443117 -0.430372
H -2.748383 2.144504 0.679699
H -1.817691 -1.083104 0.574930
H -4.992799 2.393449 -0.262652
H -5.547301 0.954016 0.617555
H -2.945849 0.524288 -2.316551
H -3.795279 1.038476 2.614461
H -1.060139 1.316032 1.772202
H 0.172951 0.048995 1.734234
H -0.926257 -0.742638 -1.979842
H 1.158677 2.143135 2.008719
H -4.845299 3.431782 1.730600
O 3.493145 -3.036489 -1.899377
O 2.664540 -4.147268 -0.140529
O 5.153108 -1.793478 0.218565
N 0.775336 -2.088242 0.233878
N 4.691252 0.225564 -0.689431
C 2.037561 -1.844612 -0.448388
C 2.926601 -0.981210 0.463557
C 2.755268 -3.143536 -0.788644
C 4.370019 -0.890906 -0.008105
H 1.848517 -1.299609 -1.375442
H 2.460833 0.002318 0.540032
H 2.950689 -1.451718 1.448260
H 0.940300 -2.784645 0.956795
H 0.103527 -2.498590 -0.408695
H 4.021530 0.968991 -0.863439
H 5.633027 0.302095 -1.035854
H 4.031909 -3.838017 -1.973193
O 2.598618 2.209089 -1.151745
H 2.057524 1.934355 -1.898255
H 1.968202 2.189837 -0.414716
