44
Properties=species:S:1:pos:R:3 charge=0 multiplicity=1 source=reactants.log pbc="F F F"
O       -2.58740161       0.40071154      -0.92852252
O       -2.69382223      -0.12564470       2.60331334
O       -1.06881208      -1.88299047      -0.82007205
O       -4.61822601       1.82386184       2.46799784
O        0.64205960       0.06872344      -0.47576044
O        1.38977920       1.22633169       1.78225312
C       -2.55240485      -0.37123634       0.24649170
C       -2.87054030       0.57312714       1.38948598
C       -1.21352135      -1.12792265       0.36265379
C       -4.29711629       1.09083686       1.29559656
C       -0.00346828      -0.21512346       0.50376653
C        0.38122711       0.24633802       1.88354391
H       -3.32203653      -1.15422005       0.22121139
H       -2.18531726       1.43340051       1.33128284
H       -1.25462525      -1.79420694       1.22651417
H       -4.42973366       1.68234557       0.38893217
H       -4.98423532       0.24291252       1.26913902
H       -2.38278385      -0.18681529      -1.66496721
H       -3.23221354       0.32737301       3.26604479
H       -0.49707356       0.60492821       2.42378548
H        0.73601627      -0.66210833       2.38581801
H       -0.36319122      -1.45374151      -1.32825793
H        1.72174294       1.43203180       2.66030292
H       -4.28223318       2.72067918       2.38218419
O        4.05621075      -3.74759247      -1.24779336
O        3.22760528      -4.85837092       0.51105534
O        5.71617389      -2.50458112       0.87014905
N        1.33840204      -2.79934528       0.88546210
N        5.25431765      -0.48553880      -0.03784692
C        2.60062636      -2.55571515       0.20319622
C        3.48966677      -1.69231375       1.11514094
C        3.31833410      -3.85463932      -0.13706054
C        4.93308489      -1.60200924       0.64347921
H        2.41158295      -2.01071221      -0.72385842
H        3.02389819      -0.70878522       1.19161561
H        3.51375456      -2.16282131       2.09984383
H        1.50336578      -3.49574879       1.60837931
H        0.66659290      -3.20969334       0.24288888
H        4.58459548       0.25788731      -0.21185483
H        6.19609312      -0.40900825      -0.38427051
H        4.59497431      -4.54912074      -1.32160934
O        3.16168343       1.49798608      -0.50016067
H        2.62058979       1.22325208      -1.24667152
H        2.53126758       1.47873383       0.23686735
