44
Properties=species:S:1:pos:R:3 reactant=T mapped=T (centered)=T pbc="F F F"
O       -3.15702859       1.10661916      -1.59427967
O       -3.20103013       0.66318221       1.97946815
O       -1.62376780      -1.18262018      -1.45997235
O       -5.21166247       2.54984969       1.80180513
O        0.05382674       0.78919492      -1.16432190
O        0.82994771       1.92876721       1.14557380
C       -3.12327475       0.35186438      -0.41456547
C       -3.42258227       1.30417384       0.74516185
C       -1.77346121      -0.41884746      -0.28597009
C       -4.87461496       1.80090525       0.65732456
C       -0.56343350       0.49771651      -0.16750535
C       -0.17005261       0.93252967       1.21827608
H       -3.89993860      -0.42960493      -0.44399169
H       -2.75328699       2.17623680       0.65138573
H       -1.83955621      -1.08043490       0.58064406
H       -5.00495619       2.37016679      -0.26678478
H       -5.55493074       0.94583275       0.65362529
H       -2.91601225       0.51287280      -2.31941305
H       -3.86818503       1.00573494       2.59479942
H       -1.04848196       1.27923344       1.77002166
H        0.20331954       0.02606209       1.71449149
H       -0.92878771      -0.73814188      -1.97787904
H        1.14369394       2.12881827       2.03320079
H       -4.80700198       3.42241686       1.74484022
O        3.51878897      -3.03261260      -1.86526638
O        2.64908439      -4.14089859      -0.12728915
O        5.16612338      -1.79727743       0.16795818
N        0.77388171      -2.08048838       0.22856825
N        4.65836906       0.22142760      -0.68858358
C        2.03976634      -1.83042151      -0.44473234
C        2.92785967      -0.97889833       0.48372098
C        2.77178429      -3.13213633      -0.76845710
C        4.36397188      -0.90523822      -0.02227923
H        1.86044514      -1.28889601      -1.37822656
H        2.50151003       0.01856482       0.56006678
H        2.93536075      -1.45527206       1.46571870
H        0.94139794      -2.76841996       0.96024637
H        0.11043630      -2.49962924      -0.41666690
H        3.97876597       0.95725162      -0.86208172
H        5.59338840       0.32765747      -1.04531265
H        4.04346361      -3.83805282      -2.00080883
O        2.61214140       2.16529408      -1.14221681
H        2.07316524       1.92369170      -1.90001237
H        1.99155354       2.19182595      -0.40028149
