44
Properties=species:S:1:pos:R:3 product=T mapped+aligned=T onto=T reactant=T pbc="F F F"
O       -2.99928350       0.15268938      -1.45889703
O       -2.70268294       1.18351058       1.97219810
O       -1.63483773      -2.09392822      -0.10344669
O       -5.10898531       2.52923982       1.42645842
O       -0.16926801      -0.55549003      -1.72136844
O        0.89089364       1.93997827      -1.00003052
C       -2.88014556      -0.11007565      -0.08455951
C       -3.23456155       1.18450226       0.66789706
C       -1.51492446      -0.74135609       0.27053569
C       -4.76051672       1.36467908       0.71160193
C       -0.25371408      -0.12070247      -0.38421166
C       -0.26044639       1.42130267      -0.38122229
H       -3.60874366      -0.88390555       0.21220808
H       -2.82001792       2.03626143       0.10655695
H       -1.40237429      -0.65650907       1.36336808
H       -5.14464180       1.38020842      -0.31273838
H       -5.21961295       0.53766320       1.25807852
H       -2.63743846      -0.61893286      -1.91632732
H       -3.30387863       1.71803109       2.51332437
H       -0.38878651       1.78416175       0.64237057
H       -1.10005385       1.74697894      -0.99802810
H       -0.78166293      -2.45867439      -0.39749093
H        1.61838956       1.95396945      -0.35615865
H       -4.89084199       3.30442623       0.89691614
O        2.40152867      -2.21324118      -2.40200576
O        0.94495124      -3.07596296      -0.94036761
O        5.25441995      -2.04046382      -0.56098856
N        0.90914271      -0.59513529       0.40849638
N        4.88820862       0.11691727      -0.01359345
C        2.06115689      -1.01832912      -0.38326127
C        3.19281730      -1.47138897       0.56091835
C        1.71468916      -2.20799656      -1.27182973
C        4.55373289      -1.18857857      -0.06792746
H        2.39659627      -0.19074484      -1.01433354
H        3.12175065      -0.92454982       1.50056064
H        3.10086946      -2.53816770       0.76925284
H        0.62253487      -1.40092148       0.96147632
H        0.24303837       0.15735342      -2.23131664
H        4.27516716       0.80444769       0.39652565
H        5.76202166       0.41352171      -0.41426097
H        2.23690376      -3.01906787      -2.91795732
O        2.47957228       1.55992017       1.31121934
H        1.84644129       0.81776830       1.24698881
H        2.30259484       2.01658940       2.13537159
44
Properties=species:S:1:pos:R:3 product=T mapped+aligned=T onto=T reactant=T pbc="F F F"
O       -2.96849220       0.14156126      -1.42823220
O       -2.69617794       1.25495797       1.97125508
O       -1.65537044      -2.07478559       0.05025111
O       -5.11741267       2.54289651       1.40101389
O       -0.29946947      -0.73254582      -1.79579859
O        0.93703688       1.94311989      -0.97714712
C       -2.86606355      -0.09401709      -0.04962691
C       -3.22867532       1.21302949       0.66837749
C       -1.50889795      -0.69991334       0.34639329
C       -4.75504468       1.36872067       0.71065469
C       -0.25725629      -0.09340159      -0.32809304
C       -0.23262390       1.43309616      -0.39071247
H       -3.58848625      -0.86948452       0.25770833
H       -2.82208607       2.05145626       0.08198656
H       -1.39659165      -0.55412235       1.43268011
H       -5.14101453       1.35662025      -0.31305187
H       -5.20149260       0.54822932       1.27720517
H       -2.62633645      -0.64943751      -1.86991367
H       -3.31254760       1.78287350       2.50078654
H       -0.40641797       1.82431747       0.61505330
H       -1.05293058       1.73120386      -1.04618264
H       -0.85855251      -2.48752648      -0.32416350
H        1.63956028       1.96286517      -0.30612596
H       -4.90183754       3.30833856       0.85632784
O        2.49474876      -2.15372351      -2.43850238
O        0.97326438      -3.05076138      -1.07859403
O        5.26929423      -2.02162957      -0.55649479
N        0.92558623      -0.58069451       0.35233456
N        4.87531749       0.12477292       0.02139189
C        2.08402093      -1.00592328      -0.42153924
C        3.19225407      -1.48496874       0.53741423
C        1.76243603      -2.17621530      -1.33887943
C        4.55566982      -1.18188361      -0.06297492
H        2.41057369      -0.15252261      -1.01880992
H        3.10176856      -0.96235173       1.48961477
H        3.10448748      -2.55803368       0.71679219
H        0.59378913      -1.59898933       0.84939516
H        0.06365391      -0.06296024      -2.39277372
H        4.25315524       0.80077424       0.43626799
H        5.75383919       0.43233108      -0.35931757
H        2.33961362      -2.94598299      -2.97804686
O        2.45996901       1.54786548       1.37627718
H        1.82746618       0.80649226       1.33322257
H        2.27627505       2.01635044       2.19257890
44
Properties=species:S:1:pos:R:3 product=T mapped+aligned=T onto=T reactant=T pbc="F F F"
O       -2.93842496       0.13460771      -1.39492966
O       -2.69001874       1.32593365       1.96805415
O       -1.69079260      -2.04848022       0.21915270
O       -5.12608936       2.55577396       1.37356136
O       -0.42731819      -0.91438421      -1.85025624
O        0.98471381       1.94750820      -0.95231509
C       -2.84768237      -0.07790612      -0.01323159
C       -3.22201976       1.24120247       0.66775626
C       -1.49217895      -0.65706381       0.42168308
C       -4.74931048       1.37262319       0.70822806
C       -0.25037489      -0.06767297      -0.28123986
C       -0.20309740       1.44409966      -0.40197170
H       -3.56892327      -0.85149666       0.30284669
H       -2.82324468       2.06529191       0.05631074
H       -1.37415436      -0.45556949       1.49767992
H       -5.13682517       1.33287350      -0.31425616
H       -5.18341634       0.55925561       1.29450925
H       -2.62647651      -0.67861761      -1.82008059
H       -3.32167113       1.84673587       2.48594319
H       -0.42416081       1.86390469       0.58262454
H       -1.00031956       1.70939497      -1.09793331
H       -1.00576315      -2.54995389      -0.25490616
H        1.66044401       1.97303497      -0.25411789
H       -4.91307615       3.31136438       0.81419605
O        2.58937147      -2.09028322      -2.47413336
O        1.00321981      -3.02208589      -1.22115726
O        5.28463157      -2.00206613      -0.55014658
N        0.94460143      -0.55770310       0.31153229
N        4.86252417       0.13283513       0.05841667
C        2.11110893      -0.98548603      -0.46012694
C        3.19457171      -1.49713505       0.51544885
C        1.81273626      -2.14140601      -1.40903963
C        4.55865377      -1.17423406      -0.05645640
H        2.42438039      -0.10900285      -1.02515083
H        3.08269899      -0.99944715       1.47945032
H        3.11331124      -2.57646663       0.66506381
H        0.59438596      -1.78622312       0.68421416
H       -0.12383921      -0.29871305      -2.53164792
H        4.23121670       0.79704233       0.47796000
H        5.74540793       0.45126006      -0.30170815
H        2.44559183      -2.86900638      -3.03664609
O        2.43909242       1.53519905       1.44286253
H        1.80760620       0.79429069       1.42320240
H        2.24891143       2.01616968       2.25075636
44
Properties=species:S:1:pos:R:3 product=T mapped+aligned=T onto=T reactant=T pbc="F F F"
O       -2.90731185       0.13223743      -1.36151232
O       -2.68529686       1.39286187       1.96300241
O       -1.71969936      -2.00877726       0.41617629
O       -5.13454070       2.56738430       1.34539320
O       -0.54918194      -1.09677590      -1.88703506
O        1.03082457       1.95208440      -0.92598468
C       -2.82623015      -0.06251527       0.02194667
C       -3.21548742       1.26752873       0.66585696
C       -1.47044835      -0.61107798       0.49397730
C       -4.74377484       1.37640614       0.70401174
C       -0.23658665      -0.03700412      -0.23376517
C       -0.17396909       1.45546593      -0.41291142
H       -3.55075960      -0.83158313       0.34339993
H       -2.82400186       2.07749679       0.03121454
H       -1.34834406      -0.36102633       1.55819639
H       -5.13221938       1.31063209      -0.31687377
H       -5.16668755       0.57025298       1.30840249
H       -2.63156839      -0.70441100      -1.76732898
H       -3.33139475       1.90635309       2.46979175
H       -0.44124762       1.90156137       0.54826654
H       -0.94537803       1.68252141      -1.14940940
H       -1.18693286      -2.62678806      -0.11103123
H        1.67964751       1.98230983      -0.20258081
H       -4.92378493       3.31364395       0.77271137
O        2.68742034      -2.02505380      -2.51522047
O        1.05633801      -3.00730696      -1.38527760
O        5.29929124      -1.98318079      -0.54141709
N        0.95985144      -0.54692126       0.29906700
N        4.85040511       0.14013257       0.09619491
C        2.14669139      -0.95624196      -0.49273973
C        3.19553120      -1.50844862       0.49834623
C        1.87513366      -2.10456888      -1.48983076
C        4.56156614      -1.16687670      -0.04718807
H        2.43846436      -0.06042781      -1.03039690
H        3.05821614      -1.03587160       1.47130009
H        3.11894127      -2.59205177       0.61983622
H        0.56629880      -1.94557239       0.37909328
H       -0.30378678      -0.54102044      -2.64106107
H        4.21028080       0.79291324       0.51991334
H        5.73708257       0.46878457      -0.24404343
H        2.55099276      -2.79333906      -3.09504420
O        2.41682670       1.52106179       1.50735835
H        1.78719931       0.78013429       1.51070272
H        2.22163168       2.01507232       2.30649441
44
Properties=species:S:1:pos:R:3 product=T mapped+aligned=T onto=T reactant=T pbc="F F F"
O       -2.87704835       0.13298252      -1.33315266
O       -2.68287574       1.44846134       1.95773531
O       -1.71975599      -1.95717593       0.61362601
O       -5.14178227       2.57627646       1.32076387
O       -0.65970119      -1.25885115      -1.91940923
O        1.07012885       1.95398151      -0.90146420
C       -2.80658023      -0.05000027       0.05107002
C       -3.21050233       1.28897972       0.66353184
C       -1.45173082      -0.56526373       0.55766855
C       -4.73927741       1.37930404       0.69921243
C       -0.21932325       0.00287854      -0.17363445
C       -0.14838790       1.46655528      -0.42127997
H       -3.53330066      -0.81643698       0.37440097
H       -2.82515837       2.08724372       0.01038747
H       -1.32987600      -0.27566161       1.61057607
H       -5.12799274       1.29212276      -0.32006218
H       -5.15304589       0.57924410       1.31798849
H       -2.63263671      -0.72356194      -1.71902078
H       -3.34095011       1.95514635       2.45528954
H       -0.45606294       1.93362784       0.51769212
H       -0.89526593       1.65639617      -1.19211565
H       -1.30134427      -2.68534288       0.13305893
H        1.69501011       1.98617359      -0.15756772
H       -4.93276922       3.31490289       0.73756534
O        2.78337995      -1.96594920      -2.55980862
O        1.14365322      -3.01970171      -1.56030167
O        5.31004506      -1.96697653      -0.53150517
N        0.95869767      -0.57641809       0.31333553
N        4.83908792       0.14510480       0.12933983
C        2.17231391      -0.93442110      -0.50328232
C        3.18758192      -1.52039909       0.48600880
C        1.95749039      -2.07662327      -1.56767801
C        4.56057433      -1.16186340      -0.03633785
H        2.44641599      -0.02536038      -1.02367945
H        3.03046410      -1.06906133       1.46442002
H        3.10540502      -2.60429488       0.58308720
H        0.45579590      -2.01134942      -0.05852424
H       -0.45519481      -0.75682656      -2.72337714
H        4.19128737       0.78810536       0.55607990
H        5.72873978       0.48261779      -0.19383204
H        2.64689580      -2.72798110      -3.15023666
O        2.39390929       1.50450917       1.56119230
H        1.76667854       0.76371523       1.58034221
H        2.19701004       2.01118940       2.35189928
44
Properties=species:S:1:pos:R:3 product=T mapped+aligned=T onto=T reactant=T pbc="F F F"
O       -2.85014889       0.13726465      -1.31068370
O       -2.68188641       1.49130488       1.95330710
O       -1.68731097      -1.90601659       0.76015440
O       -5.14752417       2.58222719       1.30133678
O       -0.77735119      -1.38589459      -1.97548179
O        1.10130688       1.95317392      -0.87933723
C       -2.78945654      -0.04088320       0.07426312
C       -3.20673386       1.30501757       0.66167016
C       -1.43420575      -0.52684400       0.60929186
C       -4.73558995       1.38099085       0.69493130
C       -0.19565433       0.03284750      -0.10478354
C       -0.12711384       1.47040601      -0.42582113
H       -3.51413069      -0.80904386       0.39730341
H       -2.82642282       2.09470062      -0.00504687
H       -1.31751983      -0.20389496       1.65175626
H       -5.12428144       1.27753771      -0.32290269
H       -5.14204191       0.58536092       1.32414509
H       -2.62969169      -0.73323338      -1.68135995
H       -3.34951954       1.99202042       2.44359190
H       -0.46829354       1.95697253       0.49209792
H       -0.85174132       1.63317004      -1.22321151
H       -1.24465368      -2.68038075       0.40204963
H        1.70678619       1.98544215      -0.12021503
H       -4.93979299       3.31519995       0.71052468
O        2.85577926      -1.91824248      -2.58552606
O        1.23287136      -3.03203244      -1.67544713
O        5.31663926      -1.95355626      -0.52264956
N        0.93768427      -0.65373259       0.31022492
N        4.82801251       0.14773532       0.15611842
C        2.16155280      -0.93571569      -0.50056480
C        3.17434516      -1.53061085       0.47288131
C        2.03060257      -2.05698992      -1.60491835
C        4.55572885      -1.15865259      -0.02731021
H        2.44511796      -0.01498715      -1.00390507
H        3.00647827      -1.09666805       1.45639043
H        3.08815268      -2.61413035       0.55079251
H        0.26844056      -2.00020505      -0.51410686
H       -0.57963708      -0.92722310      -2.80243969
H        4.17355415       0.78231829       0.58490411
H        5.72018404       0.49261615      -0.15232018
H        2.72467452      -2.67085775      -3.19068246
O        2.37099611       1.48545053       1.60393667
H        1.74619622       0.74424510       1.62990818
H        2.17560079       2.00379131       2.38713565
44
Properties=species:S:1:pos:R:3 product=T mapped+aligned=T onto=T reactant=T pbc="F F F"
O       -2.81281372       0.14784279      -1.28140309
O       -2.67941721       1.54579753       1.94647286
O       -1.62686192      -1.85443698       0.89101834
O       -5.15411644       2.58963377       1.27646952
O       -0.95501111      -1.54109342      -2.05436292
O        1.13760915       1.94833508      -0.84741015
C       -2.76356675      -0.02934763       0.10489384
C       -3.19985863       1.32473119       0.65909455
C       -1.40238853      -0.48594970       0.66165262
C       -4.72929857       1.38327051       0.68975971
C       -0.16291465       0.02220388      -0.06162178
C       -0.10020987       1.45404406      -0.42868698
H       -3.48452670      -0.80059807       0.42855942
H       -2.82549660       2.10335103      -0.02447255
H       -1.29988911      -0.11601788       1.69070204
H       -5.11794490       1.25907371      -0.32579361
H       -5.12651948       0.59344887       1.33204530
H       -2.62059193      -0.73608318      -1.63415112
H       -3.35901083       2.03872029       2.42791625
H       -0.47996590       1.97508157       0.45522084
H       -0.79330459       1.59652736      -1.25820078
H       -1.05834328      -2.58057775       0.61853843
H        1.71938969       1.98201560      -0.07048996
H       -4.94809159       3.31554202       0.67634489
O        2.91844283      -1.85777555      -2.59089525
O        1.29931846      -2.99158146      -1.77649161
O        5.32351662      -1.93605749      -0.51250353
N        0.90353196      -0.75236022       0.26258251
N        4.81233122       0.14961392       0.19133419
C        2.12931314      -0.94443202      -0.51271520
C        3.15697669      -1.54090228       0.44995773
C        2.05427785      -2.00339802      -1.63871235
C        4.54774904      -1.15462465      -0.01761804
H        2.43402041      -0.00716109      -0.98133518
H        2.97648600      -1.13177522       1.44176715
H        3.07637485      -2.62612711       0.50505937
H        0.08330144      -2.04509967      -0.87105267
H       -0.74978927      -1.14667770      -2.90556470
H        4.14911793       0.77243346       0.62329518
H        5.70777435       0.50410984      -0.09646238
H        2.81238383      -2.58795405      -3.22735362
O        2.34105011       1.45824424       1.66014468
H        1.71954757       0.71529970       1.69042771
H        2.14742044       1.99070871       2.43404239
44
Properties=species:S:1:pos:R:3 product=T mapped+aligned=T onto=T reactant=T pbc="F F F"
O       -2.76661080       0.15461796      -1.25071978
O       -2.67577078       1.60465942       1.93804812
O       -1.55089094      -1.80636285       1.00740664
O       -5.16030783       2.59751005       1.24948435
O       -1.12547199      -1.70913072      -2.09948975
O        1.17601165       1.94269168      -0.81167999
C       -2.73235106      -0.01806341       0.13804377
C       -3.19077600       1.34453821       0.65623230
C       -1.36849163      -0.45182135       0.71393997
C       -4.72098292       1.38567943       0.68474112
C       -0.13583880      -0.00062063      -0.04041114
C       -0.07152799       1.43464519      -0.43093314
H       -3.44790434      -0.79222971       0.46468795
H       -2.82376941       2.11122398      -0.04543994
H       -1.28158192      -0.02827613       1.72474566
H       -5.10951842       1.23837872      -0.32776954
H       -5.10802850       0.60271933       1.34146336
H       -2.58392482      -0.73739756      -1.58499835
H       -3.36780439       2.08958871       2.41000272
H       -0.49101270       1.99166742       0.41297245
H       -0.72884965       1.55477902      -1.29403763
H       -0.89443991      -2.44211434       0.71977992
H        1.73205408       1.97913078      -0.01643932
H       -4.95649828       3.31564732       0.63928691
O        2.97229332      -1.79439030      -2.58938070
O        1.32646775      -2.90891363      -1.88355706
O        5.33057915      -1.91711236      -0.50282785
N        0.87462085      -0.82734204       0.20369410
N        4.79546916       0.15120637       0.22934256
C        2.10559323      -0.94583928      -0.53363410
C        3.14113635      -1.55143545       0.42399724
C        2.04654648      -1.93177915      -1.68553437
C        4.53987105      -1.15006714      -0.00840889
H        2.42337276       0.00717975      -0.96439639
H        2.94599533      -1.16955956       1.42422270
H        3.06762600      -2.63838015       0.45267733
H       -0.07384703      -2.16144843      -1.11415375
H       -0.94696885      -1.39969321      -2.98819737
H        4.12312415       0.76118954       0.66499560
H        5.69391320       0.51601567      -0.03567529
H        2.89750394      -2.49673034      -3.25983741
O        2.31073008       1.43134676       1.72175853
H        1.69292603       0.68688974       1.75978430
H        2.11733640       1.97740067       2.48621617
44
Properties=species:S:1:pos:R:3 product=T mapped+aligned=T onto=T reactant=T pbc="F F F"
O       -2.71227306       0.14724585      -1.22030128
O       -2.67113094       1.66908397       1.92758250
O       -1.45875017      -1.76244262       1.11643424
O       -5.16605874       2.60585755       1.22011266
O       -1.28359857      -1.89357403      -2.10837311
O        1.21745973       1.93799993      -0.77326111
C       -2.69740284      -0.00628356       0.17161445
C       -3.17968594       1.36447999       0.65281775
C       -1.33442056      -0.41685178       0.77155700
C       -4.71068271       1.38812018       0.68015118
C       -0.10989469      -0.01137136      -0.01242781
C       -0.04125316       1.42173069      -0.43443704
H       -3.40686491      -0.78218889       0.50435746
H       -2.82194694       2.11735654      -0.06905935
H       -1.26187133       0.06076685       1.75940402
H       -5.09893998       1.21450747      -0.32827540
H       -5.08637919       0.61365018       1.35333388
H       -2.50959089      -0.74605078      -1.53733930
H       -3.37581235       2.14590900       2.38945771
H       -0.50211430       2.01123631       0.36548738
H       -0.65955010       1.51001281      -1.33100519
H       -0.79158192      -2.32591365       0.72055600
H        1.74528930       1.97740711       0.04086762
H       -4.96527204       3.31513895       0.59863440
O        3.02568974      -1.73026418      -2.58958170
O        1.30722111      -2.78967316      -1.99671853
O        5.33819655      -1.89619032      -0.49351193
N        0.85492472      -0.87562610       0.14598968
N        4.77750832       0.15309116       0.26910591
C        2.09352614      -0.94138201      -0.56000731
C        3.12709945      -1.56264890       0.39605884
C        2.03892626      -1.86255988      -1.74233305
C        4.53230506      -1.14454381       0.00040462
H        2.41721205       0.02735139      -0.95127568
H        2.91471011      -1.20948932       1.40379876
H        3.05943033      -2.65047843       0.39436872
H       -0.21995714      -2.29736746      -1.31135989
H       -1.17073609      -1.68041605      -3.03444146
H        4.09566623       0.74924374       0.70879019
H        5.67837745       0.52895057       0.02853427
H        2.98106332      -2.40229835      -3.29172993
O        2.27950446       1.40483280       1.78751691
H        1.66621932       0.65886395       1.83664081
H        2.08544089       1.96477564       2.54186412
44
Properties=species:S:1:pos:R:3 product=T mapped+aligned=T onto=T reactant=T pbc="F F F"
O       -2.65534188       0.11925721      -1.19325773
O       -2.66606543       1.73362698       1.91563744
O       -1.36560506      -1.72539371       1.20816783
O       -5.17079425       2.61389768       1.19096798
O       -1.42179241      -2.07284333      -2.09114781
O        1.25765916       1.93352521      -0.73591254
C       -2.66221719       0.00482718       0.20162018
C       -3.16758471       1.38264477       0.64902543
C       -1.30212528      -0.38303994       0.83196977
C       -4.69939496       1.39043890       0.67652039
C       -0.08207745      -0.01010709       0.02611514
C       -0.01194073       1.41342330      -0.43856953
H       -3.36648354      -0.77070779       0.54340691
H       -2.82019236       2.12037782      -0.09361482
H       -1.24172580       0.14692569       1.79267052
H       -5.08738245       1.18958904      -0.32692677
H       -5.06360717       0.62554632       1.36679171
H       -2.41622709      -0.77081861      -1.49890278
H       -3.38241295       2.20294993       2.36784164
H       -0.51229346       2.03006012       0.31652578
H       -0.59140261       1.46634224      -1.36459952
H       -0.75302092      -2.25100874       0.68635071
H        1.75771230       1.97595198       0.09547558
H       -4.97364865       3.31387680       0.55789381
O        3.07878654      -1.67061202      -2.59357931
O        1.26097545      -2.66667302      -2.10298500
O        5.34544453      -1.87485960      -0.48514699
N        0.83783073      -0.90899305       0.09344138
N        4.75960968       0.15518190       0.30633569
C        2.08695038      -0.93590327      -0.58858176
C        3.11432297      -1.57311132       0.36807556
C        2.04325655      -1.81124977      -1.80205542
C        4.52485022      -1.13849182       0.00799922
H        2.41357381       0.04751029      -0.94043042
H        2.88411874      -1.24764904       1.38172688
H        3.05156368      -2.66083238       0.33632797
H       -0.34747729      -2.38071883      -1.49894310
H       -1.39290561      -1.94739139      -3.03967800
H        4.06857402       0.73765053       0.74976580
H        5.66209481       0.54183502       0.08962026
H        3.06200282      -2.31198763      -3.32359104
O        2.24905875       1.38026611       1.85059529
H        1.64084994       0.63276959       1.91237565
H        2.05448615       1.95391577       2.59468001
44
Properties=species:S:1:pos:R:3 product=T mapped+aligned=T onto=T reactant=T pbc="F F F"
O       -2.59373966       0.07028000      -1.16783530
O       -2.66070173       1.79966058       1.90215967
O       -1.28631353      -1.68415147       1.30319267
O       -5.17469398       2.62184928       1.16162955
O       -1.53331930      -2.23313208      -2.06697622
O        1.29687479       1.92788219      -0.69864904
C       -2.62602066       0.01541221       0.22913843
C       -3.15428827       1.39986877       0.64512006
C       -1.26962193      -0.34689525       0.89571352
C       -4.68711976       1.39288496       0.67379292
C       -0.05225047      -0.00738316       0.06897560
C        0.01688205       1.40525430      -0.44275026
H       -3.32608932      -0.75786988       0.58288516
H       -2.81810770       2.12073909      -0.11897619
H       -1.22059253       0.23640847       1.82514542
H       -5.07493408       1.16369177      -0.32361553
H       -5.03953858       0.63869352       1.38181685
H       -2.32457031      -0.81876068      -1.46648329
H       -3.38806568       2.26173158       2.34496022
H       -0.52127584       2.04640674       0.26506864
H       -0.52296797       1.42184478      -1.39500411
H       -0.74425102      -2.19913317       0.69180591
H        1.76937070       1.97382026       0.14857698
H       -4.98178517       3.31195113       0.51655638
O        3.13234292      -1.61236212      -2.60024041
O        1.21467120      -2.55460945      -2.20804879
O        5.35212490      -1.85272588      -0.47749232
N        0.81523362      -0.94059269       0.04167774
N        4.74111410       0.15725856       0.34196844
C        2.07868244      -0.93138705      -0.61920454
C        3.10097205      -1.58290729       0.33874828
C        2.05261391      -1.77011108      -1.86575929
C        4.51663755      -1.13199306       0.01452286
H        2.40924805       0.06546016      -0.93040841
H        2.85300002      -1.28513703       1.35725432
H        3.04323225      -2.66967278       0.27728300
H       -0.47326408      -2.42219857      -1.73300794
H       -1.60870380      -2.19744267      -3.02148911
H        4.04090471       0.72578651       0.78892433
H        5.64455079       0.55469522       0.14920639
H        3.14582760      -2.22109733      -3.35672868
O        2.21840534       1.35650722       1.91249834
H        1.61575918       0.60746039       1.98804138
H        2.02376919       1.94401301       2.64600838
44
Properties=species:S:1:pos:R:3 product=T mapped+aligned=T onto=T reactant=T charge=0 multiplicity=1 pbc="F F F"
O       -2.53007247       0.00958365      -1.14223717
O       -2.65520420       1.86569503       1.88808361
O       -1.22693696      -1.63010728       1.41826437
O       -5.17784402       2.62953742       1.13291933
O       -1.59134428      -2.37130588      -2.06922529
O        1.33461734       1.92097282      -0.66169097
C       -2.58957562       0.02575113       0.25599127
C       -3.14031135       1.41687961       0.64213851
C       -1.23744936      -0.30674999       0.96136589
C       -4.67440943       1.39554339       0.67211888
C       -0.02181246      -0.00611578       0.11237438
C        0.04473130       1.39680549      -0.44669549
H       -3.28605235      -0.74452424       0.62272086
H       -2.81568344       2.11989398      -0.14325489
H       -1.19903347       0.32825389       1.85710257
H       -5.06218236       1.13780085      -0.31832712
H       -5.01482945       0.65266673       1.39784704
H       -2.24898588      -0.88567848      -1.43727615
H       -3.39298856       2.32077803       2.32167230
H       -0.52874776       2.05943721       0.21279288
H       -0.45516518       1.37723689      -1.42176525
H       -0.74102484      -2.15528305       0.76478485
H        1.78027261       1.97099576       0.19979477
H       -4.98960587       3.30949934       0.47585945
O        3.18443643      -1.55534897      -2.60903410
O        1.17156042      -2.45574711      -2.31522255
O        5.35805775      -1.83021537      -0.47076032
N        0.78828760      -0.96851685      -0.00528952
N        4.72232674       0.15911418       0.37592258
C        2.06828669      -0.92765243      -0.65154560
C        3.08731406      -1.59203795       0.30844774
C        2.06111720      -1.73444152      -1.93365660
C        4.50779779      -1.12526162       0.01988815
H        2.40382422       0.08124668      -0.92153235
H        2.82213836      -1.32184088       1.33092138
H        3.03477362      -2.67703497       0.21784086
H       -0.62525955      -2.45985055      -2.01479415
H       -1.80779032      -2.43230883      -3.00177789
H        4.01310842       0.71361219       0.82619527
H        5.62608817       0.56714679       0.20701177
H        3.23088850      -2.12984902      -3.39011616
O        2.18796515       1.33357747       1.97299257
H        1.59108881       0.58322991       2.06318905
H        1.99363001       1.93461038       2.69596322
