44
Properties=species:S:1:pos:R:3:energies:R:1:forces:R:3:charge:R:1 product=T mapped+aligned=T onto=T reactant=T energy=-2153.6383617592924 free_energy=-2153.6383617592924 dipole="0.04689904070512959 0.9449951263972481 0.32476066965605865" pbc="F F F"
O       -2.99928350       0.15268938      -1.45889703    -113.16431257       0.01980804       0.01815395      -0.00255629      -0.45360271
O       -2.70268294       1.18351058       1.97219810    -113.28756734      -0.00039073      -0.01233419      -0.01804420      -0.46055145
O       -1.63483773      -2.09392822      -0.10344669    -112.99501741      -0.00776489       0.00094725       0.02690908      -0.45627103
O       -5.10898531       2.52923982       1.42645842    -113.05024314       0.01914234      -0.00959668      -0.00103762      -0.43866632
O       -0.16926801      -0.55549003      -1.72136844    -113.13807113      -0.02591590      -0.00919179       0.00473826      -0.45424789
O        0.89089364       1.93997827      -1.00003052    -113.28594712       0.01201879      -0.03666956      -0.00874739      -0.46062237
C       -2.88014556      -0.11007565      -0.08455951     -59.13019790       0.01283000       0.00833444      -0.00627763       0.09541898
C       -3.23456155       1.18450226       0.66789706     -59.14135722       0.00224424       0.00299669      -0.01748090       0.09012334
C       -1.51492446      -0.74135609       0.27053569     -59.06185787       0.00062657       0.00708632       0.00706378       0.09009379
C       -4.76051672       1.36467908       0.71160193     -59.24013018       0.00291029      -0.01031143      -0.00809811       0.05947135
C       -0.25371408      -0.12070247      -0.38421166     -58.89862900      -0.00943233      -0.00343358       0.00191567       0.18238970
C       -0.26044639       1.42130267      -0.38122229     -59.30060550      -0.00164305      -0.00444370      -0.00595489       0.05048365
H       -3.60874366      -0.88390555       0.21220808     -12.95320455       0.02188045       0.00308279      -0.00283651       0.04780943
H       -2.82001792       2.03626143       0.10655695     -13.11781190      -0.00269761       0.02005724       0.00545474       0.03224302
H       -1.40237429      -0.65650907       1.36336808     -13.07169065       0.01863084       0.02245105       0.00037180       0.04201333
H       -5.14464180       1.38020842      -0.31273838     -13.18785141      -0.03704344      -0.01262164       0.00518335       0.04269590
H       -5.21961295       0.53766320       1.25807852     -13.00049883       0.03141770      -0.01446362       0.00755221       0.06208766
H       -2.63743846      -0.61893286      -1.91632732     -11.30460154       0.01484032       0.02938372      -0.02000038       0.32429833
H       -3.30387863       1.71803109       2.51332437     -11.28696195      -0.01035314      -0.02791374      -0.02032948       0.31869152
H       -0.38878651       1.78416175       0.64237057     -13.24802470       0.00756919       0.02201010      -0.01355598       0.03674718
H       -1.10005385       1.74697894      -0.99802810     -12.92482799       0.00296825      -0.00479541      -0.00965695       0.06933920
H       -0.78166293      -2.45867439      -0.39749093     -11.42775822      -0.01220183       0.01450348       0.02035347       0.32733404
H        1.61838956       1.95396945      -0.35615865     -11.32196375      -0.01543731       0.01009004       0.01694947       0.32168384
H       -4.89084199       3.30442623       0.89691614     -11.57287087       0.02606540      -0.01397519      -0.00153749       0.29326506
O        2.40152867      -2.21324118      -2.40200576    -112.44834130      -0.01174069       0.01674794      -0.00910021      -0.35814731
O        0.94495124      -3.07596296      -0.94036761    -112.46874941      -0.01247925      -0.03811013      -0.00944873      -0.42725241
O        5.25441995      -2.04046382      -0.56098856    -112.29463327       0.00647565      -0.00377988       0.00324920      -0.42155484
N        0.90914271      -0.59513529       0.40849638     -81.23667317      -0.00503060       0.00240271      -0.00378739      -0.31055232
N        4.88820862       0.11691727      -0.01359345     -80.92662513      -0.01363301      -0.00089977      -0.00778051      -0.27519458
C        2.06115689      -1.01832912      -0.38326127     -58.82308053      -0.00380427      -0.00750090       0.00138688       0.03345275
C        3.19281730      -1.47138897       0.56091835     -59.30661783       0.00352020      -0.00319594       0.00107384      -0.10508108
C        1.71468916      -2.20799656      -1.27182973     -58.84504650       0.02416599       0.03655263      -0.01910470       0.36566232
C        4.55373289      -1.18857857      -0.06792746     -59.17895084       0.00914645      -0.00160633       0.00870532       0.28610280
H        2.39659627      -0.19074484      -1.01433354     -12.90821322      -0.00662224       0.00196761       0.01399823       0.07355980
H        3.12175065      -0.92454982       1.50056064     -12.92636476      -0.00979085      -0.01083521       0.00545974       0.07469365
H        3.10086946      -2.53816770       0.76925284     -13.07246528       0.02525679      -0.00548833      -0.01012866       0.06981148
H        0.62253487      -1.40092148       0.96147632     -12.36978440      -0.00647225       0.02321785       0.02052949       0.17050839
H        0.24303837       0.15735342      -2.23131664     -11.30152126      -0.01601765      -0.01164544       0.01479540       0.32174477
H        4.27516716       0.80444769       0.39652565     -12.04718491      -0.00749905      -0.00658936       0.00997434       0.21054208
H        5.76202166       0.41352171      -0.41426097     -12.20932544      -0.01178560       0.00768786      -0.01065988       0.19330887
H        2.23690376      -3.01906787      -2.91795732     -10.89451129      -0.03228967       0.00861287       0.01355579       0.34062522
O        2.47957228       1.55992017       1.31121934    -114.97243615       0.00433576      -0.00822949       0.00533505      -0.60413300
H        1.84644129       0.81776830       1.24698881     -11.47788564       0.00652860      -0.01110348       0.02133534       0.31432990
H        2.30259484       2.01658940       2.13537159     -11.81794868      -0.01233654       0.01244823      -0.00976654       0.28534597
44
Properties=species:S:1:pos:R:3:energies:R:1:forces:R:3:charge:R:1 product=T mapped+aligned=T onto=T reactant=T energy=-2153.7231711446307 free_energy=-2153.7231711446307 dipole="-0.3160793554240873 0.9137526095007203 0.13233615198332477" pbc="F F F"
O       -2.85077776       0.14834123      -1.41003080    -113.27043879      -0.00243726      -0.00054436       0.00021549      -0.46718930
O       -2.85461446       1.32446062       1.97949309    -113.28801335      -0.00071963      -0.00368535       0.00211071      -0.46045073
O       -1.39051716      -1.94366833       0.68955116    -112.97043450      -0.00338904      -0.00097678      -0.01385096      -0.43890901
O       -5.29981821       2.42442422       1.25661476    -113.05539468       0.00100368       0.00165464      -0.00113015      -0.43809978
O       -0.29175991      -0.67017392      -1.60545269    -113.37073531       0.00327211       0.00338386      -0.00147332      -0.46827944
O        1.09083748       1.83475970      -1.04682471    -113.27146623      -0.00230159       0.00248582       0.00145820      -0.45742353
C       -2.79337658      -0.08267132      -0.02349964     -59.13746280      -0.00085261      -0.00050659       0.00012153       0.08784918
C       -3.29055201       1.21668086       0.64607635     -59.09613090       0.00065310      -0.00078288       0.00123184       0.09154568
C       -1.42158066      -0.54875965       0.52160768     -59.18466201      -0.00048956      -0.00239114      -0.00382639       0.07800308
C       -4.82339511       1.27621970       0.59339043     -59.24872925       0.00057939       0.00128167      -0.00090896       0.06019592
C       -0.18696489      -0.11124380      -0.30153510     -58.80809901      -0.00014459       0.00086045      -0.00089015       0.18114250
C       -0.10081606       1.42396583      -0.42813811     -59.33434782      -0.00160880       0.00087970       0.00164308       0.05117426
H       -3.49014487      -0.89497629       0.24450145     -12.99670630      -0.00084018      -0.00033093       0.00119291       0.04503621
H       -2.88815007       2.06425497       0.06608577     -13.14057421       0.00262615      -0.00036611       0.00289537       0.03106841
H       -1.32493614      -0.13585831       1.53114941     -12.78934566      -0.00007894      -0.00824185      -0.00265984       0.07766161
H       -5.15946203       1.23059709      -0.44711973     -13.18774474       0.00255233       0.00212380      -0.00181311       0.04289753
H       -5.23682649       0.42728984       1.14365952     -12.99696666      -0.00190193       0.00161918      -0.00191227       0.06176578
H       -2.19514442      -0.42128224      -1.84053240     -11.34793804      -0.00872843      -0.00478390       0.00000370       0.32214027
H       -3.57166645       1.75585315       2.46843562     -11.26873142       0.00057696      -0.00152237       0.00176974       0.32036454
H       -0.22937571       1.87716847       0.55898618     -13.23414474      -0.00119942      -0.00076904       0.00243701       0.03678227
H       -0.91825502       1.74954222      -1.07712596     -12.96262046      -0.00212588       0.00122621       0.00240395       0.06534474
H       -1.22559876      -2.37099995      -0.16349847     -11.40406410       0.01101342      -0.00164618       0.00070207       0.31721149
H        1.78295765       1.88813870      -0.36732929     -11.27454828      -0.00137988       0.00147633       0.00061913       0.32449458
H       -5.06227372       3.20475117       0.74295353     -11.56048255       0.00138740       0.00153804      -0.00135888       0.29388877
O        2.10289244      -2.05065593      -2.61034887    -112.57734226      -0.00046805      -0.00607163       0.00477842      -0.37311298
O        1.00173009      -3.17586899      -1.02249012    -112.30461192      -0.00553871      -0.00069664       0.00456347      -0.41489173
O        5.37030768      -1.85665308      -0.68761833    -112.31271848      -0.00134488      -0.00010133      -0.00105231      -0.42528077
N        0.98343321      -0.64151571       0.41377779     -81.22126404      -0.00001299       0.00177527      -0.00004669      -0.30382427
N        4.79583104       0.18901673       0.06591162     -80.95540356       0.00139624      -0.00018107      -0.00063818      -0.27972346
C        2.08169201      -1.08772668      -0.44433059     -58.84863480      -0.00047402       0.00014858      -0.00035634       0.02943355
C        3.24458961      -1.60354046       0.42787726     -59.31488683       0.00004328       0.00158824      -0.00008863      -0.10505395
C        1.64528807      -2.22189894      -1.37067411     -58.88004995       0.00118941       0.00303538       0.00048952       0.36218068
C        4.58520686      -1.12828119      -0.12648448     -59.19301163       0.00004696       0.00012301      -0.00085471       0.28509038
H        2.41221475      -0.24823413      -1.06352286     -12.90929079      -0.00041036      -0.00037365      -0.00131100       0.07335025
H        3.12766514      -1.22717831       1.44420034     -12.96127700       0.00096058       0.00254107      -0.00073369       0.07212574
H        3.23887878      -2.69357130       0.45987472     -13.03816898      -0.00016512       0.00211422       0.00112494       0.07378006
H        0.66683566      -1.45305015       0.94902472     -12.20738876       0.00069872       0.00249590       0.00141460       0.18891662
H        0.21374488      -0.10224452      -2.20414486     -11.26233267       0.00074939       0.00649799       0.00001115       0.32414721
H        4.13065680       0.77176901       0.55291133     -12.01989019       0.00199461       0.00043128      -0.00109825       0.21548044
H        5.64610620       0.60026215      -0.28020832     -12.24240295       0.00144903      -0.00116245      -0.00110494       0.19113489
H        1.87801689      -2.80914214      -3.17212848     -10.97431380      -0.00095169      -0.00620130       0.00490370       0.33520785
O        2.47427551       1.47800024       1.40530526    -114.98272413       0.00126215       0.00113412      -0.00006371      -0.60575095
H        1.89111264       0.69749728       1.29587170     -11.49166939       0.00037708       0.00191286      -0.00079076       0.31361886
H        2.24173510       1.89620018       2.23578022     -11.82600720       0.00373155      -0.00099208       0.00187269       0.28495653
44
Properties=species:S:1:pos:R:3:energies:R:1:forces:R:3:charge:R:1 product=T mapped+aligned=T onto=T reactant=T energy=-2153.685576816971 free_energy=-2153.685576816971 dipole="-0.46983497774213506 0.9114762513107311 0.11909029609889543" pbc="F F F"
O       -3.00670805       0.02006878      -1.38190468    -113.24669114       0.00393127       0.00051020      -0.00471242      -0.46470757
O       -2.46697682       1.50613427       1.82786221    -113.36628316      -0.00034497      -0.00134823      -0.00287200      -0.46484634
O       -1.52879415      -2.06860450       0.56150042    -112.99107910       0.00050182      -0.00168526      -0.00562683      -0.43909213
O       -4.93998626       2.68291889       1.46974143    -113.06698816      -0.00116882      -0.00302925      -0.00184370      -0.43795746
O       -0.43487531      -0.90446966      -1.68410549    -113.40834193       0.00792983       0.00588917      -0.00113342      -0.47370397
O        1.04481242       1.69812270      -1.11339077    -113.26096116       0.00159305       0.00245685       0.00390870      -0.45798544
C       -2.84611004      -0.10004638       0.01123024     -59.15745741       0.00073886      -0.00082415      -0.00412398       0.08678411
C       -3.15688714       1.28769894       0.61828165     -59.09327832      -0.00034451      -0.00136044      -0.00306019       0.08866019
C       -1.48173415      -0.66817168       0.45976863     -59.16048823      -0.00010478      -0.00097441      -0.00197096       0.08028357
C       -4.66537437       1.44511600       0.85424014     -59.25242244      -0.00050159      -0.00269858      -0.00240053       0.05959995
C       -0.26697080      -0.27401403      -0.41655934     -58.83227201       0.00231680       0.00268718       0.00244333       0.18033587
C       -0.18762238       1.25666223      -0.60732298     -59.35678087       0.00218480       0.00331217       0.00670223       0.04958020
H       -3.58749944      -0.81826021       0.40112972     -12.98779246      -0.00032900      -0.00141404      -0.00657335       0.04551481
H       -2.84317086       2.04689703      -0.11689369     -13.09527497      -0.00092331      -0.00064627      -0.00274033       0.03553749
H       -1.30352389      -0.30587336       1.47695234     -12.79607615      -0.00303817      -0.00332714      -0.00022066       0.07650662
H       -5.20302268       1.32642291      -0.09144911     -13.19717300      -0.00091868      -0.00290211      -0.00223960       0.04193303
H       -5.00515715       0.68459886       1.56161419     -12.99465509       0.00038030      -0.00318452      -0.00237054       0.06203528
H       -2.37107570      -0.56946633      -1.81493553     -11.34764597       0.00529730       0.00136656      -0.00393567       0.32151876
H       -3.05572374       2.04120195       2.38248538     -11.25239314      -0.00028566      -0.00098944      -0.00306874       0.32088009
H       -0.42847207       1.74082647       0.34293640     -13.16632901       0.00526931       0.00108934       0.00934856       0.04339301
H       -0.94506681       1.53248990      -1.34682315     -12.97234168      -0.00012906       0.00631385       0.00930410       0.06340916
H       -1.45254045      -2.44937115      -0.32460470     -11.39359108       0.00458093       0.00012256      -0.00666646       0.31578276
H        1.65284441       1.81156595      -0.36413140     -11.28877203       0.00417107       0.00049200       0.00264798       0.32331284
H       -4.77287555       3.39198838       0.83825263     -11.54374594      -0.00209525      -0.00269303      -0.00181071       0.29467558
O        2.39682365      -1.89325945      -2.68538584    -112.59607874      -0.02141647      -0.00928871      -0.00159486      -0.37555147
O        1.34177259      -3.25770234      -1.26118834    -112.18916932      -0.00307568      -0.00966297       0.01699910      -0.40419203
O        5.41681980      -1.65642188      -0.51404985    -112.31528196       0.00023161       0.00485355      -0.00576988      -0.42565897
N        0.89629374      -0.79216932       0.30358031     -81.17292369       0.00137869       0.00233393       0.00405513      -0.29835208
N        4.69745987       0.32729137       0.28097152     -80.93649475      -0.00080148       0.00328676      -0.00238624      -0.27734878
C        2.09171834      -1.08764681      -0.48465625     -58.88397494      -0.00073179      -0.00299766       0.00062936       0.02569823
C        3.21563135      -1.54488644       0.47029648     -59.31192712       0.00180333       0.00097813      -0.00007498      -0.10610935
C        1.87615654      -2.20907213      -1.49780690     -58.88154857      -0.00577108      -0.00308550       0.00562462       0.35896402
C        4.56338636      -0.98901303       0.02281493     -59.19447168       0.00014604       0.00346079      -0.00270842       0.28532659
H        2.39144535      -0.18969931      -1.03203529     -12.86641935      -0.00132623      -0.00423159      -0.00317758       0.07905504
H        2.99907083      -1.18426529       1.47568593     -12.94181666       0.00322269       0.00104400       0.00054526       0.07392532
H        3.26640032      -2.63399222       0.49516770     -13.03141607       0.00396412       0.00105705       0.00068596       0.07438932
H        0.60660232      -1.65899381       0.76015190     -12.21795566       0.00037063       0.00311772       0.00513295       0.18732654
H        0.11010465      -0.43166589      -2.32561421     -11.37402399       0.00532986       0.01582294       0.00014984       0.31660267
H        3.97073297       0.85688410       0.73800235     -12.02835540      -0.00041830       0.00194972       0.00014438       0.21400764
H        5.54653804       0.79269477       0.00834545     -12.23726155      -0.00191088       0.00470105      -0.00410087       0.19152557
H        2.35300608      -2.64374307      -3.29884365     -10.98386942      -0.02497286      -0.01020400      -0.00099599       0.33472892
O        2.14513179       1.41790472       1.47449422    -114.97408095       0.00491992       0.00006569       0.00293093      -0.60504622
H        1.62945061       0.60365685       1.30467335     -11.49745611       0.00404128       0.00056850       0.00196798       0.31350204
H        1.73796780       1.85966124       2.22152364     -11.82221643       0.00630508      -0.00093239       0.00495851       0.28575661
44
Properties=species:S:1:pos:R:3:energies:R:1:forces:R:3:charge:R:1 product=T mapped+aligned=T onto=T reactant=T energy=-2153.5138218668753 free_energy=-2153.5138218668753 dipole="-0.40886446749859806 0.7882579163800134 0.09294079861123662" pbc="F F F"
O       -3.16514258      -0.03543189      -1.21963171    -113.25300358      -0.00001495      -0.00200763      -0.00446159      -0.46628415
O       -2.31732053       1.63815091       1.83333666    -113.38165050       0.00224578       0.00083923      -0.00797754      -0.46601874
O       -1.56766658      -2.02710713       0.75243454    -113.03544778      -0.00195037      -0.00475216      -0.01006036      -0.44130440
O       -4.78705273       2.84559324       1.59299266    -113.06897222       0.00060233      -0.00232522      -0.00058817      -0.43825992
O       -0.73414580      -1.17169603      -1.67094021    -113.28944336       0.00603566       0.01125921      -0.00618456      -0.46987234
O        1.01584001       1.57563076      -1.24539419    -113.23138708       0.00492759       0.00213109       0.00149298      -0.45678410
C       -2.86741900      -0.06786484       0.15436906     -59.16849346      -0.00106961      -0.00185531      -0.00429184       0.08649078
C       -3.09974196       1.36326886       0.69241888     -59.07015353      -0.00124784      -0.00159604      -0.00496200       0.08912989
C       -1.47790915      -0.64574219       0.51106807     -59.12241842      -0.00191493      -0.00293712      -0.00303966       0.08040352
C       -4.58385890       1.57314311       1.02200756     -59.25371684      -0.00028587      -0.00272260       0.00004646       0.05966204
C       -0.34938012      -0.40248987      -0.53244367     -58.88592870       0.00183933       0.00467047       0.00170320       0.17810804
C       -0.25657385       1.10305067      -0.89454502     -59.36507086       0.00155385       0.00924743       0.01389054       0.04952880
H       -3.58072104      -0.73941058       0.66322594     -12.98466783      -0.00179395      -0.00155097      -0.00500598       0.04488796
H       -2.82586810       2.06609403      -0.11169687     -13.09245550      -0.00503799      -0.00243361      -0.00690609       0.03620710
H       -1.17625117      -0.20177021       1.46396303     -12.81305460      -0.00493661      -0.00710168       0.00054537       0.07504808
H       -5.18538041       1.42382072       0.12020165     -13.19149206      -0.00334438      -0.00406914       0.00235652       0.04266695
H       -4.89447976       0.85636320       1.78620345     -13.00270427       0.00306967      -0.00218460       0.00187540       0.06117373
H       -2.57013314      -0.65024924      -1.67579878     -11.33631547       0.00335092       0.00102854      -0.00475845       0.32439400
H       -2.86516115       2.19141161       2.41123962     -11.26919528       0.00377630       0.00171558      -0.00735799       0.32007205
H       -0.65084328       1.67569379      -0.05252592     -13.14173000       0.01369698       0.00745587       0.03072784       0.04308217
H       -0.90249871       1.26568336      -1.76242803     -12.97113392      -0.01395466       0.02114036       0.01847170       0.06388873
H       -1.66997942      -2.47298622      -0.10047095     -11.37232702       0.00129821      -0.00150312      -0.01262762       0.31562345
H        1.49878757       1.76382727      -0.42236806     -11.29792840       0.01394193       0.00000389      -0.00065090       0.32210047
H       -4.64680541       3.51922640       0.91772393     -11.54564348      -0.00261696      -0.00287913      -0.00180071       0.29473938
O        3.07389655      -1.61343360      -2.63208295    -112.53630130      -0.01669797      -0.01184557      -0.00420436      -0.37133352
O        1.51149006      -3.01782967      -1.86640698    -112.19504913       0.00569664      -0.02429487       0.02409661      -0.40539406
O        5.44639959      -1.68146979      -0.29417441    -112.30016480      -0.00050911       0.00930550      -0.00508026      -0.42306364
N        0.84239203      -0.91331188       0.12484851     -81.07790221       0.00034403       0.00151277       0.00214811      -0.29130091
N        4.65551416       0.28806507       0.46916612     -80.91238609      -0.00371542       0.00699896      -0.00244245      -0.27345712
C        2.11818499      -1.04668662      -0.56907863     -58.95221741      -0.00094678      -0.00445635      -0.00104547       0.01943943
C        3.15321697      -1.57547325       0.45058511     -59.27532214       0.00099007       0.00293147       0.00168058      -0.10417469
C        2.16387246      -2.01569144      -1.74526362     -58.91595398      -0.00487129      -0.01690865       0.00741180       0.35175938
C        4.54282258      -1.01957610       0.16027802     -59.18026943      -0.00100517       0.00670369      -0.00188306       0.28670431
H        2.42708491      -0.07061961      -0.95007575     -12.72853650      -0.00134920      -0.00643222      -0.00861145       0.09113939
H        2.85130887      -1.26518687       1.45103804     -12.92636256       0.00126862       0.00564476       0.00126549       0.07541890
H        3.18940605      -2.66549290       0.41938123     -13.06333628       0.00425599       0.00278961       0.00573062       0.07060256
H        0.59122051      -1.81327901       0.53389287     -12.23228779      -0.00198281       0.00186774       0.00203925       0.18537700
H       -0.08602541      -1.06045087      -2.37337293     -11.56002251       0.00449186       0.02383358      -0.01084597       0.30422093
H        3.88480590       0.81330837       0.85076554     -12.04395643      -0.00399173       0.00446592       0.00067299       0.21053644
H        5.52969398       0.75516984       0.29770867     -12.21230292      -0.00534467       0.00956585      -0.00459009       0.19332375
H        3.21413366      -2.27372583      -3.32913804     -10.96449202      -0.01461974      -0.01849579       0.00098821       0.33603356
O        1.84865579       1.37144751       1.44304668    -114.96370883       0.00749487      -0.00462244       0.00174335      -0.60367976
H        1.40443314       0.52453039       1.24842761     -11.52423695       0.00457448      -0.00300828      -0.00289567       0.31120914
H        1.29720042       1.83349456       2.07751529     -11.80467846       0.00774688      -0.00512903       0.00338520       0.28795541
44
Properties=species:S:1:pos:R:3:energies:R:1:forces:R:3:charge:R:1 product=T mapped+aligned=T onto=T reactant=T energy=-2153.562381073942 free_energy=-2153.562381073942 dipole="-0.2585450379322625 0.44411893872413993 0.08250490726796193" pbc="F F F"
O       -3.16976424       0.01444355      -1.09293459    -113.24851175       0.00150400       0.00349462      -0.00220650      -0.46605872
O       -2.26772998       1.69636395       1.95418818    -113.34176575       0.00050221       0.00225033      -0.00064914      -0.46382206
O       -1.50589924      -1.88053947       1.04018375    -113.08955373       0.00304340       0.00743535       0.00497211      -0.44857599
O       -4.71801837       2.95204630       1.64646729    -113.06485079      -0.00116294       0.00156459       0.00088955      -0.43911105
O       -0.93078172      -1.50790932      -1.51089740    -113.59883263       0.00284375      -0.00070923       0.00239137      -0.50597057
O        0.94446384       1.51430058      -1.19590551    -113.25128205      -0.00438766       0.00918303       0.01731434      -0.46202438
C       -2.81748161       0.00214727       0.26771857     -59.14233993       0.00071377       0.00339769      -0.00182097       0.08898436
C       -3.03031796       1.43850584       0.79669306     -59.02882114       0.00014565       0.00312140      -0.00061874       0.09372170
C       -1.40673013      -0.55357562       0.57833738     -59.05238626       0.00125110       0.00559336      -0.00081447       0.07853293
C       -4.51774398       1.67344959       1.08866484     -59.25087944       0.00001548       0.00163127       0.00101432       0.06025981
C       -0.38954287      -0.54686987      -0.60577749     -58.96425645       0.00155823       0.00183086      -0.00030460       0.17782337
C       -0.26871456       0.82928650      -1.32269374     -59.32853284       0.00520504      -0.00243913      -0.00602983       0.05535534
H       -3.50642165      -0.66131922       0.81990668     -13.02194740       0.00068467       0.00256464      -0.00249274       0.04088826
H       -2.72384940       2.14090234       0.00306786     -13.14411519       0.00010869       0.00389211      -0.00013765       0.03183266
H       -1.00536757       0.01394024       1.41993003     -12.85537946       0.00055469       0.00933881      -0.00315875       0.07175490
H       -5.09874916       1.52485843       0.17326837     -13.19097459      -0.00125358       0.00048128       0.00198479       0.04302558
H       -4.85609038       0.96525979       1.84926588     -13.01328588       0.00201339       0.00137680       0.00183888       0.06022835
H       -2.66657637      -0.68084692      -1.54450477     -11.33749422       0.00071160       0.00263877      -0.00196492       0.32644436
H       -2.81977061       2.25138308       2.52538391     -11.29830068       0.00167481       0.00440003      -0.00160756       0.31873941
H       -1.09216790       1.46412618      -0.98634055     -13.15565976      -0.00835376      -0.00773963      -0.03003232       0.03987719
H       -0.40362352       0.65059254      -2.39342573     -13.00766197       0.03212476      -0.00946147      -0.00794838       0.06006571
H       -1.73114763      -2.42734317       0.27216406     -11.42327470      -0.00052207       0.00401173       0.00845614       0.31130825
H        1.09863271       1.73602226      -0.25841322     -11.34160944      -0.01627826      -0.00181581       0.02259210       0.32138248
H       -4.55043249       3.61870523       0.97058968     -11.56034502      -0.00383836       0.00163414       0.00027425       0.29437117
O        3.47333454      -1.35655489      -2.50510691    -112.37304071      -0.00137689      -0.00957359      -0.00532638      -0.35173339
O        1.44754495      -2.27719942      -2.54477648    -112.52875032      -0.00337593      -0.00472393      -0.00047034      -0.42728895
O        5.48155868      -1.79443322      -0.19116679    -112.26201532       0.00303095       0.00548065      -0.00270717      -0.41756350
N        0.84208041      -0.99205490       0.01718194     -80.95819153       0.00213017       0.00637266       0.00189087      -0.28835643
N        4.69224412       0.16950112       0.58237694     -80.88658475      -0.00158819       0.00598466      -0.00557723      -0.26962052
C        2.15371106      -0.97094981      -0.60930947     -59.03474367       0.00093533       0.00115807      -0.00467482       0.01787863
C        3.13937497      -1.64664986       0.36535099     -59.29739032       0.00219697       0.00284531      -0.00477604      -0.10292709
C        2.29106635      -1.62053746      -1.97811330     -58.82249182      -0.00187469      -0.00477549      -0.00307105       0.35829007
C        4.56184813      -1.11937080       0.20561269     -59.15424113       0.00169299       0.00461301      -0.00442634       0.28838188
H        2.44501797       0.07393695      -0.76214375     -12.53019127       0.00144717       0.00168401      -0.00981854       0.10532831
H        2.80856272      -1.43785868       1.38404654     -12.93628746       0.00214951       0.00267024      -0.00470648       0.07436478
H        3.14623859      -2.72729920       0.21458853     -13.08610174       0.00373292       0.00271710      -0.00449685       0.06733093
H        0.65315480      -1.90313233       0.42809872     -12.31978600       0.00189034       0.00718075       0.01747376       0.17580646
H       -0.20893741      -1.87036070      -2.06168128     -11.38511989       0.00480869       0.00118330       0.00311566       0.33182519
H        3.91438343       0.71394727       0.91513599     -12.08605182      -0.00324563       0.00446166      -0.00633467       0.20333289
H        5.59148291       0.61166354       0.49510719     -12.17072246      -0.00223854       0.00765693      -0.00437616       0.19615722
H        3.59155111      -1.78939583      -3.36599819     -10.84615193      -0.00155555      -0.01315229      -0.00388420       0.34237929
O        1.46392941       1.40289947       1.52879947    -114.86623660      -0.00816886      -0.01914856       0.01976538      -0.59511258
H        1.18825518       0.48747007       1.35775344     -11.56147570      -0.00363984      -0.02465319       0.00143890       0.30794626
H        0.75742488       1.81844661       2.02930922     -11.74474553      -0.01580954      -0.02565685       0.01902040       0.29454749
44
Properties=species:S:1:pos:R:3:energies:R:1:forces:R:3:charge:R:1 product=T mapped+aligned=T onto=T reactant=T energy=-2153.270073584804 free_energy=-2153.270073584804 dipole="-0.19338911941392867 0.5523360383234979 0.08211891357049438" pbc="F F F"
O       -3.22093330      -0.11583514      -0.90753785    -113.28950510      -0.06445215       0.01372998       0.00812996      -0.47052172
O       -2.04390656       1.70334191       1.98832648    -113.47368857      -0.00616306      -0.01077302       0.00372248      -0.46690149
O       -1.53785230      -2.02947961       1.07576473    -112.95118001      -0.03124055       0.01787347       0.08230485      -0.44375693
O       -4.36863731       3.11097216       1.62414903    -113.08697638       0.00816714       0.01277489       0.00033920      -0.43911985
O       -1.14583343      -1.74576916      -1.45107864    -113.45403912       0.06500791       0.21947686       0.16186343      -0.48719694
O        0.78915455       1.35986580      -1.26557423    -113.28494128      -0.03078219      -0.02004122       0.06504498      -0.46983755
C       -2.74276375      -0.04962036       0.41399032     -59.12075195      -0.02219089       0.00241375      -0.00438112       0.08699181
C       -2.80910918       1.43355715       0.82977343     -58.99871655      -0.00547925       0.00104624       0.00086214       0.09169430
C       -1.35859856      -0.70747543       0.63101763     -59.08739160      -0.01534736      -0.00657191      -0.04949807       0.08204399
C       -4.27381899       1.81651946       1.07666150     -59.25034941      -0.00220206       0.01043458       0.00389744       0.06039449
C       -0.43752911      -0.78449018      -0.62587101     -58.80829920      -0.10778849      -0.15376022      -0.18113739       0.17731822
C       -0.29781368       0.50896355      -1.47641961     -59.30000931      -0.01966653      -0.02072816      -0.05929673       0.06037899
H       -3.42051121      -0.61460058       1.07682464     -12.99017249      -0.00642415       0.00496667       0.01484025       0.04460707
H       -2.41820842       2.04858265       0.00408778     -13.13421923       0.00033916      -0.00048976       0.00222548       0.03521719
H       -0.86281790      -0.19771697       1.45936311     -12.88338661       0.07494319       0.06526475      -0.11582737       0.06820034
H       -4.83865099       1.71143376       0.14596324     -13.15689583      -0.00670847       0.00994504       0.00702347       0.04707180
H       -4.69922180       1.14705608       1.82880798     -12.99930206      -0.00079942       0.01467602       0.00834691       0.06110483
H       -2.80314544      -0.88192019      -1.33275859     -11.32449738      -0.04571204       0.03427688      -0.01529996       0.32719298
H       -2.59402110       2.26381187       2.55743095     -11.22502520       0.00676786       0.01502432      -0.00855018       0.32429111
H       -1.24010871       1.05959039      -1.40573447     -13.14970569      -0.02780920      -0.03308396      -0.05456149       0.04163514
H       -0.19553320       0.15909951      -2.50787683     -13.04249349       0.03490624       0.06655997      -0.10079016       0.05293052
H       -1.66292338      -2.56419325       0.27766942     -11.41967591      -0.06831179      -0.04713002       0.11901779       0.31308143
H        0.71491983       1.81169132      -0.40007539     -11.38037902      -0.08116551      -0.04619885       0.08084581       0.32481818
H       -4.14693271       3.75846321       0.94562179     -11.53971447       0.00211725       0.00935394      -0.00483991       0.29555179
O        3.46554432      -0.68803283      -2.42100010    -112.40663565       0.04504030       0.01049572      -0.02349794      -0.35306980
O        1.59746563      -1.89366087      -2.58773751    -112.55623494       0.06400447      -0.01978121      -0.11792070      -0.43760340
O        5.38975757      -1.93480505      -0.36832171    -112.24526188      -0.02724719      -0.00285057      -0.02586025      -0.41748006
N        0.78487400      -1.40518611      -0.13026158     -80.76796761      -0.06117826      -0.19823489      -0.16621132      -0.28302672
N        4.89887673      -0.06204019       0.76620774     -80.83328926      -0.03408996      -0.01045761      -0.01870903      -0.26716280
C        2.11990294      -0.93785278      -0.46218149     -59.01322208      -0.04410752      -0.07694863      -0.06757412       0.02341957
C        3.13178271      -1.68949743       0.42925397     -59.32001026      -0.03041719      -0.02237746      -0.03045080      -0.10237004
C        2.36730432      -1.22854608      -1.93393058     -58.84573769       0.03744578      -0.02713978      -0.07308537       0.36182006
C        4.57779039      -1.25338855       0.21198979     -59.15126281      -0.03201359      -0.00693668      -0.02700962       0.28859478
H        2.23547158       0.13602072      -0.30067763     -12.75507975      -0.13083303      -0.06245703      -0.02006472       0.09022287
H        2.85443294      -1.52800241       1.47201846     -12.99421983      -0.03987795       0.00286782      -0.03570710       0.07004958
H        3.07122917      -2.75738177       0.21798512     -13.00679402      -0.00240934      -0.03260992      -0.00052566       0.07316457
H        0.69697059      -2.35915203      -0.48798566     -12.18610891       0.35029782      -0.01845954       0.50052283       0.18093953
H       -0.60758101      -2.09691064      -2.17754675     -11.44754365       0.31912673       0.32510033       0.13225663       0.31723694
H        4.22542788       0.53362499       1.21224352     -12.25783671      -0.03560858      -0.00511781      -0.02749570       0.18516495
H        5.83261491       0.29088792       0.63275049     -12.14596291      -0.03380468      -0.01031074      -0.01928325       0.19761500
H        3.58169711      -0.93349685      -3.35295343     -10.87152994       0.07349009       0.03772576      -0.02934488       0.34141015
O        0.66622735       2.12423825       1.35997156    -114.76134220      -0.03015130      -0.01077148       0.02490821      -0.59131322
H        0.99701120       1.31317305       1.75286477     -11.79114387      -0.00436688       0.00698808       0.03871884       0.28759065
H       -0.27200168       2.16815874       1.60478766     -11.56157378      -0.03330537      -0.03776462       0.02205213       0.31760768
44
Properties=species:S:1:pos:R:3:energies:R:1:forces:R:3:charge:R:1 product=T mapped+aligned=T onto=T reactant=T energy=-2152.907928781122 free_energy=-2152.907928781122 dipole="-0.34038817760918694 0.5655438929190738 -0.10956533957524726" pbc="F F F"
O       -3.02197749      -0.16192289      -0.93327821    -113.28612083       0.00152264       0.00076086      -0.00331905      -0.46553030
O       -2.03943345       1.70917345       1.99123278    -113.46408276      -0.00740670      -0.00621195       0.00097336      -0.46795713
O       -1.44872021      -2.09742338       0.80970814    -112.95473618      -0.00081488       0.00118273      -0.00136186      -0.44793792
O       -4.36444795       3.08522149       1.61851665    -113.08646563       0.00309758       0.00209503      -0.00263874      -0.43906252
O       -1.34311267      -2.43126777      -1.95885309    -114.86197581       0.00431043      -0.00250296       0.00048835      -0.60348225
O        0.87307482       1.42841995      -1.44136725    -113.22165523      -0.00046389       0.00932612       0.01144360      -0.46673958
C       -2.67623075      -0.06372594       0.42763815     -59.11361230      -0.00143177      -0.00052314      -0.00279528       0.08848122
C       -2.79432308       1.42068494       0.82992965     -59.00602553      -0.00445882      -0.00199549      -0.00161252       0.09245411
C       -1.31339387      -0.69738006       0.78269922     -59.29088761      -0.00103077       0.00072043      -0.00105732       0.08597329
C       -4.26385226       1.79083656       1.06996427     -59.25017519      -0.00290982      -0.00021470       0.00152656       0.06012960
C       -0.10205418      -0.31457459      -0.06401267     -58.12723713       0.00009688       0.00108034       0.00069981       0.08436276
C       -0.23176499       0.56573347      -1.29197761     -59.33846106       0.00258594       0.00434501       0.00347212       0.05775061
H       -3.40345143      -0.63598495       1.03033021     -13.04803594      -0.00139023      -0.00187469      -0.00456678       0.03902117
H       -2.41397812       2.04262779       0.00454886     -13.11461278      -0.00481740      -0.00063906      -0.00079208       0.03668172
H       -1.09565404      -0.41947525       1.82073766     -12.70557153      -0.00271392       0.00029139      -0.00107124       0.08130763
H       -4.82513849       1.68867644       0.13662410     -13.18068400      -0.00737548      -0.00203598       0.00482817       0.04438864
H       -4.69150244       1.12115760       1.82025957     -13.00338819       0.00077159       0.00371649       0.00667249       0.06110120
H       -2.66209363      -0.99068897      -1.28702300     -11.30149464       0.00154990       0.00069618      -0.00294441       0.32699302
H       -2.58971850       2.28903311       2.54109536     -11.24103344       0.00528380       0.02264438      -0.01622849       0.32345810
H       -1.15869816       1.14131307      -1.26097031     -13.09169786       0.00032659      -0.00009473       0.00074822       0.04975032
H       -0.26817968      -0.05611243      -2.19119244     -12.91788807       0.00998818       0.00752105       0.00164509       0.07172700
H       -1.45555177      -2.42523554      -0.10635972     -11.44225568       0.00272927       0.00136757      -0.00125266       0.31901974
H        0.92576902       1.96299536      -0.62732182     -11.47199722      -0.00738817       0.00572585       0.01362275       0.31758988
H       -4.13296543       3.73507801       0.94515176     -11.53789156      -0.00155496      -0.00082790      -0.00694188       0.29564828
O        3.32291966      -0.69199545      -2.34066718    -112.33040946       0.00040649       0.00156682       0.00096295      -0.34886874
O        1.41615334      -1.83418775      -2.21932265    -112.61310672       0.00295536      -0.00143702      -0.00115587      -0.43605222
O        5.45773687      -1.93967109      -0.33254144    -112.26083203      -0.00532497      -0.00421146      -0.01223939      -0.41899067
N        0.97593842      -0.79662372       0.38572984     -79.99394928      -0.00120446      -0.00200262      -0.00101805      -0.23458160
N        5.03290377      -0.05297170       0.81405617     -80.83029714       0.00577617      -0.00620141      -0.00563658      -0.27004441
C        2.25624775      -0.69741787      -0.24707321     -58.96439871      -0.00066261      -0.00050143      -0.00006122       0.03583598
C        3.22837234      -1.61808159       0.52665038     -59.26393404      -0.00006652      -0.00010045      -0.00028035      -0.10179356
C        2.25682738      -1.13585642      -1.70227322     -58.77135550       0.00126612      -0.00024677       0.00003485       0.37385552
C        4.67995689      -1.24429973       0.27686504     -59.16809365      -0.00071516      -0.00329507      -0.00626139       0.28747911
H        2.63378853       0.33160064      -0.22813542     -12.81302082      -0.00182627      -0.00016816       0.00037322       0.07675003
H        2.99260285      -1.52433931       1.58709880     -12.89753215       0.00364598       0.00298399       0.00016499       0.07926654
H        3.06955827      -2.65522005       0.23102994     -13.00987387      -0.00306670      -0.00037759       0.00271059       0.07536857
H       -0.38215012      -2.30765239      -2.04379877     -11.54480195       0.00366374      -0.00013383      -0.00104945       0.32620107
H       -1.58380473      -3.11999055      -2.58160723     -11.80527987       0.00722950      -0.01320679       0.01123606       0.28999440
H        4.37996271       0.52759122       1.30862325     -12.27440737       0.00993907      -0.00562509      -0.00128791       0.18424358
H        5.96688861       0.29066910       0.66755106     -12.18495390       0.00582915      -0.00831538      -0.00980381       0.19516697
H        3.35693013      -1.01859233      -3.25459663     -10.87543581       0.00200119       0.00141504       0.00112984       0.34065413
O        0.67329598       2.19359567       1.27526762    -114.71955842      -0.01407882      -0.00070300       0.00128315      -0.59677219
H        1.02529593       1.39715485       1.68105837     -11.87903403       0.00537561       0.02199433       0.01719235       0.28501330
H       -0.26202385       2.20912698       1.53000704     -11.64966791      -0.00964883      -0.02598695       0.00416780       0.31214560
44
Properties=species:S:1:pos:R:3:energies:R:1:forces:R:3:charge:R:1 product=T mapped+aligned=T onto=T reactant=T energy=-2152.829659676452 free_energy=-2152.829659676452 dipole="-0.4431288493289948 0.6521461540879859 -0.16225250180597883" pbc="F F F"
O       -2.84841131      -0.10354957      -1.09220509    -113.33649759       0.00438857       0.00004680      -0.00234953      -0.47364813
O       -2.24972782       1.82156955       1.86038789    -113.35528005       0.00155016       0.00599473      -0.00667590      -0.46604898
O       -1.35786864      -1.90600183       1.05835467    -112.91817407       0.00213220       0.00369999       0.00488744      -0.44147929
O       -4.74999610       2.88244104       1.51371710    -113.07143438      -0.00272700      -0.00069364      -0.00344635      -0.43947923
O       -1.39518799      -2.43218752      -1.75012623    -114.85496032       0.00066132      -0.00258448       0.00639240      -0.60460278
O        1.04773664       1.62522511      -1.23674725    -113.20497737       0.00323263       0.00592937       0.00914022      -0.46369455
C       -2.66994633      -0.02412517       0.29851820     -59.13195140       0.00171559       0.00131067      -0.00203894       0.08872927
C       -2.98561426       1.42830453       0.72194055     -59.03260398      -0.00061417       0.00153390      -0.00384281       0.09434042
C       -1.29308961      -0.52880084       0.79901499     -59.29644604       0.00152585       0.00321876       0.00088707       0.08492512
C       -4.48556921       1.59539118       1.00181290     -59.24073361      -0.00043826      -0.00170849      -0.00000514       0.06004226
C       -0.07307563      -0.20741300      -0.05877597     -58.16146838       0.00161876       0.00186464       0.00080442       0.08143892
C       -0.14192342       0.87817661      -1.11176980     -59.33737613       0.00371983       0.00428644       0.00374395       0.06035858
H       -3.39506362      -0.68637865       0.80390001     -13.07049864       0.00134754       0.00089333      -0.00293036       0.03651321
H       -2.72399795       2.09250002      -0.11871734     -13.12967398      -0.00438401       0.00040418      -0.00598623       0.03341017
H       -1.13849309      -0.06364287       1.78139145     -12.68368289       0.00024914       0.00621814      -0.00006097       0.08331641
H       -5.05737027       1.38819335       0.09201998     -13.22058691      -0.00263120      -0.00628681       0.00236121       0.03988721
H       -4.79228106       0.90018600       1.78715541     -13.01692083       0.00384133      -0.00015120       0.00316219       0.06025119
H       -2.48338457      -0.95598372      -1.39396821     -11.33141380       0.00423479      -0.00060640      -0.00077292       0.32888091
H       -2.84721985       2.37030699       2.39165580     -11.32239474       0.00179233       0.00686677      -0.00723794       0.31737652
H       -0.97950159       1.54614823      -0.90360226     -13.10228387       0.00286058       0.00250991       0.00259126       0.04772650
H       -0.32227793       0.41238533      -2.08627688     -12.91372497       0.00742156       0.00665072       0.00258186       0.07219197
H       -1.34800163      -2.37113207       0.20631823     -11.42336721       0.00267685       0.00144773       0.00601262       0.31934464
H        1.26016481       1.99395064      -0.36149548     -11.48393454       0.00055124       0.00313390       0.01107065       0.31323123
H       -4.60699956       3.53355675       0.81720059     -11.56358621      -0.00740219      -0.00259006      -0.00622825       0.29407763
O        3.34282822      -1.08415030      -2.43303497    -112.33572656      -0.00103316       0.00004938      -0.00327715      -0.34961123
O        1.26154670      -1.86562096      -2.35645409    -112.60510964      -0.00200925       0.00140622      -0.00213266      -0.43348024
O        5.52628786      -1.88791543      -0.21229354    -112.26167094      -0.00030569      -0.00302341      -0.00694532      -0.41968053
N        0.94313059      -0.89330402       0.24796317     -80.00211974       0.00049588      -0.00068299      -0.00157051      -0.23795393
N        4.87301427       0.04949722       0.72425457     -80.85213428       0.00225574      -0.00367681      -0.00320065      -0.27157040
C        2.22315625      -0.81362747      -0.39022401     -59.00239017       0.00028027      -0.00058778      -0.00230055       0.03034595
C        3.21356824      -1.66925101       0.43026037     -59.26438219       0.00042649      -0.00193688      -0.00397287      -0.10110194
C        2.19520311      -1.31401693      -1.82172295     -58.78148907      -0.00115736       0.00035103      -0.00258307       0.37136423
C        4.65165064      -1.20318390       0.26360909     -59.17178501       0.00065645      -0.00284602      -0.00482207       0.28760542
H        2.59643502       0.21578605      -0.44858729     -12.70691454       0.00043457      -0.00062916      -0.00171501       0.08594731
H        2.92349024      -1.58473205       1.47839520     -12.88273769       0.00140137      -0.00286512      -0.00365666       0.08058743
H        3.14320669      -2.71806803       0.14310802     -13.03058506      -0.00055473      -0.00157603      -0.00504959       0.07307223
H       -0.45842096      -2.23949851      -1.93693044     -11.55802714      -0.00041124      -0.00016251       0.00295396       0.32653308
H       -1.67267197      -3.07512969      -2.40559623     -11.82641618       0.00143204      -0.00711166       0.01045171       0.28889409
H        4.14158955       0.62262127       1.10696876     -12.21255352       0.00326254      -0.00385974      -0.00077568       0.19199929
H        5.79165960       0.44696830       0.62424625     -12.20269092       0.00256009      -0.00437233      -0.00330232       0.19411480
H        3.35133805      -1.44571623      -3.33408169     -10.86542966      -0.00188513       0.00034727      -0.00335987       0.34068107
O        1.49877580       1.87812762       1.56167372    -114.68986753      -0.00946087       0.00027114       0.01084118      -0.58220640
H        1.26912055       0.96644569       1.77077314     -11.68375017      -0.00206582      -0.00459556       0.00874443       0.29954291
H        0.82219356       2.42564630       1.96797169     -11.68990774      -0.02164562      -0.00588793       0.00361277       0.29782766
44
Properties=species:S:1:pos:R:3:energies:R:1:forces:R:3:charge:R:1 product=T mapped+aligned=T onto=T reactant=T energy=-2152.9090825402163 free_energy=-2152.9090825402163 dipole="-0.43386014851994226 0.7227836432707692 -0.03125050212720051" pbc="F F F"
O       -2.71195370      -0.11465072      -1.18036255    -113.35569835       0.00673624      -0.00205999      -0.00371227      -0.47696597
O       -2.36424303       1.92028048       1.69839768    -113.33671284      -0.00133950       0.00831847      -0.01208163      -0.46656561
O       -1.32104401      -1.80123942       1.17371579    -112.94586004       0.00290662       0.00644464       0.00769045      -0.44107363
O       -4.92949586       2.77039194       1.37611907    -113.06605968      -0.00550691      -0.00298447      -0.00619205      -0.43913080
O       -1.38250797      -2.50643964      -1.64332683    -114.82531978       0.00183588      -0.00578749       0.00951960      -0.60381399
O        1.15358413       1.79974888      -1.00497751    -113.19017288       0.00593413       0.00748727       0.01086474      -0.46063634
C       -2.65897549      -0.01945502       0.21794699     -59.12599822       0.00141543       0.00061397      -0.00348218       0.08930382
C       -3.08377104       1.41959106       0.59115927     -59.06025088      -0.00342002       0.00059081      -0.00760176       0.09203157
C       -1.29437592      -0.44628461       0.82834347     -59.30685179       0.00107444       0.00493247       0.00166912       0.08490304
C       -4.58613914       1.48863359       0.89834474     -59.24297146      -0.00271003      -0.00384175      -0.00230898       0.05987928
C       -0.06630483      -0.11252988      -0.00593689     -58.21592180       0.00109331       0.00415542       0.00179610       0.07912996
C       -0.09636659       1.19094569      -0.77233085     -59.37335635       0.00299978       0.01223720       0.01123979       0.05711909
H       -3.38502241      -0.71822676       0.66843004     -13.08179069       0.00141570      -0.00037598      -0.00481902       0.03598356
H       -2.88340576       2.05602819      -0.28678062     -13.08208830      -0.00909459      -0.00246392      -0.01129177       0.03820417
H       -1.20087955       0.09526381       1.77921727     -12.72687998      -0.00137053       0.00988493      -0.00057847       0.07975256
H       -5.16161019       1.21479362       0.00868065     -13.23656410      -0.00527673      -0.00935468       0.00091921       0.03797794
H       -4.82775683       0.80027038       1.71194367     -13.01572161       0.00287742      -0.00158663       0.00140647       0.06044844
H       -2.34826884      -0.98759804      -1.43167769     -11.33120932       0.00620117      -0.00348943      -0.00026703       0.33060560
H       -2.99354558       2.44719675       2.21511812     -11.33045842      -0.00146259       0.00897457      -0.01279950       0.31724927
H       -0.75404962       1.88642759      -0.24404450     -13.09915197       0.00756248       0.01405045       0.02129084       0.04751693
H       -0.53496420       0.98751907      -1.75519615     -12.85236553      -0.00410676       0.02097721       0.00898844       0.07921938
H       -1.23249159      -2.31622572       0.35598954     -11.36292699       0.00605998       0.00295580       0.00989722       0.32406200
H        1.53937467       2.02000463      -0.14080989     -11.48789447       0.01013292       0.00166879       0.01204669       0.31070991
H       -4.82965131       3.40918391       0.66074185     -11.56026881      -0.00987801      -0.00534748      -0.00901187       0.29439518
O        3.32138602      -1.31068081      -2.51768652    -112.33699585      -0.00306071      -0.00330036      -0.00648568      -0.35125479
O        1.23568421      -2.07916903      -2.43307518    -112.55448626      -0.00324411      -0.00280250      -0.00519848      -0.42949622
O        5.47782838      -1.81246856      -0.23577076    -112.27677158      -0.00045753       0.00361322      -0.00392132      -0.42187877
N        0.86185077      -0.96366091       0.07937668     -80.00446132      -0.00193606      -0.00259549      -0.00569204      -0.23906346
N        4.74880710       0.14000100       0.61351374     -80.87439268      -0.00492931       0.00092348      -0.00116026      -0.27330083
C        2.15444440      -0.87374013      -0.53511897     -59.00051733      -0.00193684      -0.00216803      -0.00586131       0.02874360
C        3.15025333      -1.63866494       0.36721522     -59.22583355      -0.00134493      -0.00176587      -0.00571385      -0.09804813
C        2.15820617      -1.49317418      -1.91679122     -58.81654353      -0.00280621      -0.00292301      -0.00570084       0.36894421
C        4.57671192      -1.13557297       0.20138980     -59.18421226      -0.00212401       0.00123629      -0.00351794       0.28736793
H        2.50555693       0.15491355      -0.68088632     -12.75484679      -0.00203330      -0.00209088      -0.00689086       0.08229559
H        2.83698772      -1.49392728       1.40205823     -12.94001873      -0.00247318      -0.00371618      -0.00568633       0.07509297
H        3.11833671      -2.70603361       0.15088253     -13.02825129       0.00100885      -0.00168468      -0.00718286       0.07314289
H       -0.44902447      -2.33515451      -1.86919600     -11.56185760       0.00035286      -0.00366033       0.00457480       0.32707575
H       -1.70295170      -3.13376646      -2.29428058     -11.84689704       0.00105179      -0.00969589       0.01359713       0.28786885
H        3.99608448       0.69677778       0.98240608     -12.15380605      -0.00619570      -0.00112007      -0.00057476       0.20040297
H        5.65815522       0.55950529       0.51800266     -12.22804394      -0.00550068       0.00259645       0.00059749       0.19230766
H        3.35161740      -1.74586271      -3.38482773     -10.87349478      -0.00366747      -0.00353321      -0.00658787       0.34047950
O        1.95101889       1.61773170       1.71329925    -114.73582591       0.01004440      -0.01194519       0.01066895      -0.57996882
H        1.47557405       0.79173154       1.85329271     -11.62749449       0.00444348      -0.01205575       0.00480525       0.30255470
H        1.52733911       2.27758349       2.26749370     -11.67183729       0.01072886      -0.00931218       0.01274859       0.29642903
44
Properties=species:S:1:pos:R:3:energies:R:1:forces:R:3:charge:R:1 product=T mapped+aligned=T onto=T reactant=T energy=-2152.9840973319847 free_energy=-2152.9840973319847 dipole="-0.2845275906222533 0.774257388170293 0.10466891136851018" pbc="F F F"
O       -2.59312766      -0.11012979      -1.21222637    -113.36935801       0.00385791      -0.00231269      -0.00065894      -0.47988554
O       -2.50437179       1.92462492       1.68466134    -113.31261432      -0.00153358       0.00379850      -0.00490327      -0.46552530
O       -1.30337529      -1.75609811       1.23524529    -112.97561961       0.00192876       0.00324161       0.00380002      -0.44291252
O       -5.07216509       2.69821341       1.15992384    -113.06163806      -0.00230432       0.00011062      -0.00820842      -0.43940052
O       -1.39591852      -2.56910671      -1.58393446    -114.79955127       0.00192384      -0.00547570       0.00993444      -0.60317952
O        1.24259567       1.92761249      -0.70075710    -113.19663773       0.00295171       0.00487759       0.00902766      -0.46097109
C       -2.63731470      -0.01947959       0.18654003     -59.11223517       0.00127141       0.00022114      -0.00077827       0.09058092
C       -3.12585756       1.40541187       0.52804611     -59.07850889      -0.00045362       0.00046909      -0.00419248       0.09179277
C       -1.29634653      -0.40630987       0.87551349     -59.31552948       0.00081096       0.00267644       0.00182676       0.08491620
C       -4.64750733       1.42410531       0.72954909     -59.24012992      -0.00068424      -0.00065608      -0.00470206       0.06023602
C       -0.06250860      -0.04747354       0.06519460     -58.22855110       0.00055029       0.00294367       0.00179785       0.07927625
C       -0.03054840       1.36907138      -0.46588379     -59.38213390       0.00211034       0.00577991       0.00721620       0.05566619
H       -3.36857146      -0.74151278       0.58775943     -13.08649200       0.00116278       0.00029367      -0.00070467       0.03600912
H       -2.87774353       2.04756888      -0.33319249     -13.08279880      -0.00055500      -0.00136761      -0.00562782       0.03844535
H       -1.25473860       0.15190604       1.81927009     -12.77797544      -0.00079224       0.00427537       0.00097621       0.07601627
H       -5.15117861       1.11347358      -0.19108878     -13.24185732      -0.00024460      -0.00379170      -0.00401543       0.03743121
H       -4.91658439       0.73922025       1.53773395     -13.01414201      -0.00003258       0.00130364      -0.00281165       0.06045328
H       -2.23597487      -0.99434812      -1.43857081     -11.33305771       0.00339378      -0.00307025       0.00164520       0.33183918
H       -3.17745975       2.45425450       2.13943579     -11.33699558      -0.00203744       0.00541828      -0.00729811       0.31695650
H       -0.60125803       2.00679156       0.21856026     -13.11941586       0.00321317       0.00455420       0.01029435       0.04654946
H       -0.54761196       1.35667700      -1.43206932     -12.85603298       0.00149243       0.01014711       0.00667298       0.07865046
H       -1.17166638      -2.27628711       0.42670439     -11.32415620       0.00197435       0.00218316       0.00431935       0.32737319
H        1.70033478       1.99357821       0.15349679     -11.49569421       0.00384034       0.00027190       0.00951881       0.31001631
H       -4.95276918       3.32794163       0.43970075     -11.56762044      -0.00296838      -0.00176056      -0.00996303       0.29415478
O        3.25731832      -1.44375604      -2.60181946    -112.33471905      -0.00471204       0.00373164      -0.00655917      -0.35206502
O        1.22757857      -2.33273823      -2.41400358    -112.51258615      -0.00218758      -0.00183922      -0.00224444      -0.42632766
O        5.37487716      -1.79286961      -0.40026829    -112.28893830      -0.00138103       0.00357601      -0.00805558      -0.42308103
N        0.78301443      -0.97599017      -0.04797429     -79.99024272      -0.00129122       0.00085740      -0.00283911      -0.23632534
N        4.71509365       0.20169865       0.41216175     -80.88180111      -0.00212699       0.00041633      -0.00075485      -0.27373305
C        2.07616432      -0.88074005      -0.66013736     -58.98949885      -0.00167216       0.00096332      -0.00386969       0.02953556
C        3.08196578      -1.55168801       0.30777080     -59.18021239      -0.00099233      -0.00037035      -0.00513889      -0.09463713
C        2.11111499      -1.63743245      -1.97109971     -58.84124598      -0.00292321       0.00085046      -0.00415998       0.36706730
C        4.50854673      -1.08459552       0.05751558     -59.18993161      -0.00144448       0.00142150      -0.00481965       0.28743611
H        2.39821900       0.14253059      -0.89084585     -12.83649216      -0.00149486       0.00109117      -0.00372292       0.07701290
H        2.79218392      -1.29251004       1.32656114     -12.99332359      -0.00094522      -0.00264697      -0.00434730       0.06982903
H        3.03023532      -2.63538406       0.20534428     -13.02082393      -0.00021919      -0.00039520      -0.00736501       0.07371131
H       -0.44836395      -2.46400702      -1.79256957     -11.56107529       0.00084961      -0.00397658       0.00531802       0.32743578
H       -1.75105656      -3.15907783      -2.25160941     -11.86132972       0.00176562      -0.01400212       0.01750560       0.28720481
H        3.99266639       0.76462491       0.82999748     -12.12691980      -0.00231915      -0.00170526       0.00191831       0.20388284
H        5.62496972       0.60549758       0.26771998     -12.23714532      -0.00255868       0.00164668      -0.00022102       0.19152226
H        3.31926052      -1.97995078      -3.40864705     -10.87637209      -0.00507413       0.00335276      -0.00665999       0.34072706
O        2.21850890       1.50821573       1.91921867    -114.73053592       0.00328435      -0.00848607       0.00726450      -0.57514099
H        1.61997852       0.78332866       2.12545506     -11.59253426       0.00116257      -0.00844724       0.00385068       0.30352725
H        2.04939405       2.20513634       2.55761968     -11.62962309       0.00540408      -0.01016958       0.01173479       0.29792904
44
Properties=species:S:1:pos:R:3:energies:R:1:forces:R:3:charge:R:1 product=T mapped+aligned=T onto=T reactant=T energy=-2152.9948521014944 free_energy=-2152.9948521014944 dipole="-0.11383697049516073 0.803758131123745 0.09026876404387166" pbc="F F F"
O       -2.48929304      -0.11785612      -1.15283535    -113.41389311       0.00087004      -0.00298354      -0.00071754      -0.48593694
O       -2.68606371       1.92125799       1.75373851    -113.28036131       0.00049219       0.00187036      -0.00393241      -0.46338446
O       -1.21527382      -1.62414351       1.44797874    -112.98096707      -0.00006456      -0.00074468      -0.00197666      -0.44153345
O       -5.20942361       2.61706760       0.90532697    -113.05378951       0.00105465       0.00196122      -0.00641544      -0.43961690
O       -1.50537112      -2.60846468      -1.66288216    -114.71430016       0.00523988      -0.00655312       0.01951946      -0.59748715
O        1.36489800       1.97282236      -0.47802926    -113.20369560       0.00178520       0.00283424       0.00793537      -0.46060812
C       -2.58587352      -0.01081503       0.24055061     -59.09701102       0.00016654      -0.00010520      -0.00088246       0.09251689
C       -3.15086163       1.39561432       0.53020186     -59.07938853       0.00076242       0.00054670      -0.00341475       0.09292630
C       -1.24702407      -0.30535740       0.98399729     -59.30266879      -0.00027281      -0.00029700      -0.00037633       0.08328552
C       -4.68515096       1.35895755       0.54416294     -59.23990270       0.00079065       0.00113503      -0.00390175       0.06064619
C       -0.02926346       0.01766442       0.14370499     -58.21905752       0.00000720       0.00114916       0.00018607       0.08109459
C        0.06307097       1.45001040      -0.33699173     -59.36448318       0.00121921       0.00281504       0.00410545       0.05876897
H       -3.29112914      -0.76011690       0.63520389     -13.07783983      -0.00061513       0.00104822       0.00007834       0.03829564
H       -2.82213901       2.05213601      -0.29270838     -13.10499869       0.00131672      -0.00075431      -0.00420938       0.03599554
H       -1.23865502       0.32828445       1.87907337     -12.77908194      -0.00075944      -0.00170774       0.00055276       0.07676889
H       -5.05813947       1.02246821      -0.42827793     -13.23326630       0.00105474      -0.00053299      -0.00339718       0.03827963
H       -5.02492324       0.66795283       1.31990192     -13.01639648       0.00032192       0.00263232      -0.00275662       0.06020907
H       -2.17526309      -1.02554391      -1.36413757     -11.32913675       0.00282974      -0.00301807       0.00231485       0.33402915
H       -3.42371784       2.42245286       2.13330562     -11.34404444       0.00097178       0.00384324      -0.00554024       0.31672749
H       -0.52835684       2.08313410       0.33550645     -13.16490418       0.00037672       0.00125507       0.00489952       0.04162101
H       -0.39685505       1.48488929      -1.33103974     -12.88208376       0.00314904       0.00566736       0.00313313       0.07565954
H       -0.93253490      -2.18533179       0.71138994     -11.31862431      -0.01309383      -0.00204164      -0.00708408       0.32364380
H        1.79068555       1.94496426       0.39507200     -11.48220725       0.00064853      -0.00103220       0.00863013       0.31131663
H       -5.02702758       3.24649113       0.19829231     -11.57953799       0.00125104       0.00057307      -0.00761237       0.29361677
O        3.12865132      -1.50483338      -2.67742023    -112.34263205      -0.00223369       0.00731970      -0.00539616      -0.35275328
O        1.17930831      -2.50590276      -2.30149405    -112.49213093      -0.00095338       0.00481564      -0.00545276      -0.42481294
O        5.30668048      -1.78081817      -0.59817533    -112.28875009      -0.00135805       0.00159967      -0.00647396      -0.42225990
N        0.75735044      -0.94967101      -0.04904867     -80.05319923      -0.00073875       0.00106195      -0.00289866      -0.23865076
N        4.73077114       0.23545726       0.22711151     -80.86171063      -0.00026108      -0.00042663      -0.00063768      -0.27087005
C        2.02896779      -0.87877836      -0.70828443     -58.97077792      -0.00100281       0.00252246      -0.00313576       0.03082442
C        3.07119428      -1.49060832       0.26220489     -59.16714683      -0.00089184       0.00015558      -0.00472368      -0.09393315
C        2.03556006      -1.72340226      -1.96513802     -58.85044059      -0.00135192       0.00508127      -0.00476618       0.36637527
C        4.48507291      -1.05307778      -0.09154641     -59.18507208      -0.00088627       0.00052407      -0.00411397       0.28755296
H        2.33384575       0.13353561      -1.00272229     -12.87203106      -0.00083174       0.00310461      -0.00099597       0.07511417
H        2.83251638      -1.15435644       1.27115802     -12.98771878      -0.00066604      -0.00190554      -0.00399830       0.07063081
H        3.00520193      -2.57827918       0.23693694     -13.02428974      -0.00126211       0.00023432      -0.00703917       0.07338964
H       -0.53707303      -2.58746600      -1.76643994     -11.58470877       0.00466387      -0.00027858       0.00923138       0.32488281
H       -1.84995696      -2.94568954      -2.49225062     -11.87663716      -0.00152321      -0.02142293       0.02700702       0.28642968
H        4.04323660       0.80858723       0.68616227     -12.12844365       0.00003068      -0.00141920       0.00104209       0.20218368
H        5.63050565       0.63008095       0.01153413     -12.22106533      -0.00026187      -0.00010076      -0.00003239       0.19261451
H        3.18825175      -2.10641214      -3.43707309     -10.86961593      -0.00239486       0.00875601      -0.00653260       0.34118904
O        2.27431801       1.37237692       2.12459632    -114.73133842       0.00061766      -0.00545709       0.00629227      -0.57548409
H        1.63569934       0.68843254       2.34883797     -11.59758403      -0.00037672      -0.00521232       0.00552406       0.30303014
H        2.22358543       2.04228438       2.81054773     -11.62791846       0.00217967      -0.00651273       0.00796257       0.29771244
44
Properties=species:S:1:pos:R:3:energies:R:1:forces:R:3:charge:R:1 product=T mapped+aligned=T onto=T reactant=T charge=0 multiplicity=1 energy=-2152.9322266192876 free_energy=-2152.9322266192876 dipole="-0.08426346217726775 0.8463200427654726 0.02793520970212737" pbc="F F F"
O       -2.53744344      -0.06844947      -1.12372584    -113.40926349       0.00434813      -0.00151498      -0.00172861      -0.48478816
O       -2.66865315       1.89878559       1.83539930    -113.28559901       0.00015190       0.00329410      -0.00561462      -0.46344409
O       -1.19450251      -1.59220788       1.48732502    -112.99609282       0.00141758       0.00232498       0.00135432      -0.44437455
O       -5.20671555       2.59869463       1.07001931    -113.05426605      -0.00121979      -0.00127686      -0.00626961      -0.43940420
O       -1.57146900      -2.46943902      -1.96710894    -114.64244899      -0.00143653      -0.00983455       0.01665282      -0.59233710
O        1.30307497       1.91287430      -0.74302253    -113.18348159       0.00486314       0.00361857       0.01199799      -0.45721692
C       -2.58793508      -0.00035391       0.27329182     -59.10291162       0.00159561       0.00042195      -0.00191856       0.09281915
C       -3.15561679       1.39662064       0.61071968     -59.07145313       0.00024203       0.00040362      -0.00445006       0.09259251
C       -1.22663922      -0.28730554       0.98102630     -59.28946803       0.00068998       0.00151044       0.00031007       0.08201347
C       -4.68903177       1.35525767       0.65241572     -59.24471519       0.00033335      -0.00147121      -0.00350217       0.06043577
C       -0.02098188      -0.00217145       0.11267756     -58.23688516       0.00100191       0.00181750       0.00087714       0.08015761
C        0.02213487       1.37943876      -0.49926153     -59.37287083       0.00343052       0.00371433       0.00524749       0.05894174
H       -3.27107493      -0.76578215       0.67370930     -13.05418119       0.00124484       0.00063150      -0.00237565       0.04174475
H       -2.84609927       2.07391116      -0.20287220     -13.10000361      -0.00079492      -0.00095359      -0.00592695       0.03612004
H       -1.19124332       0.38151660       1.85193042     -12.74234068      -0.00078521       0.00153110       0.00000285       0.07790079
H       -5.07967288       1.05499613      -0.32483802     -13.22596144       0.00018840      -0.00437631      -0.00249472       0.03907772
H       -5.01417289       0.63566759       1.40799911     -13.01462976       0.00174909      -0.00001280      -0.00156312       0.06054336
H       -2.24574963      -0.97024211      -1.38685452     -11.31691442       0.00328312      -0.00271876       0.00115168       0.33570663
H       -3.40988509       2.35967895       2.25679933     -11.33555205       0.00010151       0.00440844      -0.00691386       0.31734307
H       -0.55623865       2.05850552       0.13888920     -13.15600125       0.00125398       0.00194826       0.00515185       0.04164538
H       -0.48386392       1.31619138      -1.46931588     -12.81821027       0.00740338       0.00686280       0.00306057       0.08220056
H       -0.70557859      -2.13491164       0.85062911     -11.33281283      -0.01045339      -0.00156800      -0.00570530       0.32065119
H        1.75366092       2.00151661       0.11277151     -11.46518720       0.00245243      -0.00185511       0.01385829       0.31125071
H       -5.03239987       3.25591141       0.38650659     -11.57625187      -0.00260068      -0.00278448      -0.00802672       0.29367529
O        3.18869745      -1.60859034      -2.57127409    -112.34570617      -0.00270455       0.00295747      -0.00521158      -0.35272752
O        1.19066553      -2.52495822      -2.22944046    -112.49940847      -0.00492933       0.00715836      -0.00701551      -0.42553237
O        5.38003938      -1.77254387      -0.43971696    -112.28189057      -0.00082464       0.00266280      -0.00391856      -0.42112781
N        0.80177675      -0.95705352       0.02555020     -80.15962392      -0.00079785       0.00088146      -0.00332538      -0.24807708
N        4.72200143       0.23835388       0.33599832     -80.88341643      -0.00159973      -0.00055981       0.00059988      -0.27279785
C        2.07677991      -0.92294077      -0.63089307     -58.96860555      -0.00133084       0.00184369      -0.00414865       0.03057780
C        3.11136512      -1.53649848       0.34613943     -59.17157704      -0.00115298       0.00017101      -0.00584993      -0.09461693
C        2.07249127      -1.77755802      -1.88164469     -58.84374016      -0.00270495       0.00459278      -0.00550542       0.36667538
C        4.52320848      -1.06138090       0.03009763     -59.18076915      -0.00131487       0.00110802      -0.00301899       0.28752168
H        2.39630733       0.07958704      -0.94104774     -12.84144456      -0.00121410       0.00228586      -0.00255181       0.07747355
H        2.84917271      -1.23159660       1.35958254     -12.99621813      -0.00184937      -0.00278639      -0.00600684       0.06930499
H        3.07348993      -2.62476359       0.29681232     -13.03757511      -0.00051707       0.00103457      -0.00868838       0.07206325
H       -0.60389637      -2.54252327      -1.91627094     -11.60601889       0.00323197      -0.00055670       0.00417709       0.32262181
H       -1.79318819      -2.56857041      -2.89513813     -11.87578872      -0.01290482      -0.02405423       0.01785981       0.28632705
H        4.00804426       0.79960583       0.77012455     -12.11848868      -0.00183912      -0.00195710       0.00130786       0.20379844
H        5.61880086       0.65215779       0.14541160     -12.22124880      -0.00154104      -0.00027688       0.00284287       0.19261564
H        3.23806547      -2.21145956      -3.33048999     -10.86623307      -0.00413019       0.00470626      -0.00654937       0.34108668
O        2.18197496       1.43715249       1.90575393    -114.75846762       0.00484410      -0.00293280       0.01004874      -0.57834494
H        1.59631748       0.68257573       2.02838128     -11.60899549       0.00481139       0.00104518       0.01482177       0.30256082
H        1.98398494       2.06229906       2.60695646     -11.63950761       0.01000762      -0.00144448       0.00695730       0.29734267
