44
Properties=species:S:1:pos:R:3 product=T mapped+aligned=T onto=T reactant=T pbc="F F F"
O       -2.99928350       0.15268938      -1.45889703
O       -2.70268294       1.18351058       1.97219810
O       -1.63483773      -2.09392822      -0.10344669
O       -5.10898531       2.52923982       1.42645842
O       -0.16926801      -0.55549003      -1.72136844
O        0.89089364       1.93997827      -1.00003052
C       -2.88014556      -0.11007565      -0.08455951
C       -3.23456155       1.18450226       0.66789706
C       -1.51492446      -0.74135609       0.27053569
C       -4.76051672       1.36467908       0.71160193
C       -0.25371408      -0.12070247      -0.38421166
C       -0.26044639       1.42130267      -0.38122229
H       -3.60874366      -0.88390555       0.21220808
H       -2.82001792       2.03626143       0.10655695
H       -1.40237429      -0.65650907       1.36336808
H       -5.14464180       1.38020842      -0.31273838
H       -5.21961295       0.53766320       1.25807852
H       -2.63743846      -0.61893286      -1.91632732
H       -3.30387863       1.71803109       2.51332437
H       -0.38878651       1.78416175       0.64237057
H       -1.10005385       1.74697894      -0.99802810
H       -0.78166293      -2.45867439      -0.39749093
H        1.61838956       1.95396945      -0.35615865
H       -4.89084199       3.30442623       0.89691614
O        2.40152867      -2.21324118      -2.40200576
O        0.94495124      -3.07596296      -0.94036761
O        5.25441995      -2.04046382      -0.56098856
N        0.90914271      -0.59513529       0.40849638
N        4.88820862       0.11691727      -0.01359345
C        2.06115689      -1.01832912      -0.38326127
C        3.19281730      -1.47138897       0.56091835
C        1.71468916      -2.20799656      -1.27182973
C        4.55373289      -1.18857857      -0.06792746
H        2.39659627      -0.19074484      -1.01433354
H        3.12175065      -0.92454982       1.50056064
H        3.10086946      -2.53816770       0.76925284
H        0.62253487      -1.40092148       0.96147632
H        0.24303837       0.15735342      -2.23131664
H        4.27516716       0.80444769       0.39652565
H        5.76202166       0.41352171      -0.41426097
H        2.23690376      -3.01906787      -2.91795732
O        2.47957228       1.55992017       1.31121934
H        1.84644129       0.81776830       1.24698881
H        2.30259484       2.01658940       2.13537159
44
Properties=species:S:1:pos:R:3 product=T mapped+aligned=T onto=T reactant=T pbc="F F F"
O       -2.99928350       0.15268938      -1.45889703
O       -2.70268294       1.18351058       1.97219810
O       -1.63483773      -2.09392822      -0.10344669
O       -5.10898531       2.52923982       1.42645842
O       -0.29948540      -0.73000179      -1.74082257
O        0.89089364       1.93997827      -1.00003052
C       -2.88014556      -0.11007565      -0.08455951
C       -3.23456155       1.18450226       0.66789706
C       -1.51492446      -0.74135609       0.27053569
C       -4.76051672       1.36467908       0.71160193
C       -0.25371408      -0.12070247      -0.38421166
C       -0.26044639       1.42130267      -0.38122229
H       -3.60874366      -0.88390555       0.21220808
H       -2.82001792       2.03626143       0.10655695
H       -1.40237429      -0.65650907       1.36336808
H       -5.14464180       1.38020842      -0.31273838
H       -5.21961295       0.53766320       1.25807852
H       -2.63743846      -0.61893286      -1.91632732
H       -3.30387863       1.71803109       2.51332437
H       -0.38878651       1.78416175       0.64237057
H       -1.10005385       1.74697894      -0.99802810
H       -0.78166293      -2.45867439      -0.39749093
H        1.61838956       1.95396945      -0.35615865
H       -4.89084199       3.30442623       0.89691614
O        2.38574757      -2.20680267      -2.41276358
O        0.92917014      -3.06952445      -0.95112543
O        5.23863885      -2.03402531      -0.57174638
N        0.89336161      -0.58869678       0.39773856
N        4.87242752       0.12335578      -0.02435127
C        2.04537579      -1.01189061      -0.39401909
C        3.17703620      -1.46495046       0.55016053
C        1.69890806      -2.20155805      -1.28258755
C        4.53795179      -1.18214006      -0.07868528
H        2.38081517      -0.18430633      -1.02509136
H        3.10596955      -0.91811131       1.48980282
H        3.08508836      -2.53172919       0.75849502
H        0.39207527      -0.64807931      -0.50097810
H        0.11128779      -0.01980911      -2.24887448
H        4.25938606       0.81088620       0.38576783
H        5.74624056       0.41996022      -0.42501879
H        2.22112266      -3.01262936      -2.92871514
O        2.47957228       1.55992017       1.31121934
H        1.84644129       0.81776830       1.24698881
H        2.30259484       2.01658940       2.13537159
44
Properties=species:S:1:pos:R:3 product=T mapped+aligned=T onto=T reactant=T pbc="F F F"
O       -2.99928350       0.15268938      -1.45889703
O       -2.70268294       1.18351058       1.97219810
O       -1.63483773      -2.09392822      -0.10344669
O       -5.10898531       2.52923982       1.42645842
O       -0.42970278      -0.90451355      -1.76027670
O        0.89089364       1.93997827      -1.00003052
C       -2.88014556      -0.11007565      -0.08455951
C       -3.23456155       1.18450226       0.66789706
C       -1.51492446      -0.74135609       0.27053569
C       -4.76051672       1.36467908       0.71160193
C       -0.25371408      -0.12070247      -0.38421166
C       -0.26044639       1.42130267      -0.38122229
H       -3.60874366      -0.88390555       0.21220808
H       -2.82001792       2.03626143       0.10655695
H       -1.40237429      -0.65650907       1.36336808
H       -5.14464180       1.38020842      -0.31273838
H       -5.21961295       0.53766320       1.25807852
H       -2.63743846      -0.61893286      -1.91632732
H       -3.30387863       1.71803109       2.51332437
H       -0.38878651       1.78416175       0.64237057
H       -1.10005385       1.74697894      -0.99802810
H       -0.78166293      -2.45867439      -0.39749093
H        1.61838956       1.95396945      -0.35615865
H       -4.89084199       3.30442623       0.89691614
O        2.36996648      -2.20036415      -2.42352140
O        0.91338905      -3.06308593      -0.96188325
O        5.22285776      -2.02758679      -0.58250420
N        0.87758052      -0.58225826       0.38698074
N        4.85664643       0.12979430      -0.03510909
C        2.02959470      -1.00545209      -0.40477691
C        3.16125511      -1.45851194       0.53940271
C        1.68312697      -2.19511953      -1.29334537
C        4.52217070      -1.17570154      -0.08944310
H        2.36503408      -0.17786781      -1.03584918
H        3.09018846      -0.91167279       1.47904500
H        3.06930727      -2.52529067       0.74773720
H        0.32698775      -0.71798357      -0.51738666
H       -0.01892960      -0.19432087      -2.26832861
H        4.24360497       0.81732472       0.37501001
H        5.73045947       0.42639874      -0.43577661
H        2.20534157      -3.00619084      -2.93947296
O        2.47957228       1.55992017       1.31121934
H        1.84644129       0.81776830       1.24698881
H        2.30259484       2.01658940       2.13537159
44
Properties=species:S:1:pos:R:3 product=T mapped+aligned=T onto=T reactant=T pbc="F F F"
O       -2.99928350       0.15268938      -1.45889703
O       -2.70268294       1.18351058       1.97219810
O       -1.63483773      -2.09392822      -0.10344669
O       -5.10898531       2.52923982       1.42645842
O       -0.55992017      -1.07902530      -1.77973082
O        0.89089364       1.93997827      -1.00003052
C       -2.88014556      -0.11007565      -0.08455951
C       -3.23456155       1.18450226       0.66789706
C       -1.51492446      -0.74135609       0.27053569
C       -4.76051672       1.36467908       0.71160193
C       -0.25371408      -0.12070247      -0.38421166
C       -0.26044639       1.42130267      -0.38122229
H       -3.60874366      -0.88390555       0.21220808
H       -2.82001792       2.03626143       0.10655695
H       -1.40237429      -0.65650907       1.36336808
H       -5.14464180       1.38020842      -0.31273838
H       -5.21961295       0.53766320       1.25807852
H       -2.63743846      -0.61893286      -1.91632732
H       -3.30387863       1.71803109       2.51332437
H       -0.38878651       1.78416175       0.64237057
H       -1.10005385       1.74697894      -0.99802810
H       -0.78166293      -2.45867439      -0.39749093
H        1.61838956       1.95396945      -0.35615865
H       -4.89084199       3.30442623       0.89691614
O        2.35418538      -2.19392564      -2.43427921
O        0.89760795      -3.05664742      -0.97264106
O        5.20707666      -2.02114828      -0.59326201
N        0.86179942      -0.57581975       0.37622293
N        4.84086533       0.13623281      -0.04586690
C        2.01381360      -0.99901358      -0.41553472
C        3.14547401      -1.45207343       0.52864490
C        1.66734587      -2.18868102      -1.30410318
C        4.50638960      -1.16926303      -0.10020091
H        2.34925298      -0.17142930      -1.04660699
H        3.07440736      -0.90523428       1.46828719
H        3.05352617      -2.51885216       0.73697939
H        0.24739372      -0.79328342      -0.55548701
H       -0.14914699      -0.36883262      -2.28778274
H        4.22782387       0.82376323       0.36425220
H        5.71467837       0.43283725      -0.44653442
H        2.18956047      -2.99975233      -2.95023077
O        2.47957228       1.55992017       1.31121934
H        1.84644129       0.81776830       1.24698881
H        2.30259484       2.01658940       2.13537159
44
Properties=species:S:1:pos:R:3 product=T mapped+aligned=T onto=T reactant=T pbc="F F F"
O       -2.99928350       0.15268938      -1.45889703
O       -2.70268294       1.18351058       1.97219810
O       -1.63483773      -2.09392822      -0.10344669
O       -5.10898531       2.52923982       1.42645842
O       -0.69013756      -1.25353706      -1.79918495
O        0.89089364       1.93997827      -1.00003052
C       -2.88014556      -0.11007565      -0.08455951
C       -3.23456155       1.18450226       0.66789706
C       -1.51492446      -0.74135609       0.27053569
C       -4.76051672       1.36467908       0.71160193
C       -0.25371408      -0.12070247      -0.38421166
C       -0.26044639       1.42130267      -0.38122229
H       -3.60874366      -0.88390555       0.21220808
H       -2.82001792       2.03626143       0.10655695
H       -1.40237429      -0.65650907       1.36336808
H       -5.14464180       1.38020842      -0.31273838
H       -5.21961295       0.53766320       1.25807852
H       -2.63743846      -0.61893286      -1.91632732
H       -3.30387863       1.71803109       2.51332437
H       -0.38878651       1.78416175       0.64237057
H       -1.10005385       1.74697894      -0.99802810
H       -0.78166293      -2.45867439      -0.39749093
H        1.61838956       1.95396945      -0.35615865
H       -4.89084199       3.30442623       0.89691614
O        2.33840429      -2.18748712      -2.44503703
O        0.88182686      -3.05020890      -0.98339888
O        5.19129557      -2.01470976      -0.60401983
N        0.84601833      -0.56938123       0.36546511
N        4.82508424       0.14267133      -0.05662472
C        1.99803251      -0.99257506      -0.42629254
C        3.12969292      -1.44563491       0.51788708
C        1.65156478      -2.18224250      -1.31486100
C        4.49060851      -1.16282451      -0.11095873
H        2.33347189      -0.16499078      -1.05736481
H        3.05862627      -0.89879576       1.45752937
H        3.03774508      -2.51241364       0.72622157
H        0.14789310      -0.88030440      -0.61828715
H       -0.27936437      -0.54334438      -2.30723687
H        4.21204278       0.83020175       0.35349438
H        5.69889728       0.43927577      -0.45729224
H        2.17377938      -2.99331381      -2.96098859
O        2.47957228       1.55992017       1.31121934
H        1.84644129       0.81776830       1.24698881
H        2.30259484       2.01658940       2.13537159
44
Properties=species:S:1:pos:R:3 product=T mapped+aligned=T onto=T reactant=T pbc="F F F"
O       -2.99928350       0.15268938      -1.45889703
O       -2.70268294       1.18351058       1.97219810
O       -1.63483773      -2.09392822      -0.10344669
O       -5.10898531       2.52923982       1.42645842
O       -0.82035494      -1.42804882      -1.81863908
O        0.89089364       1.93997827      -1.00003052
C       -2.88014556      -0.11007565      -0.08455951
C       -3.23456155       1.18450226       0.66789706
C       -1.51492446      -0.74135609       0.27053569
C       -4.76051672       1.36467908       0.71160193
C       -0.25371408      -0.12070247      -0.38421166
C       -0.26044639       1.42130267      -0.38122229
H       -3.60874366      -0.88390555       0.21220808
H       -2.82001792       2.03626143       0.10655695
H       -1.40237429      -0.65650907       1.36336808
H       -5.14464180       1.38020842      -0.31273838
H       -5.21961295       0.53766320       1.25807852
H       -2.63743846      -0.61893286      -1.91632732
H       -3.30387863       1.71803109       2.51332437
H       -0.38878651       1.78416175       0.64237057
H       -1.10005385       1.74697894      -0.99802810
H       -0.78166293      -2.45867439      -0.39749093
H        1.61838956       1.95396945      -0.35615865
H       -4.89084199       3.30442623       0.89691614
O        2.32262319      -2.18104861      -2.45579485
O        0.86604576      -3.04377039      -0.99415670
O        5.17551447      -2.00827125      -0.61477765
N        0.83023723      -0.56294272       0.35470729
N        4.80930314       0.14910984      -0.06738254
C        1.98225141      -0.98613655      -0.43705036
C        3.11391182      -1.43919640       0.50712926
C        1.63578368      -2.17580399      -1.32561882
C        4.47482741      -1.15638600      -0.12171655
H        2.31769079      -0.15855227      -1.06812263
H        3.04284517      -0.89235725       1.44677155
H        3.02196398      -2.50597513       0.71546375
H        0.02474718      -0.98511506      -0.70588715
H       -0.40958176      -0.71785614      -2.32669100
H        4.19626168       0.83664026       0.34273656
H        5.68311618       0.44571428      -0.46805006
H        2.15799828      -2.98687530      -2.97174641
O        2.47957228       1.55992017       1.31121934
H        1.84644129       0.81776830       1.24698881
H        2.30259484       2.01658940       2.13537159
44
Properties=species:S:1:pos:R:3 product=T mapped+aligned=T onto=T reactant=T pbc="F F F"
O       -2.99928350       0.15268938      -1.45889703
O       -2.70268294       1.18351058       1.97219810
O       -1.63483773      -2.09392822      -0.10344669
O       -5.10898531       2.52923982       1.42645842
O       -0.95057233      -1.60256058      -1.83809321
O        0.89089364       1.93997827      -1.00003052
C       -2.88014556      -0.11007565      -0.08455951
C       -3.23456155       1.18450226       0.66789706
C       -1.51492446      -0.74135609       0.27053569
C       -4.76051672       1.36467908       0.71160193
C       -0.25371408      -0.12070247      -0.38421166
C       -0.26044639       1.42130267      -0.38122229
H       -3.60874366      -0.88390555       0.21220808
H       -2.82001792       2.03626143       0.10655695
H       -1.40237429      -0.65650907       1.36336808
H       -5.14464180       1.38020842      -0.31273838
H       -5.21961295       0.53766320       1.25807852
H       -2.63743846      -0.61893286      -1.91632732
H       -3.30387863       1.71803109       2.51332437
H       -0.38878651       1.78416175       0.64237057
H       -1.10005385       1.74697894      -0.99802810
H       -0.78166293      -2.45867439      -0.39749093
H        1.61838956       1.95396945      -0.35615865
H       -4.89084199       3.30442623       0.89691614
O        2.30684209      -2.17461009      -2.46655267
O        0.85026466      -3.03733187      -1.00491452
O        5.15973337      -2.00183273      -0.62553547
N        0.81445613      -0.55650420       0.34394947
N        4.79352204       0.15554836      -0.07814036
C        1.96647031      -0.97969803      -0.44780818
C        3.09813072      -1.43275788       0.49637144
C        1.62000258      -2.16936547      -1.33637664
C        4.45904631      -1.14994748      -0.13247437
H        2.30190969      -0.15211375      -1.07888045
H        3.02706407      -0.88591873       1.43601373
H        3.00618288      -2.49953661       0.70470593
H       -0.12306520      -1.11213273      -0.81507521
H       -0.53979914      -0.89236790      -2.34614512
H        4.18048058       0.84307878       0.33197874
H        5.66733508       0.45215280      -0.47880788
H        2.14221718      -2.98043678      -2.98250423
O        2.47957228       1.55992017       1.31121934
H        1.84644129       0.81776830       1.24698881
H        2.30259484       2.01658940       2.13537159
44
Properties=species:S:1:pos:R:3 product=T mapped+aligned=T onto=T reactant=T pbc="F F F"
O       -2.99928350       0.15268938      -1.45889703
O       -2.70268294       1.18351058       1.97219810
O       -1.63483773      -2.09392822      -0.10344669
O       -5.10898531       2.52923982       1.42645842
O       -1.08078971      -1.77707234      -1.85754734
O        0.89089364       1.93997827      -1.00003052
C       -2.88014556      -0.11007565      -0.08455951
C       -3.23456155       1.18450226       0.66789706
C       -1.51492446      -0.74135609       0.27053569
C       -4.76051672       1.36467908       0.71160193
C       -0.25371408      -0.12070247      -0.38421166
C       -0.26044639       1.42130267      -0.38122229
H       -3.60874366      -0.88390555       0.21220808
H       -2.82001792       2.03626143       0.10655695
H       -1.40237429      -0.65650907       1.36336808
H       -5.14464180       1.38020842      -0.31273838
H       -5.21961295       0.53766320       1.25807852
H       -2.63743846      -0.61893286      -1.91632732
H       -3.30387863       1.71803109       2.51332437
H       -0.38878651       1.78416175       0.64237057
H       -1.10005385       1.74697894      -0.99802810
H       -0.78166293      -2.45867439      -0.39749093
H        1.61838956       1.95396945      -0.35615865
H       -4.89084199       3.30442623       0.89691614
O        2.29106100      -2.16817158      -2.47731049
O        0.83448357      -3.03089336      -1.01567234
O        5.14395228      -1.99539422      -0.63629329
N        0.79867504      -0.55006569       0.33319165
N        4.77774095       0.16198687      -0.08889818
C        1.95068922      -0.97325952      -0.45856600
C        3.08234963      -1.42631937       0.48561362
C        1.60422149      -2.16292696      -1.34713446
C        4.44326522      -1.14350897      -0.14323219
H        2.28612860      -0.14567524      -1.08963827
H        3.01128298      -0.87948022       1.42525591
H        2.99040179      -2.49309810       0.69394811
H       -0.29307448      -1.26281325      -0.93937185
H       -0.67001653      -1.06687966      -2.36559925
H        4.16469949       0.84951729       0.32122092
H        5.65155399       0.45859131      -0.48956570
H        2.12643609      -2.97399827      -2.99326205
O        2.47957228       1.55992017       1.31121934
H        1.84644129       0.81776830       1.24698881
H        2.30259484       2.01658940       2.13537159
44
Properties=species:S:1:pos:R:3 product=T mapped+aligned=T onto=T reactant=T pbc="F F F"
O       -2.99928350       0.15268938      -1.45889703
O       -2.70268294       1.18351058       1.97219810
O       -1.63483773      -2.09392822      -0.10344669
O       -5.10898531       2.52923982       1.42645842
O       -1.21100710      -1.95158410      -1.87700147
O        0.89089364       1.93997827      -1.00003052
C       -2.88014556      -0.11007565      -0.08455951
C       -3.23456155       1.18450226       0.66789706
C       -1.51492446      -0.74135609       0.27053569
C       -4.76051672       1.36467908       0.71160193
C       -0.25371408      -0.12070247      -0.38421166
C       -0.26044639       1.42130267      -0.38122229
H       -3.60874366      -0.88390555       0.21220808
H       -2.82001792       2.03626143       0.10655695
H       -1.40237429      -0.65650907       1.36336808
H       -5.14464180       1.38020842      -0.31273838
H       -5.21961295       0.53766320       1.25807852
H       -2.63743846      -0.61893286      -1.91632732
H       -3.30387863       1.71803109       2.51332437
H       -0.38878651       1.78416175       0.64237057
H       -1.10005385       1.74697894      -0.99802810
H       -0.78166293      -2.45867439      -0.39749093
H        1.61838956       1.95396945      -0.35615865
H       -4.89084199       3.30442623       0.89691614
O        2.27527990      -2.16173307      -2.48806830
O        0.81870247      -3.02445485      -1.02643015
O        5.12817118      -1.98895571      -0.64705110
N        0.78289394      -0.54362718       0.32243384
N        4.76195985       0.16842538      -0.09965599
C        1.93490812      -0.96682101      -0.46932381
C        3.06656853      -1.41988086       0.47485581
C        1.58844039      -2.15648845      -1.35789227
C        4.42748412      -1.13707046      -0.15399000
H        2.27034750      -0.13923673      -1.10039608
H        2.99550188      -0.87304171       1.41449810
H        2.97462069      -2.48665959       0.68319030
H       -0.47881303      -1.43455858      -1.06933175
H       -0.80023392      -1.24139141      -2.38505338
H        4.14891839       0.85595580       0.31046311
H        5.63577289       0.46502982      -0.50032351
H        2.11065499      -2.96755976      -3.00401986
O        2.47957228       1.55992017       1.31121934
H        1.84644129       0.81776830       1.24698881
H        2.30259484       2.01658940       2.13537159
44
Properties=species:S:1:pos:R:3 product=T mapped+aligned=T onto=T reactant=T pbc="F F F"
O       -2.99928350       0.15268938      -1.45889703
O       -2.70268294       1.18351058       1.97219810
O       -1.63483773      -2.09392822      -0.10344669
O       -5.10898531       2.52923982       1.42645842
O       -1.34122449      -2.12609585      -1.89645559
O        0.89089364       1.93997827      -1.00003052
C       -2.88014556      -0.11007565      -0.08455951
C       -3.23456155       1.18450226       0.66789706
C       -1.51492446      -0.74135609       0.27053569
C       -4.76051672       1.36467908       0.71160193
C       -0.25371408      -0.12070247      -0.38421166
C       -0.26044639       1.42130267      -0.38122229
H       -3.60874366      -0.88390555       0.21220808
H       -2.82001792       2.03626143       0.10655695
H       -1.40237429      -0.65650907       1.36336808
H       -5.14464180       1.38020842      -0.31273838
H       -5.21961295       0.53766320       1.25807852
H       -2.63743846      -0.61893286      -1.91632732
H       -3.30387863       1.71803109       2.51332437
H       -0.38878651       1.78416175       0.64237057
H       -1.10005385       1.74697894      -0.99802810
H       -0.78166293      -2.45867439      -0.39749093
H        1.61838956       1.95396945      -0.35615865
H       -4.89084199       3.30442623       0.89691614
O        2.25949880      -2.15529455      -2.49882612
O        0.80292137      -3.01801633      -1.03718797
O        5.11239008      -1.98251719      -0.65780892
N        0.76711284      -0.53718866       0.31167602
N        4.74617875       0.17486390      -0.11041381
C        1.91912702      -0.96038249      -0.48008163
C        3.05078743      -1.41344234       0.46409799
C        1.57265929      -2.15004993      -1.36865009
C        4.41170302      -1.13063194      -0.16474782
H        2.25456640      -0.13279821      -1.11115390
H        2.97972078      -0.86660319       1.40374028
H        2.95883959      -2.48022107       0.67243248
H       -0.66951741      -1.61987695      -1.19295449
H       -0.93045130      -1.41590317      -2.40450751
H        4.13313729       0.86239432       0.29970529
H        5.61999179       0.47146834      -0.51108133
H        2.09487389      -2.96112124      -3.01477768
O        2.47957228       1.55992017       1.31121934
H        1.84644129       0.81776830       1.24698881
H        2.30259484       2.01658940       2.13537159
44
Properties=species:S:1:pos:R:3 product=T mapped+aligned=T onto=T reactant=T pbc="F F F"
O       -2.99928350       0.15268938      -1.45889703
O       -2.70268294       1.18351058       1.97219810
O       -1.63483773      -2.09392822      -0.10344669
O       -5.10898531       2.52923982       1.42645842
O       -1.47144187      -2.30060761      -1.91590972
O        0.89089364       1.93997827      -1.00003052
C       -2.88014556      -0.11007565      -0.08455951
C       -3.23456155       1.18450226       0.66789706
C       -1.51492446      -0.74135609       0.27053569
C       -4.76051672       1.36467908       0.71160193
C       -0.25371408      -0.12070247      -0.38421166
C       -0.26044639       1.42130267      -0.38122229
H       -3.60874366      -0.88390555       0.21220808
H       -2.82001792       2.03626143       0.10655695
H       -1.40237429      -0.65650907       1.36336808
H       -5.14464180       1.38020842      -0.31273838
H       -5.21961295       0.53766320       1.25807852
H       -2.63743846      -0.61893286      -1.91632732
H       -3.30387863       1.71803109       2.51332437
H       -0.38878651       1.78416175       0.64237057
H       -1.10005385       1.74697894      -0.99802810
H       -0.78166293      -2.45867439      -0.39749093
H        1.61838956       1.95396945      -0.35615865
H       -4.89084199       3.30442623       0.89691614
O        2.24371771      -2.14885604      -2.50958394
O        0.78714028      -3.01157782      -1.04794579
O        5.09660899      -1.97607868      -0.66856674
N        0.75133175      -0.53075015       0.30091820
N        4.73039766       0.18130241      -0.12117163
C        1.90334593      -0.95394398      -0.49083945
C        3.03500634      -1.40700383       0.45334017
C        1.55687820      -2.14361142      -1.37940791
C        4.39592193      -1.12419343      -0.17550564
H        2.23878531      -0.12635970      -1.12191172
H        2.96393969      -0.86016468       1.39298246
H        2.94305850      -2.47378256       0.66167466
H       -0.84997801      -1.80577429      -1.29610821
H       -1.06066869      -1.59041493      -2.42396164
H        4.11735620       0.86883283       0.28894747
H        5.60421070       0.47790685      -0.52183915
H        2.07909280      -2.95468273      -3.02553550
O        2.47957228       1.55992017       1.31121934
H        1.84644129       0.81776830       1.24698881
H        2.30259484       2.01658940       2.13537159
44
Properties=species:S:1:pos:R:3 product=T mapped+aligned=T onto=T reactant=T charge=0 multiplicity=1 pbc="F F F"
O       -2.55026293      -0.06635048      -1.09445005
O       -2.64149791       1.91763967       1.85497543
O       -1.18262395      -1.58003598       1.50963068
O       -5.18583673       2.62161574       1.11457176
O       -1.60165926      -2.47511937      -1.93536385
O        1.30068176       1.90445658      -0.76840551
C       -2.58464827       0.00963550       0.30265000
C       -3.14396549       1.41030708       0.63871749
C       -1.21632248      -0.27785549       0.99647218
C       -4.67693225       1.37419895       0.69804770
C       -0.01970626      -0.00147949       0.11291883
C        0.02088875       1.37657650      -0.50715294
H       -3.26564695      -0.75132443       0.71505196
H       -2.84154399       2.08206995      -0.18209380
H       -1.16887807       0.39565355       1.86318119
H       -5.07962211       1.06981847      -0.27302168
H       -4.99577171       0.65986775       1.46126800
H       -2.26447860      -0.97053534      -1.35584823
H       -3.37640602       2.38328236       2.28219015
H       -0.54800690       2.06105334       0.13373171
H       -0.49630738       1.30962302      -1.47103356
H       -0.70271699      -2.12785156       0.87045695
H        1.76125138       1.99635407       0.08171159
H       -5.01719314       3.27446762       0.42547579
O        3.15407143      -1.63322393      -2.59831056
O        1.15712140      -2.54113687      -2.22872085
O        5.36896929      -1.79256387      -0.49088696
N        0.79893638      -0.95951901       0.02177486
N        4.72625791       0.22473825       0.28104060
C        2.06649642      -0.93321436      -0.64927961
C        3.11014691      -1.54474501       0.31934625
C        2.04524133      -1.79471739      -1.89512447
C        4.51982485      -1.07601028      -0.01534266
H        2.38569612       0.06653062      -0.96861833
H        2.86047520      -1.23338549       1.33398719
H        3.06821704      -2.63313637       0.27651198
H       -0.63381095      -2.55109065      -1.89510683
H       -1.83423310      -2.57865498      -2.86025000
H        4.01908981       0.79071849       0.72011214
H        5.62215729       0.63454168       0.07798485
H        3.19286681      -2.24044138      -3.35466971
O        2.20810837       1.44051484       1.87283060
H        1.62146166       0.68855046       2.00629761
H        2.02011332       2.07017521       2.57274413
