44
Properties=species:S:1:pos:R:3 product=T mapped+aligned=T onto=T reactant=T pbc="F F F"
O       -3.22093330      -0.11583514      -0.90753785
O       -2.04390656       1.70334191       1.98832648
O       -1.53785230      -2.02947961       1.07576473
O       -4.36863731       3.11097216       1.62414903
O       -1.14583343      -1.74576916      -1.45107864
O        0.78915455       1.35986580      -1.26557423
C       -2.74276375      -0.04962036       0.41399032
C       -2.80910918       1.43355715       0.82977343
C       -1.35859856      -0.70747543       0.63101763
C       -4.27381899       1.81651946       1.07666150
C       -0.43752911      -0.78449018      -0.62587101
C       -0.29781368       0.50896355      -1.47641961
H       -3.42051121      -0.61460058       1.07682464
H       -2.41820842       2.04858265       0.00408778
H       -0.86281790      -0.19771697       1.45936311
H       -4.83865099       1.71143376       0.14596324
H       -4.69922180       1.14705608       1.82880798
H       -2.80314544      -0.88192019      -1.33275859
H       -2.59402110       2.26381187       2.55743095
H       -1.24010871       1.05959039      -1.40573447
H       -0.19553320       0.15909951      -2.50787683
H       -1.66292338      -2.56419325       0.27766942
H        0.71491983       1.81169132      -0.40007539
H       -4.14693271       3.75846321       0.94562179
O        3.46554432      -0.68803283      -2.42100010
O        1.59746563      -1.89366087      -2.58773751
O        5.38975757      -1.93480505      -0.36832171
N        0.78487400      -1.40518611      -0.13026158
N        4.89887673      -0.06204019       0.76620774
C        2.11990294      -0.93785278      -0.46218149
C        3.13178271      -1.68949743       0.42925397
C        2.36730432      -1.22854608      -1.93393058
C        4.57779039      -1.25338855       0.21198979
H        2.23547158       0.13602072      -0.30067763
H        2.85443294      -1.52800241       1.47201846
H        3.07122917      -2.75738177       0.21798512
H        0.69697059      -2.35915203      -0.48798566
H       -0.60758101      -2.09691064      -2.17754675
H        4.22542788       0.53362499       1.21224352
H        5.83261491       0.29088792       0.63275049
H        3.58169711      -0.93349685      -3.35295343
O        0.66622735       2.12423825       1.35997156
H        0.99701120       1.31317305       1.75286477
H       -0.27200168       2.16815874       1.60478766
44
Properties=species:S:1:pos:R:3 product=T mapped+aligned=T onto=T reactant=T pbc="F F F"
O       -3.20562901      -0.11938035      -0.90951788
O       -2.04356247       1.70379049       1.98855004
O       -1.53099599      -2.03470605       1.05529884
O       -4.36831505       3.10899134       1.62371577
O       -1.16100876      -1.79849982      -1.49013821
O        0.79560996       1.36513920      -1.27909677
C       -2.73764583      -0.05070540       0.41504015
C       -2.80797179       1.43256698       0.82978545
C       -1.35512128      -0.70669886       0.64268544
C       -4.27305232       1.81454385       1.07614633
C       -0.41172335      -0.74834283      -0.58265114
C       -0.29273301       0.51333047      -1.46223176
H       -3.41919892      -0.61624553       1.07324815
H       -2.41788301       2.04812458       0.00412325
H       -0.88072837      -0.21477530       1.48716115
H       -4.83761157       1.70968320       0.14524484
H       -4.69862800       1.14506389       1.82815041
H       -2.79229530      -0.89028702      -1.32924047
H       -2.59369013       2.26575197       2.55617437
H       -1.23384636       1.06587675      -1.39459877
H       -0.20112139       0.14254475      -2.48351649
H       -1.64697172      -2.55350420       0.24812872
H        0.73113900       1.82333009      -0.41755588
H       -4.14585830       3.75666435       0.94558563
O        3.45457319      -0.68833765      -2.41482064
O        1.58351853      -1.88908601      -2.55939791
O        5.39498675      -1.93517936      -0.36556938
N        0.79957126      -1.35837362      -0.09056993
N        4.90918650      -0.06134261       0.76988839
C        2.13039100      -0.91935779      -0.44563470
C        3.13921268      -1.68400390       0.43674600
C        2.35880609      -1.22141611      -1.91611078
C        4.58564935      -1.25268941       0.21698019
H        2.26611135       0.15106533      -0.29509746
H        2.86506139      -1.52772063       1.48087079
H        3.07110064      -2.74952318       0.21898857
H        0.61396130      -2.35519052      -0.60766359
H       -0.62549438      -2.14785507      -2.21291084
H        4.23731517       0.53316085       1.21965735
H        5.84294366       0.29087109       0.63542746
H        3.56440734      -0.94004266      -3.34538752
O        0.66677109       2.12957344       1.35345587
H        0.99918695       1.31963319       1.74734120
H       -0.27123415       2.17131014       1.59903530
44
Properties=species:S:1:pos:R:3 product=T mapped+aligned=T onto=T reactant=T pbc="F F F"
O       -3.19032471      -0.12292556      -0.91149791
O       -2.04321839       1.70423907       1.98877360
O       -1.52413967      -2.03993250       1.03483295
O       -4.36799279       3.10701052       1.62328251
O       -1.17618408      -1.85123048      -1.52919779
O        0.80206536       1.37041259      -1.29261931
C       -2.73252790      -0.05179045       0.41608999
C       -2.80683440       1.43157681       0.82979746
C       -1.35164399      -0.70592230       0.65435326
C       -4.27228565       1.81256824       1.07563116
C       -0.38591758      -0.71219547      -0.53943127
C       -0.28765234       0.51769738      -1.44804392
H       -3.41788663      -0.61789048       1.06967165
H       -2.41755760       2.04766652       0.00415872
H       -0.89863884      -0.23183363       1.51495919
H       -4.83657214       1.70793263       0.14452645
H       -4.69803421       1.14307170       1.82749284
H       -2.78144516      -0.89865385      -1.32572235
H       -2.59335916       2.26769206       2.55491778
H       -1.22758401       1.07216311      -1.38346306
H       -0.20670958       0.12598998      -2.45915615
H       -1.63102006      -2.54281514       0.21858801
H        0.74735817       1.83496886      -0.43503638
H       -4.14478390       3.75486549       0.94554948
O        3.44360206      -0.68864246      -2.40864119
O        1.56957143      -1.88451116      -2.53105830
O        5.40021592      -1.93555367      -0.36281705
N        0.81426853      -1.31156113      -0.05087828
N        4.91949627      -0.06064504       0.77356904
C        2.14087906      -0.90086279      -0.42908791
C        3.14664265      -1.67851038       0.44423803
C        2.35030787      -1.21428613      -1.89829099
C        4.59350831      -1.25199027       0.22197060
H        2.29675111       0.16610994      -0.28951729
H        2.87568985      -1.52743886       1.48972313
H        3.07097211      -2.74166458       0.21999202
H        0.53095202      -2.35122901      -0.72734152
H       -0.64066971      -2.20058574      -2.25197041
H        4.24920247       0.53269672       1.22707117
H        5.85327240       0.29085426       0.63810442
H        3.54711757      -0.94658846      -3.33782161
O        0.66731483       2.13490862       1.34694018
H        1.00136270       1.32609333       1.74181763
H       -0.27046663       2.17446155       1.59328295
44
Properties=species:S:1:pos:R:3 product=T mapped+aligned=T onto=T reactant=T pbc="F F F"
O       -3.17502042      -0.12647077      -0.91347793
O       -2.04287430       1.70468765       1.98899716
O       -1.51728336      -2.04515894       1.01436706
O       -4.36767053       3.10502970       1.62284925
O       -1.19135941      -1.90396115      -1.56825736
O        0.80852077       1.37568599      -1.30614185
C       -2.72740998      -0.05287549       0.41713982
C       -2.80569700       1.43058664       0.82980948
C       -1.34816671      -0.70514573       0.66602107
C       -4.27151898       1.81059264       1.07511599
C       -0.36011182      -0.67604812      -0.49621139
C       -0.28257167       0.52206430      -1.43385607
H       -3.41657434      -0.61953543       1.06609516
H       -2.41723220       2.04720845       0.00419418
H       -0.91654932      -0.24889196       1.54275724
H       -4.83553272       1.70618207       0.14380805
H       -4.69744041       1.14107951       1.82683527
H       -2.77059502      -0.90702068      -1.32220422
H       -2.59302819       2.26963216       2.55366120
H       -1.22132166       1.07844947      -1.37232736
H       -0.21229777       0.10943522      -2.43479582
H       -1.61506839      -2.53212609       0.18904731
H        0.76357734       1.84660764      -0.45251687
H       -4.14370949       3.75306663       0.94551332
O        3.43263094      -0.68894728      -2.40246173
O        1.55562433      -1.87993630      -2.50271870
O        5.40544510      -1.93592798      -0.36006472
N        0.82896579      -1.26474864      -0.01118664
N        4.92980605      -0.05994746       0.77724969
C        2.15136713      -0.88236780      -0.41254112
C        3.15407262      -1.67301685       0.45173006
C        2.34180964      -1.20715616      -1.88047119
C        4.60136727      -1.25129113       0.22696100
H        2.32739088       0.18115455      -0.28393712
H        2.88631830      -1.52715708       1.49857546
H        3.07084358      -2.73380599       0.22099546
H        0.44794273      -2.34726750      -0.84701945
H       -0.65584504      -2.25331640      -2.29102998
H        4.26108976       0.53223258       1.23448500
H        5.86360115       0.29083742       0.64078139
H        3.52982781      -0.95313427      -3.33025571
O        0.66785857       2.14024381       1.34042450
H        1.00353845       1.33255347       1.73629406
H       -0.26969910       2.17761295       1.58753059
44
Properties=species:S:1:pos:R:3 product=T mapped+aligned=T onto=T reactant=T pbc="F F F"
O       -3.15971613      -0.13001599      -0.91545796
O       -2.04253022       1.70513623       1.98922073
O       -1.51042704      -2.05038539       0.99390116
O       -4.36734828       3.10304888       1.62241599
O       -1.20653473      -1.95669181      -1.60731693
O        0.81497617       1.38095938      -1.31966439
C       -2.72229206      -0.05396054       0.41818965
C       -2.80455961       1.42959647       0.82982150
C       -1.34468942      -0.70436916       0.67768889
C       -4.27075230       1.80861703       1.07460081
C       -0.33430605      -0.63990077      -0.45299152
C       -0.27749101       0.52643122      -1.41966823
H       -3.41526205      -0.62118039       1.06251866
H       -2.41690679       2.04675039       0.00422965
H       -0.93445979      -0.26595029       1.57055528
H       -4.83449330       1.70443151       0.14308966
H       -4.69684661       1.13908732       1.82617770
H       -2.75974488      -0.91538751      -1.31868610
H       -2.59269722       2.27157225       2.55240461
H       -1.21505931       1.08473583      -1.36119165
H       -0.21788596       0.09288045      -2.41043548
H       -1.59911673      -2.52143703       0.15950661
H        0.77979650       1.85824641      -0.46999737
H       -4.14263509       3.75126776       0.94547717
O        3.42165981      -0.68925210      -2.39628228
O        1.54167723      -1.87536145      -2.47437909
O        5.41067428      -1.93630229      -0.35731240
N        0.84366305      -1.21793614       0.02850501
N        4.94011582      -0.05924989       0.78093033
C        2.16185519      -0.86387281      -0.39599433
C        3.16150260      -1.66752333       0.45922210
C        2.33331142      -1.20002618      -1.86265139
C        4.60922624      -1.25059199       0.23195141
H        2.35803064       0.19619916      -0.27835695
H        2.89694676      -1.52687530       1.50742780
H        3.07071505      -2.72594739       0.22199891
H        0.36493345      -2.34330599      -0.96669739
H       -0.67102036      -2.30604706      -2.33008956
H        4.27297706       0.53176845       1.24189882
H        5.87392989       0.29082059       0.64345836
H        3.51253804      -0.95968007      -3.32268980
O        0.66840231       2.14557899       1.33390881
H        1.00571419       1.33901360       1.73077049
H       -0.26893158       2.18076435       1.58177824
44
Properties=species:S:1:pos:R:3 product=T mapped+aligned=T onto=T reactant=T pbc="F F F"
O       -3.14441183      -0.13356120      -0.91743799
O       -2.04218613       1.70558481       1.98944429
O       -1.50357073      -2.05561183       0.97343527
O       -4.36702602       3.10106806       1.62198273
O       -1.22171006      -2.00942247      -1.64637651
O        0.82143158       1.38623278      -1.33318693
C       -2.71717413      -0.05504558       0.41923949
C       -2.80342222       1.42860630       0.82983351
C       -1.34121214      -0.70359260       0.68935670
C       -4.26998563       1.80664142       1.07408564
C       -0.30850029      -0.60375341      -0.40977165
C       -0.27241034       0.53079813      -1.40548038
H       -3.41394976      -0.62282534       1.05894217
H       -2.41658138       2.04629232       0.00426512
H       -0.95237026      -0.28300862       1.59835332
H       -4.83345387       1.70268094       0.14237126
H       -4.69625282       1.13709513       1.82552013
H       -2.74889474      -0.92375434      -1.31516798
H       -2.59236625       2.27351235       2.55114803
H       -1.20879696       1.09102219      -1.35005595
H       -0.22347415       0.07632569      -2.38607514
H       -1.58316507      -2.51074798       0.12996590
H        0.79601567       1.86988518      -0.48747786
H       -4.14156068       3.74946890       0.94544101
O        3.41068868      -0.68955691      -2.39010282
O        1.52773013      -1.87078659      -2.44603949
O        5.41590345      -1.93667660      -0.35456007
N        0.85836032      -1.17112365       0.06819666
N        4.95042559      -0.05855231       0.78461098
C        2.17234325      -0.84537781      -0.37944754
C        3.16893257      -1.66202980       0.46671413
C        2.32481319      -1.19289621      -1.84483160
C        4.61708520      -1.24989285       0.23694181
H        2.38867041       0.21124377      -0.27277678
H        2.90757521      -1.52659353       1.51628013
H        3.07058652      -2.71808880       0.22300236
H        0.28192416      -2.33934448      -1.08637532
H       -0.68619569      -2.35877772      -2.36914913
H        4.28486435       0.53130431       1.24931265
H        5.88425864       0.29080376       0.64613532
H        3.49524827      -0.96622588      -3.31512389
O        0.66894605       2.15091418       1.32739312
H        1.00788994       1.34547374       1.72524692
H       -0.26816405       2.18391576       1.57602588
44
Properties=species:S:1:pos:R:3 product=T mapped+aligned=T onto=T reactant=T pbc="F F F"
O       -3.12910754      -0.13710641      -0.91941802
O       -2.04184205       1.70603339       1.98966785
O       -1.49671441      -2.06083827       0.95296938
O       -4.36670376       3.09908724       1.62154947
O       -1.23688539      -2.06215313      -1.68543608
O        0.82788698       1.39150618      -1.34670947
C       -2.71205621      -0.05613063       0.42028932
C       -2.80228483       1.42761613       0.82984553
C       -1.33773486      -0.70281603       0.70102452
C       -4.26921896       1.80466581       1.07357047
C       -0.28269453      -0.56760606      -0.36655178
C       -0.26732967       0.53516505      -1.39129253
H       -3.41263747      -0.62447029       1.05536567
H       -2.41625597       2.04583425       0.00430059
H       -0.97028073      -0.30006695       1.62615136
H       -4.83241445       1.70093038       0.14165287
H       -4.69565902       1.13510294       1.82486256
H       -2.73804460      -0.93212117      -1.31164986
H       -2.59203528       2.27545244       2.54989145
H       -1.20253461       1.09730855      -1.33892024
H       -0.22906234       0.05977092      -2.36171480
H       -1.56721341      -2.50005892       0.10042520
H        0.81223484       1.88152395      -0.50495836
H       -4.14048627       3.74767004       0.94540485
O        3.39971755      -0.68986173      -2.38392337
O        1.51378303      -1.86621174      -2.41769988
O        5.42113263      -1.93705091      -0.35180774
N        0.87305758      -1.12431116       0.10788831
N        4.96073536      -0.05785473       0.78829163
C        2.18283131      -0.82688282      -0.36290075
C        3.17636254      -1.65653627       0.47420616
C        2.31631496      -1.18576624      -1.82701180
C        4.62494416      -1.24919371       0.24193221
H        2.41931017       0.22628838      -0.26719661
H        2.91820367      -1.52631175       1.52513246
H        3.07045799      -2.71023021       0.22400581
H        0.19891488      -2.33538297      -1.20605325
H       -0.70137101      -2.41150838      -2.40820870
H        4.29675165       0.53084017       1.25672647
H        5.89458739       0.29078693       0.64881229
H        3.47795850      -0.97277169      -3.30755798
O        0.66948979       2.15624937       1.32087743
H        1.01006569       1.35193388       1.71972335
H       -0.26739653       2.18706716       1.57027353
44
Properties=species:S:1:pos:R:3 product=T mapped+aligned=T onto=T reactant=T pbc="F F F"
O       -3.11380325      -0.14065162      -0.92139804
O       -2.04149796       1.70648197       1.98989141
O       -1.48985810      -2.06606472       0.93250349
O       -4.36638150       3.09710641       1.62111621
O       -1.25206071      -2.11488380      -1.72449565
O        0.83434239       1.39677957      -1.36023201
C       -2.70693829      -0.05721567       0.42133915
C       -2.80114743       1.42662596       0.82985755
C       -1.33425757      -0.70203946       0.71269233
C       -4.26845229       1.80269021       1.07305530
C       -0.25688876      -0.53145871      -0.32333190
C       -0.26224900       0.53953197      -1.37710469
H       -3.41132517      -0.62611524       1.05178918
H       -2.41593057       2.04537619       0.00433605
H       -0.98819121      -0.31712527       1.65394941
H       -4.83137503       1.69917982       0.14093447
H       -4.69506522       1.13311074       1.82420499
H       -2.72719447      -0.94048799      -1.30813173
H       -2.59170432       2.27739254       2.54863486
H       -1.19627226       1.10359491      -1.32778454
H       -0.23465054       0.04321616      -2.33735447
H       -1.55126174      -2.48936987       0.07088450
H        0.82845401       1.89316273      -0.52243885
H       -4.13941187       3.74587118       0.94536870
O        3.38874643      -0.69016655      -2.37774391
O        1.49983594      -1.86163688      -2.38936028
O        5.42636181      -1.93742523      -0.34905541
N        0.88775484      -1.07749867       0.14757995
N        4.97104514      -0.05715716       0.79197228
C        2.19331938      -0.80838783      -0.34635395
C        3.18379251      -1.65104275       0.48169819
C        2.30781674      -1.17863626      -1.80919200
C        4.63280312      -1.24849457       0.24692262
H        2.44994994       0.24133298      -0.26161644
H        2.92883212      -1.52602997       1.53398480
H        3.07032945      -2.70237161       0.22500925
H        0.11590559      -2.33142145      -1.32573118
H       -0.71654634      -2.46423905      -2.44726828
H        4.30863894       0.53037604       1.26414030
H        5.90491613       0.29077009       0.65148926
H        3.46066874      -0.97931749      -3.29999208
O        0.67003354       2.16158455       1.31436175
H        1.01224144       1.35839402       1.71419979
H       -0.26662900       2.19021856       1.56452117
44
Properties=species:S:1:pos:R:3 product=T mapped+aligned=T onto=T reactant=T pbc="F F F"
O       -3.09849896      -0.14419683      -0.92337807
O       -2.04115388       1.70693055       1.99011497
O       -1.48300178      -2.07129116       0.91203760
O       -4.36605924       3.09512559       1.62068295
O       -1.26723604      -2.16761446      -1.76355522
O        0.84079779       1.40205297      -1.37375455
C       -2.70182037      -0.05830072       0.42238898
C       -2.80001004       1.42563579       0.82986957
C       -1.33078029      -0.70126289       0.72436015
C       -4.26768562       1.80071460       1.07254013
C       -0.23108300      -0.49531136      -0.28011203
C       -0.25716833       0.54389889      -1.36291684
H       -3.41001288      -0.62776019       1.04821268
H       -2.41560516       2.04491812       0.00437152
H       -1.00610168      -0.33418360       1.68174745
H       -4.83033561       1.69742926       0.14021608
H       -4.69447142       1.13111855       1.82354742
H       -2.71634433      -0.94885482      -1.30461361
H       -2.59137335       2.27933263       2.54737828
H       -1.19000991       1.10988127      -1.31664883
H       -0.24023873       0.02666139      -2.31299413
H       -1.53531008      -2.47868081       0.04134380
H        0.84467318       1.90480150      -0.53991935
H       -4.13833746       3.74407232       0.94533254
O        3.37777530      -0.69047137      -2.37156446
O        1.48588884      -1.85706203      -2.36102067
O        5.43159099      -1.93779954      -0.34630308
N        0.90245210      -1.03068618       0.18727160
N        4.98135491      -0.05645958       0.79565293
C        2.20380744      -0.78989284      -0.32980716
C        3.19122248      -1.64554922       0.48919022
C        2.29931851      -1.17150629      -1.79137220
C        4.64066208      -1.24779543       0.25191302
H        2.48058970       0.25637759      -0.25603627
H        2.93946058      -1.52574819       1.54283713
H        3.07020092      -2.69451302       0.22601270
H        0.03289631      -2.32745994      -1.44540911
H       -0.73172167      -2.51696971      -2.48632785
H        4.32052624       0.52991190       1.27155412
H        5.91524488       0.29075326       0.65416623
H        3.44337897      -0.98586330      -3.29242617
O        0.67057728       2.16691974       1.30784606
H        1.01441719       1.36485416       1.70867622
H       -0.26586148       2.19336996       1.55876882
44
Properties=species:S:1:pos:R:3 product=T mapped+aligned=T onto=T reactant=T pbc="F F F"
O       -3.08319466      -0.14774204      -0.92535810
O       -2.04080979       1.70737913       1.99033853
O       -1.47614547      -2.07651760       0.89157171
O       -4.36573698       3.09314477       1.62024969
O       -1.28241137      -2.22034512      -1.80261480
O        0.84725320       1.40732637      -1.38727709
C       -2.69670244      -0.05938576       0.42343882
C       -2.79887265       1.42464562       0.82988158
C       -1.32730301      -0.70048633       0.73602796
C       -4.26691895       1.79873899       1.07202496
C       -0.20527724      -0.45916400      -0.23689216
C       -0.25208766       0.54826580      -1.34872899
H       -3.40870059      -0.62940514       1.04463619
H       -2.41527975       2.04446005       0.00440699
H       -1.02401215      -0.35124193       1.70954549
H       -4.82929618       1.69567869       0.13949768
H       -4.69387763       1.12912636       1.82288985
H       -2.70549419      -0.95722165      -1.30109549
H       -2.59104238       2.28127273       2.54612170
H       -1.18374756       1.11616763      -1.30551313
H       -0.24582692       0.01010663      -2.28863379
H       -1.51935842      -2.46799176       0.01180309
H        0.86089235       1.91644027      -0.55739984
H       -4.13726305       3.74227346       0.94529638
O        3.36680417      -0.69077618      -2.36538500
O        1.47194174      -1.85248717      -2.33268107
O        5.43682016      -1.93817385      -0.34355075
N        0.91714937      -0.98387369       0.22696325
N        4.99166468      -0.05576200       0.79933358
C        2.21429550      -0.77139784      -0.31326037
C        3.19865245      -1.64005569       0.49668225
C        2.29082028      -1.16437632      -1.77355241
C        4.64852104      -1.24709629       0.25690342
H        2.51122947       0.27142220      -0.25045610
H        2.95008903      -1.52546642       1.55168946
H        3.07007239      -2.68665443       0.22701615
H       -0.05011298      -2.32349843      -1.56508704
H       -0.74689699      -2.56970037      -2.52538742
H        4.33241353       0.52944776       1.27896795
H        5.92557363       0.29073643       0.65684319
H        3.42608920      -0.99240911      -3.28486026
O        0.67112102       2.17225493       1.30133037
H        1.01659294       1.37131430       1.70315265
H       -0.26509395       2.19652137       1.55301646
44
Properties=species:S:1:pos:R:3 product=T mapped+aligned=T onto=T reactant=T pbc="F F F"
O       -3.06789037      -0.15128726      -0.92733813
O       -2.04046571       1.70782771       1.99056210
O       -1.46928915      -2.08174405       0.87110581
O       -4.36541473       3.09116395       1.61981643
O       -1.29758669      -2.27307578      -1.84167437
O        0.85370860       1.41259976      -1.40079963
C       -2.69158452      -0.06047081       0.42448865
C       -2.79773526       1.42365545       0.82989360
C       -1.32382572      -0.69970976       0.74769578
C       -4.26615227       1.79676338       1.07150978
C       -0.17947147      -0.42301665      -0.19367229
C       -0.24700700       0.55263272      -1.33454115
H       -3.40738830      -0.63105010       1.04105969
H       -2.41495434       2.04400199       0.00444246
H       -1.04192262      -0.36830026       1.73734353
H       -4.82825676       1.69392813       0.13877929
H       -4.69328383       1.12713417       1.82223228
H       -2.69464405      -0.96558848      -1.29757737
H       -2.59071141       2.28321282       2.54486511
H       -1.17748521       1.12245399      -1.29437742
H       -0.25141511      -0.00644814      -2.26427345
H       -1.50340676      -2.45730270      -0.01773761
H        0.87711151       1.92807904      -0.57488034
H       -4.13618865       3.74047459       0.94526023
O        3.35583304      -0.69108100      -2.35920555
O        1.45799464      -1.84791232      -2.30434146
O        5.44204934      -1.93854816      -0.34079843
N        0.93184663      -0.93706119       0.26665490
N        5.00197445      -0.05506443       0.80301422
C        2.22478356      -0.75290285      -0.29671358
C        3.20608243      -1.63456217       0.50417429
C        2.28232206      -1.15724634      -1.75573261
C        4.65638001      -1.24639715       0.26189383
H        2.54186923       0.28646681      -0.24487593
H        2.96071749      -1.52518464       1.56054180
H        3.06994386      -2.67879583       0.22801960
H       -0.13312226      -2.31953692      -1.68476498
H       -0.76207232      -2.62243103      -2.56444699
H        4.34430083       0.52898363       1.28638177
H        5.93590237       0.29071960       0.65952016
H        3.40879943      -0.99895491      -3.27729435
O        0.67166476       2.17759011       1.29481468
H        1.01876868       1.37777443       1.69762908
H       -0.26432643       2.19967277       1.54726411
44
Properties=species:S:1:pos:R:3 product=T mapped+aligned=T onto=T reactant=T pbc="F F F"
O       -3.05258608      -0.15483247      -0.92931815
O       -2.04012162       1.70827629       1.99078566
O       -1.46243284      -2.08697049       0.85063992
O       -4.36509247       3.08918313       1.61938317
O       -1.31276202      -2.32580645      -1.88073394
O        0.86016401       1.41787316      -1.41432217
C       -2.68646660      -0.06155585       0.42553848
C       -2.79659786       1.42266528       0.82990562
C       -1.32034844      -0.69893319       0.75936359
C       -4.26538560       1.79478778       1.07099461
C       -0.15366571      -0.38686930      -0.15045241
C       -0.24192633       0.55699964      -1.32035330
H       -3.40607601      -0.63269505       1.03748320
H       -2.41462894       2.04354392       0.00447792
H       -1.05983310      -0.38535859       1.76514158
H       -4.82721734       1.69217757       0.13806089
H       -4.69269003       1.12514198       1.82157471
H       -2.68379391      -0.97395531      -1.29405924
H       -2.59038044       2.28515292       2.54360853
H       -1.17122286       1.12874035      -1.28324172
H       -0.25700330      -0.02300290      -2.23991312
H       -1.48745509      -2.44661365      -0.04727831
H        0.89333068       1.93971782      -0.59236083
H       -4.13511424       3.73867573       0.94522407
O        3.34486192      -0.69138582      -2.35302609
O        1.44404754      -1.84333746      -2.27600186
O        5.44727852      -1.93892247      -0.33804610
N        0.94654389      -0.89024870       0.30634654
N        5.01228423      -0.05436685       0.80669487
C        2.23527163      -0.73440786      -0.28016679
C        3.21351240      -1.62906864       0.51166632
C        2.27382383      -1.15011637      -1.73791281
C        4.66423897      -1.24569801       0.26688423
H        2.57250900       0.30151142      -0.23929576
H        2.97134594      -1.52490286       1.56939413
H        3.06981533      -2.67093724       0.22902304
H       -0.21613155      -2.31557541      -1.80444291
H       -0.77724765      -2.67516170      -2.60350657
H        4.35618812       0.52851949       1.29379560
H        5.94623112       0.29070276       0.66219713
H        3.39150967      -1.00550072      -3.26972845
O        0.67220850       2.18292530       1.28829900
H        1.02094443       1.38423457       1.69210551
H       -0.26355890       2.20282417       1.54151175
44
Properties=species:S:1:pos:R:3 product=T mapped+aligned=T onto=T reactant=T pbc="F F F"
O       -3.03728178      -0.15837768      -0.93129818
O       -2.03977754       1.70872487       1.99100922
O       -1.45557652      -2.09219694       0.83017403
O       -4.36477021       3.08720231       1.61894991
O       -1.32793734      -2.37853711      -1.91979352
O        0.86661941       1.42314655      -1.42784471
C       -2.68134867      -0.06264090       0.42658832
C       -2.79546047       1.42167511       0.82991763
C       -1.31687115      -0.69815663       0.77103141
C       -4.26461893       1.79281217       1.07047944
C       -0.12785994      -0.35072194      -0.10723254
C       -0.23684566       0.56136655      -1.30616546
H       -3.40476372      -0.63434000       1.03390670
H       -2.41430353       2.04308586       0.00451339
H       -1.07774357      -0.40241692       1.79293962
H       -4.82617791       1.69042700       0.13734250
H       -4.69209624       1.12314979       1.82091714
H       -2.67294377      -0.98232214      -1.29054112
H       -2.59004947       2.28709301       2.54235194
H       -1.16496051       1.13502671      -1.27210601
H       -0.26259149      -0.03955767      -2.21555278
H       -1.47150343      -2.43592459      -0.07681902
H        0.90954985       1.95135659      -0.60984133
H       -4.13403984       3.73687687       0.94518792
O        3.33389079      -0.69169063      -2.34684664
O        1.43010044      -1.83876261      -2.24766225
O        5.45250769      -1.93929678      -0.33529377
N        0.96124116      -0.84343621       0.34603819
N        5.02259400      -0.05366928       0.81037552
C        2.24575969      -0.71591286      -0.26362000
C        3.22094237      -1.62357512       0.51915835
C        2.26532561      -1.14298639      -1.72009302
C        4.67209793      -1.24499887       0.27187464
H        2.60314876       0.31655603      -0.23371559
H        2.98197440      -1.52462109       1.57824647
H        3.06968680      -2.66307864       0.23002649
H       -0.29914083      -2.31161390      -1.92412084
H       -0.79242297      -2.72789236      -2.64256614
H        4.36807542       0.52805536       1.30120942
H        5.95655986       0.29068593       0.66487409
H        3.37421990      -1.01204652      -3.26216254
O        0.67275224       2.18826048       1.28178331
H        1.02312018       1.39069471       1.68658194
H       -0.26279138       2.20597558       1.53575940
44
Properties=species:S:1:pos:R:3 product=T mapped+aligned=T onto=T reactant=T pbc="F F F"
O       -3.02197749      -0.16192289      -0.93327821
O       -2.03943345       1.70917345       1.99123278
O       -1.44872021      -2.09742338       0.80970814
O       -4.36444795       3.08522149       1.61851665
O       -1.34311267      -2.43126777      -1.95885309
O        0.87307482       1.42841995      -1.44136725
C       -2.67623075      -0.06372594       0.42763815
C       -2.79432308       1.42068494       0.82992965
C       -1.31339387      -0.69738006       0.78269922
C       -4.26385226       1.79083656       1.06996427
C       -0.10205418      -0.31457459      -0.06401267
C       -0.23176499       0.56573347      -1.29197761
H       -3.40345143      -0.63598495       1.03033021
H       -2.41397812       2.04262779       0.00454886
H       -1.09565404      -0.41947525       1.82073766
H       -4.82513849       1.68867644       0.13662410
H       -4.69150244       1.12115760       1.82025957
H       -2.66209363      -0.99068897      -1.28702300
H       -2.58971850       2.28903311       2.54109536
H       -1.15869816       1.14131307      -1.26097031
H       -0.26817968      -0.05611243      -2.19119244
H       -1.45555177      -2.42523554      -0.10635972
H        0.92576902       1.96299536      -0.62732182
H       -4.13296543       3.73507801       0.94515176
O        3.32291966      -0.69199545      -2.34066718
O        1.41615334      -1.83418775      -2.21932265
O        5.45773687      -1.93967109      -0.33254144
N        0.97593842      -0.79662372       0.38572984
N        5.03290377      -0.05297170       0.81405617
C        2.25624775      -0.69741787      -0.24707321
C        3.22837234      -1.61808159       0.52665038
C        2.25682738      -1.13585642      -1.70227322
C        4.67995689      -1.24429973       0.27686504
H        2.63378853       0.33160064      -0.22813542
H        2.99260285      -1.52433931       1.58709880
H        3.06955827      -2.65522005       0.23102994
H       -0.38215012      -2.30765239      -2.04379877
H       -1.58380473      -3.11999055      -2.58160723
H        4.37996271       0.52759122       1.30862325
H        5.96688861       0.29066910       0.66755106
H        3.35693013      -1.01859233      -3.25459663
O        0.67329598       2.19359567       1.27526762
H        1.02529593       1.39715485       1.68105837
H       -0.26202385       2.20912698       1.53000704
