44
Properties=species:S:1:pos:R:3 product=T mapped+aligned=T onto=T reactant=T pbc="F F F"
O       -2.85077776       0.14834123      -1.41003080
O       -2.85461446       1.32446062       1.97949309
O       -1.39051716      -1.94366833       0.68955116
O       -5.29981821       2.42442422       1.25661476
O       -0.29175991      -0.67017392      -1.60545269
O        1.09083748       1.83475970      -1.04682471
C       -2.79337658      -0.08267132      -0.02349964
C       -3.29055201       1.21668086       0.64607635
C       -1.42158066      -0.54875965       0.52160768
C       -4.82339511       1.27621970       0.59339043
C       -0.18696489      -0.11124380      -0.30153510
C       -0.10081606       1.42396583      -0.42813811
H       -3.49014487      -0.89497629       0.24450145
H       -2.88815007       2.06425497       0.06608577
H       -1.32493614      -0.13585831       1.53114941
H       -5.15946203       1.23059709      -0.44711973
H       -5.23682649       0.42728984       1.14365952
H       -2.19514442      -0.42128224      -1.84053240
H       -3.57166645       1.75585315       2.46843562
H       -0.22937571       1.87716847       0.55898618
H       -0.91825502       1.74954222      -1.07712596
H       -1.22559876      -2.37099995      -0.16349847
H        1.78295765       1.88813870      -0.36732929
H       -5.06227372       3.20475117       0.74295353
O        2.10289244      -2.05065593      -2.61034887
O        1.00173009      -3.17586899      -1.02249012
O        5.37030768      -1.85665308      -0.68761833
N        0.98343321      -0.64151571       0.41377779
N        4.79583104       0.18901673       0.06591162
C        2.08169201      -1.08772668      -0.44433059
C        3.24458961      -1.60354046       0.42787726
C        1.64528807      -2.22189894      -1.37067411
C        4.58520686      -1.12828119      -0.12648448
H        2.41221475      -0.24823413      -1.06352286
H        3.12766514      -1.22717831       1.44420034
H        3.23887878      -2.69357130       0.45987472
H        0.66683566      -1.45305015       0.94902472
H        0.21374488      -0.10224452      -2.20414486
H        4.13065680       0.77176901       0.55291133
H        5.64610620       0.60026215      -0.28020832
H        1.87801689      -2.80914214      -3.17212848
O        2.47427551       1.47800024       1.40530526
H        1.89111264       0.69749728       1.29587170
H        2.24173510       1.89620018       2.23578022
44
Properties=species:S:1:pos:R:3 product=T mapped+aligned=T onto=T reactant=T pbc="F F F"
O       -2.82988881       0.13388852      -1.39094380
O       -2.84221704       1.36274895       1.96988684
O       -1.37744952      -1.92023763       0.74273608
O       -5.29361137       2.43604225       1.24417506
O       -0.37707385      -0.79012493      -1.62956311
O        1.10498665       1.83996734      -1.02657123
C       -2.77968048      -0.07718349      -0.00371354
C       -3.28155633       1.22867685       0.64371924
C       -1.40858456      -0.53132938       0.55223559
C       -4.81443755       1.28148890       0.59732545
C       -0.17589936      -0.10397231      -0.27392092
C       -0.09261933       1.42099736      -0.43287967
H       -3.47554021      -0.88636335       0.27311531
H       -2.88534668       2.06489872       0.04815524
H       -1.31602329      -0.10136665       1.55253481
H       -5.15414275       1.21889036      -0.43896762
H       -5.22198292       0.44118169       1.16128216
H       -2.19851810      -0.45787956      -1.81028721
H       -3.56088103       1.79610820       2.45432653
H       -0.25116657       1.88925761       0.53097971
H       -0.88929561       1.72065216      -1.10327195
H       -1.19093075      -2.35526073      -0.09588996
H        1.78100453       1.89569723      -0.33532257
H       -5.06028213       3.20816185       0.71919040
O        2.17527944      -2.02118489      -2.60774388
O        1.01432579      -3.13247494      -1.10295348
O        5.37095646      -1.85104580      -0.67109157
N        0.97132278      -0.66255156       0.38789595
N        4.79090907       0.19230587       0.08391740
C        2.08136454      -1.07674095      -0.45676809
C        3.23570798      -1.59907099       0.42242807
C        1.67376828      -2.19227621      -1.40473882
C        4.58107363      -1.12382117      -0.11604567
H        2.41115426      -0.22637939      -1.05535785
H        3.10909898      -1.22747286       1.43855915
H        3.22785286      -2.68898412       0.44900389
H        0.58212019      -1.52568169       0.75800501
H        0.12700224      -0.22380066      -2.22656320
H        4.12248263       0.77362480       0.56739221
H        5.64428584       0.60372186      -0.25183366
H        1.96868680      -2.76929663      -3.18268591
O        2.45478881       1.47527706       1.43866850
H        1.87145963       0.69650251       1.34470567
H        2.22455176       1.90727344       2.26052530
44
Properties=species:S:1:pos:R:3 product=T mapped+aligned=T onto=T reactant=T pbc="F F F"
O       -2.80899985       0.11943580      -1.37185681
O       -2.82981962       1.40103728       1.96028058
O       -1.36438187      -1.89680694       0.79592101
O       -5.28740452       2.44766027       1.23173537
O       -0.46238779      -0.91007593      -1.65367352
O        1.11913581       1.84517498      -1.00631775
C       -2.76598438      -0.07169567       0.01607255
C       -3.27256065       1.24067283       0.64136213
C       -1.39558847      -0.51389910       0.58286350
C       -4.80548000       1.28675810       0.60126047
C       -0.16483382      -0.09670082      -0.24630675
C       -0.08442260       1.41802889      -0.43762123
H       -3.46093554      -0.87775040       0.30172916
H       -2.88254330       2.06554246       0.03022471
H       -1.30711043      -0.06687499       1.57392021
H       -5.14882348       1.20718363      -0.43081550
H       -5.20713934       0.45507354       1.17890480
H       -2.20189178      -0.49447689      -1.78004202
H       -3.55009560       1.83636326       2.44021745
H       -0.27295744       1.90134674       0.50297325
H       -0.86033621       1.69176211      -1.12941795
H       -1.15626274      -2.33952151      -0.02828146
H        1.77905142       1.90325575      -0.30331585
H       -5.05829054       3.21157254       0.69542727
O        2.24766644      -1.99171385      -2.60513890
O        1.02692148      -3.08908089      -1.18341683
O        5.37160524      -1.84543852      -0.65456481
N        0.95921235      -0.68358742       0.36201411
N        4.78598709       0.19559502       0.10192318
C        2.08103706      -1.06575523      -0.46920559
C        3.22682634      -1.59460153       0.41697888
C        1.70224850      -2.16265348      -1.43880352
C        4.57694041      -1.11936115      -0.10560687
H        2.41009376      -0.20452464      -1.04719284
H        3.09053282      -1.22776742       1.43291797
H        3.21682693      -2.68439694       0.43813307
H        0.49740472      -1.59831323       0.56698530
H        0.04168830      -0.34375166      -2.25067362
H        4.11430846       0.77548059       0.58187309
H        5.64246549       0.60718157      -0.22345900
H        2.05935670      -2.72945113      -3.19324335
O        2.43530210       1.47255387       1.47203175
H        1.85180662       0.69550774       1.39353964
H        2.20736841       1.91834670       2.28527039
44
Properties=species:S:1:pos:R:3 product=T mapped+aligned=T onto=T reactant=T pbc="F F F"
O       -2.78811090       0.10498309      -1.35276981
O       -2.81742220       1.43932561       1.95067433
O       -1.35131423      -1.87337624       0.84910593
O       -5.28119768       2.45927830       1.21929567
O       -0.54770173      -1.03002694      -1.67778394
O        1.13328498       1.85038262      -0.98606427
C       -2.75228828      -0.06620784       0.03585865
C       -3.26356497       1.25266882       0.63900502
C       -1.38259237      -0.49646883       0.61349140
C       -4.79652244       1.29202729       0.60519549
C       -0.15376829      -0.08942933      -0.21869257
C       -0.07622587       1.41506042      -0.44236279
H       -3.44633088      -0.86913746       0.33034302
H       -2.87973991       2.06618621       0.01229418
H       -1.29819758      -0.03238333       1.59530561
H       -5.14350420       1.19547690      -0.42266339
H       -5.19229577       0.46896539       1.19652744
H       -2.20526546      -0.53107421      -1.74979682
H       -3.53931018       1.87661831       2.42610836
H       -0.29474830       1.91343588       0.47496678
H       -0.83137680       1.66287205      -1.15556394
H       -1.12159473      -2.32378229       0.03932705
H        1.77709830       1.91081428      -0.27130913
H       -5.05629895       3.21498322       0.67166414
O        2.32005344      -1.96224281      -2.60253391
O        1.03951718      -3.04568684      -1.26388019
O        5.37225402      -1.83983124      -0.63803806
N        0.94710192      -0.70462327       0.33613227
N        4.78106512       0.19888416       0.11992896
C        2.08070959      -1.05476950      -0.48164309
C        3.21794471      -1.59013206       0.41152969
C        1.73072871      -2.13303076      -1.47286823
C        4.57280718      -1.11490113      -0.09516806
H        2.40903327      -0.18266990      -1.03902784
H        3.07196665      -1.22806197       1.42727678
H        3.20580101      -2.67980976       0.42726224
H        0.41268925      -1.67094477       0.37596559
H       -0.04362564      -0.46370267      -2.27478404
H        4.10613429       0.77733637       0.59635397
H        5.64064513       0.61064128      -0.19508434
H        2.15002661      -2.68960562      -3.20380078
O        2.41581540       1.46983069       1.50539499
H        1.83215361       0.69451297       1.44237362
H        2.19018507       1.92941996       2.31001547
44
Properties=species:S:1:pos:R:3 product=T mapped+aligned=T onto=T reactant=T pbc="F F F"
O       -2.76722194       0.09053038      -1.33368281
O       -2.80502478       1.47761395       1.94106808
O       -1.33824659      -1.84994554       0.90229086
O       -5.27499083       2.47089633       1.20685597
O       -0.63301567      -1.14997795      -1.70189436
O        1.14743414       1.85559026      -0.96581080
C       -2.73859218      -0.06072001       0.05564475
C       -3.25456928       1.26466480       0.63664790
C       -1.36959628      -0.47903855       0.64411931
C       -4.78756489       1.29729649       0.60913051
C       -0.14270275      -0.08215784      -0.19107839
C       -0.06802915       1.41209194      -0.44710436
H       -3.43172622      -0.86052452       0.35895688
H       -2.87693652       2.06682995      -0.00563636
H       -1.28928472       0.00210833       1.61669101
H       -5.13818492       1.18377017      -0.41451127
H       -5.17745220       0.48285724       1.21415008
H       -2.20863914      -0.56767154      -1.71955163
H       -3.52852475       1.91687336       2.41199928
H       -0.31653916       1.92552502       0.44696032
H       -0.80241739       1.63398200      -1.18170994
H       -1.08692671      -2.30804307       0.10693555
H        1.77514519       1.91837281      -0.23930241
H       -5.05430736       3.21839390       0.64790101
O        2.39244044      -1.93277177      -2.59992893
O        1.05211287      -3.00229278      -1.34434354
O        5.37290280      -1.83422396      -0.62151130
N        0.93499149      -0.72565913       0.31025043
N        4.77614314       0.20217330       0.13793474
C        2.08038212      -1.04378377      -0.49408058
C        3.20906308      -1.58566260       0.40608051
C        1.75920892      -2.10340803      -1.50693293
C        4.56867396      -1.11044111      -0.08472925
H        2.40797277      -0.16081515      -1.03086283
H        3.05340049      -1.22835652       1.42163559
H        3.19477509      -2.67522258       0.41639141
H        0.32797379      -1.74357632       0.18494588
H       -0.12893958      -0.58365368      -2.29889445
H        4.09796012       0.77919216       0.61083486
H        5.63882478       0.61410099      -0.16670967
H        2.24069651      -2.64976012      -3.21435822
O        2.39632870       1.46710751       1.53875824
H        1.81250060       0.69351820       1.49120759
H        2.17300172       1.94049321       2.33476055
44
Properties=species:S:1:pos:R:3 product=T mapped+aligned=T onto=T reactant=T pbc="F F F"
O       -2.74633299       0.07607766      -1.31459581
O       -2.79262736       1.51590228       1.93146183
O       -1.32517894      -1.82651485       0.95547578
O       -5.26878399       2.48251436       1.19441628
O       -0.71832961      -1.26992895      -1.72600477
O        1.16158331       1.86079790      -0.94555732
C       -2.72489608      -0.05523218       0.07543085
C       -3.24557360       1.27666079       0.63429079
C       -1.35660018      -0.46160828       0.67474722
C       -4.77860733       1.30256569       0.61306553
C       -0.13163722      -0.07488635      -0.16346421
C       -0.05983242       1.40912347      -0.45184592
H       -3.41712156      -0.85191158       0.38757073
H       -2.87413314       2.06747370      -0.02356689
H       -1.28037187       0.03659999       1.63807641
H       -5.13286565       1.17206344      -0.40635916
H       -5.16260862       0.49674909       1.23177272
H       -2.21201282      -0.60426886      -1.68930644
H       -3.51773933       1.95712842       2.39789019
H       -0.33833002       1.93761415       0.41895385
H       -0.77345799       1.60509194      -1.20785593
H       -1.05225870      -2.29230385       0.17454406
H        1.77319207       1.92593134      -0.20729569
H       -5.05231577       3.22180458       0.62413788
O        2.46482744      -1.90330073      -2.59732394
O        1.06470857      -2.95889873      -1.42480690
O        5.37355158      -1.82861668      -0.60498454
N        0.92288106      -0.74669498       0.28436859
N        4.77122117       0.20546245       0.15594052
C        2.08005464      -1.03279804      -0.50651808
C        3.20018145      -1.58119313       0.40063132
C        1.78768914      -2.07378530      -1.54099764
C        4.56454073      -1.10598109      -0.07429044
H        2.40691228      -0.13896041      -1.02269782
H        3.03483433      -1.22865107       1.41599441
H        3.18374916      -2.67063540       0.40552059
H        0.24325832      -1.81620786      -0.00607383
H       -0.21425352      -0.70360468      -2.32300487
H        4.08978595       0.78104795       0.62531574
H        5.63700442       0.61756070      -0.13833501
H        2.33136642      -2.60991461      -3.22491565
O        2.37684199       1.46438432       1.57212148
H        1.79284759       0.69252343       1.54004156
H        2.15581838       1.95156647       2.35950563
44
Properties=species:S:1:pos:R:3 product=T mapped+aligned=T onto=T reactant=T pbc="F F F"
O       -2.72544403       0.06162495      -1.29550882
O       -2.78022994       1.55419061       1.92185557
O       -1.31211130      -1.80308415       1.00866070
O       -5.26257715       2.49413238       1.18197658
O       -0.80364355      -1.38987996      -1.75011519
O        1.17573248       1.86600554      -0.92530384
C       -2.71119998      -0.04974436       0.09521694
C       -3.23657792       1.28865677       0.63193368
C       -1.34360408      -0.44417801       0.70537513
C       -4.76964977       1.30783489       0.61700055
C       -0.12057169      -0.06761486      -0.13585004
C       -0.05163569       1.40615500      -0.45658748
H       -3.40251689      -0.84329863       0.41618459
H       -2.87132975       2.06811745      -0.04149742
H       -1.27145901       0.07109165       1.65946181
H       -5.12754637       1.16035671      -0.39820705
H       -5.14776505       0.51064094       1.24939536
H       -2.21538650      -0.64086619      -1.65906125
H       -3.50695391       1.99738347       2.38378110
H       -0.36012089       1.94970329       0.39094739
H       -0.74449858       1.57620188      -1.23400193
H       -1.01759069      -2.27656463       0.24215256
H        1.77123896       1.93348986      -0.17528897
H       -5.05032418       3.22521527       0.60037475
O        2.53721444      -1.87382969      -2.59471896
O        1.07730427      -2.91550468      -1.50527026
O        5.37420036      -1.82300940      -0.58845778
N        0.91077063      -0.76773083       0.25848675
N        4.76629920       0.20875159       0.17394630
C        2.07972717      -1.02181232      -0.51895558
C        3.19129981      -1.57672367       0.39518213
C        1.81616935      -2.04416257      -1.57506234
C        4.56040751      -1.10152107      -0.06385164
H        2.40585178      -0.11710566      -1.01453281
H        3.01626817      -1.22894563       1.41035322
H        3.17272324      -2.66604822       0.39464976
H        0.15854285      -1.88883940      -0.19709354
H       -0.29956746      -0.82355569      -2.34711529
H        4.08161178       0.78290374       0.63979662
H        5.63518406       0.62102041      -0.10996035
H        2.42203632      -2.57006911      -3.23547308
O        2.35735529       1.46166114       1.60548473
H        1.77319458       0.69152866       1.58887553
H        2.13863504       1.96263973       2.38425072
44
Properties=species:S:1:pos:R:3 product=T mapped+aligned=T onto=T reactant=T pbc="F F F"
O       -2.70455508       0.04717224      -1.27642182
O       -2.76783252       1.59247894       1.91224932
O       -1.29904366      -1.77965345       1.06184563
O       -5.25637030       2.50575041       1.16953688
O       -0.88895749      -1.50983097      -1.77422561
O        1.18988164       1.87121318      -0.90505036
C       -2.69750388      -0.04425653       0.11500304
C       -3.22758224       1.30065276       0.62957657
C       -1.33060799      -0.42674773       0.73600304
C       -4.76069222       1.31310409       0.62093557
C       -0.10950615      -0.06034337      -0.10823586
C       -0.04343896       1.40318653      -0.46132904
H       -3.38791223      -0.83468569       0.44479845
H       -2.86852636       2.06876119      -0.05942795
H       -1.26254616       0.10558331       1.68084721
H       -5.12222709       1.14864998      -0.39005493
H       -5.13292148       0.52453279       1.26701800
H       -2.21876018      -0.67746351      -1.62881606
H       -3.49616848       2.03763852       2.36967202
H       -0.38191175       1.96179243       0.36294092
H       -0.71553917       1.54731183      -1.26014792
H       -0.98292268      -2.26082541       0.30976107
H        1.76928584       1.94104839      -0.14328225
H       -5.04833259       3.22862595       0.57661162
O        2.60960144      -1.84435865      -2.59211397
O        1.08989996      -2.87211063      -1.58573361
O        5.37484914      -1.81740212      -0.57193102
N        0.89866020      -0.78876669       0.23260491
N        4.76137722       0.21204073       0.19195208
C        2.07939970      -1.01082659      -0.53139308
C        3.18241818      -1.57225420       0.38973294
C        1.84464956      -2.01453984      -1.60912705
C        4.55627428      -1.09706105      -0.05341283
H        2.40479129      -0.09525092      -1.00636780
H        2.99770201      -1.22924018       1.40471203
H        3.16169732      -2.66146104       0.38377893
H        0.07382738      -1.96147094      -0.38811325
H       -0.38488139      -0.94350670      -2.37122570
H        4.07343761       0.78475953       0.65427750
H        5.63336371       0.62448012      -0.08158569
H        2.51270623      -2.53022360      -3.24603052
O        2.33786859       1.45893796       1.63884797
H        1.75354157       0.69053389       1.63770950
H        2.12145169       1.97371299       2.40899580
44
Properties=species:S:1:pos:R:3 product=T mapped+aligned=T onto=T reactant=T pbc="F F F"
O       -2.68366612       0.03271952      -1.25733482
O       -2.75543509       1.63076727       1.90264307
O       -1.28597601      -1.75622276       1.11503055
O       -5.25016346       2.51736844       1.15709719
O       -0.97427142      -1.62978197      -1.79833602
O        1.20403081       1.87642082      -0.88479688
C       -2.68380778      -0.03876870       0.13478914
C       -3.21858656       1.31264874       0.62721946
C       -1.31761189      -0.40931746       0.76663094
C       -4.75173466       1.31837328       0.62487058
C       -0.09844062      -0.05307188      -0.08062168
C       -0.03524223       1.40021806      -0.46607060
H       -3.37330757      -0.82607275       0.47341230
H       -2.86572298       2.06940494      -0.07735848
H       -1.25363330       0.14007498       1.70223262
H       -5.11690782       1.13694324      -0.38190282
H       -5.11807790       0.53842464       1.28464063
H       -2.22213387      -0.71406084      -1.59857086
H       -3.48538306       2.07789358       2.35556293
H       -0.40370261       1.97388156       0.33493446
H       -0.68657977       1.51842177      -1.28629392
H       -0.94825467      -2.24508618       0.37736957
H        1.76733273       1.94860692      -0.11127553
H       -5.04634100       3.23203663       0.55284850
O        2.68198845      -1.81488762      -2.58950899
O        1.10249566      -2.82871658      -1.66619697
O        5.37549792      -1.81179483      -0.55540427
N        0.88654976      -0.80980254       0.20672308
N        4.75645525       0.21532988       0.20995786
C        2.07907222      -0.99984086      -0.54383058
C        3.17353655      -1.56778474       0.38428375
C        1.87312978      -1.98491712      -1.64319175
C        4.55214106      -1.09260104      -0.04297402
H        2.40373079      -0.07339617      -0.99820280
H        2.97913584      -1.22953473       1.39907085
H        3.15067139      -2.65687385       0.37290811
H       -0.01088809      -2.03410248      -0.57913297
H       -0.47019533      -1.06345770      -2.39533612
H        4.06526345       0.78661531       0.66875838
H        5.63154335       0.62793982      -0.05321103
H        2.60337613      -2.49037810      -3.25658795
O        2.31838188       1.45621477       1.67221122
H        1.73388855       0.68953912       1.68654348
H        2.10426835       1.98478625       2.43374088
44
Properties=species:S:1:pos:R:3 product=T mapped+aligned=T onto=T reactant=T pbc="F F F"
O       -2.66277717       0.01826681      -1.23824782
O       -2.74303767       1.66905560       1.89303682
O       -1.27290837      -1.73279206       1.16821548
O       -5.24395661       2.52898647       1.14465749
O       -1.05958536      -1.74973298      -1.82244644
O        1.21817997       1.88162846      -0.86454340
C       -2.67011168      -0.03328087       0.15457524
C       -3.20959088       1.32464473       0.62486235
C       -1.30461580      -0.39188718       0.79725885
C       -4.74277711       1.32364248       0.62880560
C       -0.08737508      -0.04580039      -0.05300750
C       -0.02704550       1.39724959      -0.47081216
H       -3.35870291      -0.81745981       0.50202616
H       -2.86291959       2.07004868      -0.09528901
H       -1.24472045       0.17456664       1.72361802
H       -5.11158854       1.12523651      -0.37375070
H       -5.10323433       0.55231649       1.30226327
H       -2.22550755      -0.75065816      -1.56832567
H       -3.47459763       2.11814863       2.34145385
H       -0.42549347       1.98597070       0.30692799
H       -0.65762036       1.48953172      -1.31243991
H       -0.91358666      -2.22934696       0.44497808
H        1.76537961       1.95616545      -0.07926881
H       -5.04434941       3.23544731       0.52908537
O        2.75437545      -1.78541658      -2.58690400
O        1.11509135      -2.78532253      -1.74666032
O        5.37614670      -1.80618755      -0.53887751
N        0.87443933      -0.83083840       0.18084124
N        4.75153327       0.21861902       0.22796364
C        2.07874475      -0.98885513      -0.55626808
C        3.16465492      -1.56331527       0.37883456
C        1.90160999      -1.95529439      -1.67725646
C        4.54800783      -1.08814102      -0.03253521
H        2.40267030      -0.05154143      -0.99003779
H        2.96056968      -1.22982928       1.39342966
H        3.13964547      -2.65228667       0.36203728
H       -0.09560356      -2.10673402      -0.77015268
H       -0.55550927      -1.18340871      -2.41944654
H        4.05708928       0.78847110       0.68323926
H        5.62972300       0.63139953      -0.02483637
H        2.69404604      -2.45053259      -3.26714539
O        2.29889518       1.45349159       1.70557446
H        1.71423554       0.68854435       1.73537745
H        2.08708500       1.99585951       2.45848596
44
Properties=species:S:1:pos:R:3 product=T mapped+aligned=T onto=T reactant=T pbc="F F F"
O       -2.64188821       0.00381410      -1.21916083
O       -2.73064025       1.70734393       1.88343056
O       -1.25984073      -1.70936136       1.22140040
O       -5.23774977       2.54060449       1.13221779
O       -1.14489930      -1.86968399      -1.84655686
O        1.23232914       1.88683610      -0.84428992
C       -2.65641558      -0.02779305       0.17436133
C       -3.20059520       1.33664071       0.62250524
C       -1.29161970      -0.37445691       0.82788676
C       -4.73381955       1.32891168       0.63274062
C       -0.07630955      -0.03852890      -0.02539333
C       -0.01884877       1.39428112      -0.47555372
H       -3.34409824      -0.80884686       0.53064002
H       -2.86011620       2.07069243      -0.11321954
H       -1.23580759       0.20905830       1.74500342
H       -5.10626926       1.11352978      -0.36559859
H       -5.08839076       0.56620834       1.31988591
H       -2.22888123      -0.78725549      -1.53808048
H       -3.46381221       2.15840368       2.32734476
H       -0.44728434       1.99805984       0.27892153
H       -0.62866095       1.46064166      -1.33858591
H       -0.87891865      -2.21360774       0.51258658
H        1.76342650       1.96372397      -0.04726209
H       -5.04235782       3.23885800       0.50532224
O        2.82676245      -1.75594554      -2.58429902
O        1.12768705      -2.74192848      -1.82712368
O        5.37679548      -1.80058027      -0.52235075
N        0.86232890      -0.85187425       0.15495940
N        4.74661130       0.22190816       0.24596942
C        2.07841728      -0.97786941      -0.56870558
C        3.15577328      -1.55884581       0.37338537
C        1.93009020      -1.92567166      -1.71132116
C        4.54387461      -1.08368100      -0.02209641
H        2.40160980      -0.02968668      -0.98187278
H        2.94200352      -1.23012384       1.38778847
H        3.12861955      -2.64769949       0.35116645
H       -0.18031903      -2.17936556      -0.96117239
H       -0.64082321      -1.30335972      -2.44355695
H        4.04891511       0.79032689       0.69772014
H        5.62790264       0.63485924       0.00353829
H        2.78471594      -2.41068709      -3.27770282
O        2.27940848       1.45076841       1.73893771
H        1.69458253       0.68754958       1.78421142
H        2.06990166       2.00693277       2.48323105
44
Properties=species:S:1:pos:R:3 product=T mapped+aligned=T onto=T reactant=T pbc="F F F"
O       -2.62099926      -0.01063862      -1.20007383
O       -2.71824283       1.74563226       1.87382431
O       -1.24677308      -1.68593067       1.27458532
O       -5.23154293       2.55222252       1.11977810
O       -1.23021324      -1.98963499      -1.87066727
O        1.24647831       1.89204374      -0.82403644
C       -2.64271948      -0.02230522       0.19414743
C       -3.19159952       1.34863670       0.62014813
C       -1.27862360      -0.35702664       0.85851467
C       -4.72486199       1.33418088       0.63667564
C       -0.06524402      -0.03125741       0.00222085
C       -0.01065204       1.39131265      -0.48029528
H       -3.32949358      -0.80023392       0.55925387
H       -2.85731282       2.07133618      -0.13115007
H       -1.22689474       0.24354996       1.76638882
H       -5.10094999       1.10182305      -0.35744648
H       -5.07354718       0.58010019       1.33750855
H       -2.23225491      -0.82385281      -1.50783529
H       -3.45302679       2.19865874       2.31323567
H       -0.46907520       2.01014897       0.25091506
H       -0.59970155       1.43175160      -1.36473190
H       -0.84425064      -2.19786852       0.58019509
H        1.76147338       1.97128250      -0.01525537
H       -5.04036623       3.24226868       0.48155911
O        2.89914945      -1.72647450      -2.58169403
O        1.14028275      -2.69853443      -1.90758704
O        5.37744426      -1.79497299      -0.50582399
N        0.85021847      -0.87291010       0.12907756
N        4.74168933       0.22519731       0.26397520
C        2.07808980      -0.96688368      -0.58114308
C        3.14689165      -1.55437634       0.36793618
C        1.95857042      -1.89604893      -1.74538587
C        4.53974138      -1.07922098      -0.01165760
H        2.40054931      -0.00783194      -0.97370777
H        2.92343736      -1.23041839       1.38214729
H        3.11759362      -2.64311231       0.34029563
H       -0.26503450      -2.25199710      -1.15219210
H       -0.72613715      -1.42331072      -2.46766737
H        4.04074094       0.79218268       0.71220102
H        5.62608228       0.63831895       0.03191295
H        2.87538585      -2.37084158      -3.28826025
O        2.25992177       1.44804522       1.77230095
H        1.67492952       0.68655481       1.83304539
H        2.05271832       2.01800603       2.50797613
44
Properties=species:S:1:pos:R:3 product=T mapped+aligned=T onto=T reactant=T pbc="F F F"
O       -2.60011030      -0.02509133      -1.18098683
O       -2.70584541       1.78392060       1.86421806
O       -1.23370544      -1.66249997       1.32777025
O       -5.22533608       2.56384055       1.10733840
O       -1.31552718      -2.10958600      -1.89477769
O        1.26062747       1.89725138      -0.80378297
C       -2.62902338      -0.01681739       0.21393353
C       -3.18260383       1.36063268       0.61779101
C       -1.26562751      -0.33959636       0.88914258
C       -4.71590444       1.33945008       0.64061066
C       -0.05417848      -0.02398592       0.02983503
C       -0.00245532       1.38834417      -0.48503685
H       -3.31488892      -0.79162098       0.58786773
H       -2.85450943       2.07197992      -0.14908061
H       -1.21798188       0.27804162       1.78777422
H       -5.09563071       1.09011632      -0.34929436
H       -5.05870361       0.59399204       1.35513119
H       -2.23562859      -0.86045014      -1.47759010
H       -3.44224136       2.23891379       2.29912659
H       -0.49086606       2.02223811       0.22290860
H       -0.57074214       1.40286155      -1.39087790
H       -0.80958262      -2.18212930       0.64780359
H        1.75952027       1.97884103       0.01675135
H       -5.03837464       3.24567936       0.45779598
O        2.97153645      -1.69700346      -2.57908905
O        1.15287844      -2.65514037      -1.98805039
O        5.37809304      -1.78936571      -0.48929723
N        0.83810804      -0.89394596       0.10319572
N        4.73676735       0.22848645       0.28198098
C        2.07776233      -0.95589795      -0.59358057
C        3.13801002      -1.54990688       0.36248700
C        1.98705063      -1.86642620      -1.77945057
C        4.53560816      -1.07476096      -0.00121879
H        2.39948881       0.01402281      -0.96554276
H        2.90487120      -1.23071294       1.37650610
H        3.10656770      -2.63852513       0.32942480
H       -0.34974996      -2.32462865      -1.34321181
H       -0.81145109      -1.54326173      -2.49177779
H        4.03256677       0.79403847       0.72668191
H        5.62426193       0.64177866       0.06028762
H        2.96605575      -2.33099608      -3.29881769
O        2.24043507       1.44532204       1.80566420
H        1.65527651       0.68556004       1.88187936
H        2.03553497       2.02907928       2.53272121
44
Properties=species:S:1:pos:R:3 product=T mapped+aligned=T onto=T reactant=T pbc="F F F"
O       -2.57922135      -0.03954404      -1.16189983
O       -2.69344799       1.82220893       1.85461181
O       -1.22063780      -1.63906927       1.38095517
O       -5.21912924       2.57545858       1.09489870
O       -1.40084112      -2.22953701      -1.91888811
O        1.27477664       1.90245902      -0.78352949
C       -2.61532728      -0.01132956       0.23371963
C       -3.17360815       1.37262867       0.61543390
C       -1.25263141      -0.32216609       0.91977048
C       -4.70694688       1.34471927       0.64454568
C       -0.04311295      -0.01671443       0.05744921
C        0.00574141       1.38537570      -0.48977841
H       -3.30028426      -0.78300804       0.61648159
H       -2.85170604       2.07262367      -0.16701114
H       -1.20906903       0.31253328       1.80915962
H       -5.09031143       1.07840959      -0.34114225
H       -5.04386004       0.60788389       1.37275383
H       -2.23900227      -0.89704746      -1.44734490
H       -3.43145594       2.27916884       2.28501750
H       -0.51265692       2.03432725       0.19490213
H       -0.54178273       1.37397149      -1.41702389
H       -0.77491461      -2.16639008       0.71541210
H        1.75756715       1.98639956       0.04875807
H       -5.03638305       3.24909004       0.43403285
O        3.04392345      -1.66753242      -2.57648406
O        1.16547414      -2.61174632      -2.06851375
O        5.37874182      -1.78375843      -0.47277048
N        0.82599761      -0.91498181       0.07731388
N        4.73184538       0.23177559       0.29998676
C        2.07743486      -0.94491222      -0.60601807
C        3.12912839      -1.54543741       0.35703781
C        2.01553084      -1.83680348      -1.81351528
C        4.53147493      -1.07030094       0.00922002
H        2.39842832       0.03587755      -0.95737776
H        2.88630503      -1.23100749       1.37086491
H        3.09554178      -2.63393795       0.31855397
H       -0.43446543      -2.39726019      -1.53423152
H       -0.89676503      -1.66321274      -2.51588820
H        4.02439260       0.79589425       0.74116279
H        5.62244157       0.64523837       0.08866228
H        3.05672566      -2.29115057      -3.30937512
O        2.22094837       1.44259886       1.83902744
H        1.63562350       0.68456527       1.93071334
H        2.01835163       2.04015254       2.55746629
44
Properties=species:S:1:pos:R:3 product=T mapped+aligned=T onto=T reactant=T pbc="F F F"
O       -2.55833239      -0.05399676      -1.14281284
O       -2.68105057       1.86049726       1.84500555
O       -1.20757015      -1.61563858       1.43414010
O       -5.21292239       2.58707660       1.08245901
O       -1.48615506      -2.34948801      -1.94299852
O        1.28892580       1.90766666      -0.76327601
C       -2.60163118      -0.00584174       0.25350572
C       -3.16461247       1.38462465       0.61307679
C       -1.23963532      -0.30473581       0.95039839
C       -4.69798933       1.34998847       0.64848070
C       -0.03204741      -0.00944294       0.08506338
C        0.01393814       1.38240723      -0.49451997
H       -3.28567959      -0.77439509       0.64509544
H       -2.84890266       2.07326741      -0.18494167
H       -1.20015617       0.34702494       1.83054502
H       -5.08499216       1.06670286      -0.33299013
H       -5.02901646       0.62177574       1.39037647
H       -2.24237595      -0.93364479      -1.41709971
H       -3.42067051       2.31942390       2.27090842
H       -0.53444779       2.04641638       0.16689567
H       -0.51282333       1.34508144      -1.44316989
H       -0.74024660      -2.15065086       0.78302060
H        1.75561404       1.99395808       0.08076479
H       -5.03439146       3.25250073       0.41026972
O        3.11631045      -1.63806138      -2.57387908
O        1.17806983      -2.56835227      -2.14897710
O        5.37939060      -1.77815115      -0.45624372
N        0.81388718      -0.93601767       0.05143204
N        4.72692340       0.23506474       0.31799254
C        2.07710738      -0.93392650      -0.61845557
C        3.12024675      -1.54096795       0.35158862
C        2.04401106      -1.80718075      -1.84757998
C        4.52734171      -1.06584092       0.01965882
H        2.39736782       0.05773230      -0.94921275
H        2.86773887      -1.23130205       1.36522373
H        3.08451585      -2.62935077       0.30768315
H       -0.51918090      -2.46989173      -1.72525123
H       -0.98207897      -1.78316374      -2.53999862
H        4.01621843       0.79775004       0.75564367
H        5.62062122       0.64869808       0.11703694
H        3.14739556      -2.25130507      -3.31993256
O        2.20146166       1.43987567       1.87239069
H        1.61597049       0.68357050       1.97954731
H        2.00116828       2.05122580       2.58221138
44
Properties=species:S:1:pos:R:3 product=T mapped+aligned=T onto=T reactant=T charge=0 multiplicity=1 pbc="F F F"
O       -2.53744344      -0.06844947      -1.12372584
O       -2.66865315       1.89878559       1.83539930
O       -1.19450251      -1.59220788       1.48732502
O       -5.20671555       2.59869463       1.07001931
O       -1.57146900      -2.46943902      -1.96710894
O        1.30307497       1.91287430      -0.74302253
C       -2.58793508      -0.00035391       0.27329182
C       -3.15561679       1.39662064       0.61071968
C       -1.22663922      -0.28730554       0.98102630
C       -4.68903177       1.35525767       0.65241572
C       -0.02098188      -0.00217145       0.11267756
C        0.02213487       1.37943876      -0.49926153
H       -3.27107493      -0.76578215       0.67370930
H       -2.84609927       2.07391116      -0.20287220
H       -1.19124332       0.38151660       1.85193042
H       -5.07967288       1.05499613      -0.32483802
H       -5.01417289       0.63566759       1.40799911
H       -2.24574963      -0.97024211      -1.38685452
H       -3.40988509       2.35967895       2.25679933
H       -0.55623865       2.05850552       0.13888920
H       -0.48386392       1.31619138      -1.46931588
H       -0.70557859      -2.13491164       0.85062911
H        1.75366092       2.00151661       0.11277151
H       -5.03239987       3.25591141       0.38650659
O        3.18869745      -1.60859034      -2.57127409
O        1.19066553      -2.52495822      -2.22944046
O        5.38003938      -1.77254387      -0.43971696
N        0.80177675      -0.95705352       0.02555020
N        4.72200143       0.23835388       0.33599832
C        2.07677991      -0.92294077      -0.63089307
C        3.11136512      -1.53649848       0.34613943
C        2.07249127      -1.77755802      -1.88164469
C        4.52320848      -1.06138090       0.03009763
H        2.39630733       0.07958704      -0.94104774
H        2.84917271      -1.23159660       1.35958254
H        3.07348993      -2.62476359       0.29681232
H       -0.60389637      -2.54252327      -1.91627094
H       -1.79318819      -2.56857041      -2.89513813
H        4.00804426       0.79960583       0.77012455
H        5.61880086       0.65215779       0.14541160
H        3.23806547      -2.21145956      -3.33048999
O        2.18197496       1.43715249       1.90575393
H        1.59631748       0.68257573       2.02838128
H        1.98398494       2.06229906       2.60695646
