44
Properties=species:S:1:pos:R:3 product=T mapped+aligned=T onto=T reactant=T pbc="F F F"
O       -2.99928350       0.15268938      -1.45889703
O       -2.70268294       1.18351058       1.97219810
O       -1.63483773      -2.09392822      -0.10344669
O       -5.10898531       2.52923982       1.42645842
O       -0.16926801      -0.55549003      -1.72136844
O        0.89089364       1.93997827      -1.00003052
C       -2.88014556      -0.11007565      -0.08455951
C       -3.23456155       1.18450226       0.66789706
C       -1.51492446      -0.74135609       0.27053569
C       -4.76051672       1.36467908       0.71160193
C       -0.25371408      -0.12070247      -0.38421166
C       -0.26044639       1.42130267      -0.38122229
H       -3.60874366      -0.88390555       0.21220808
H       -2.82001792       2.03626143       0.10655695
H       -1.40237429      -0.65650907       1.36336808
H       -5.14464180       1.38020842      -0.31273838
H       -5.21961295       0.53766320       1.25807852
H       -2.63743846      -0.61893286      -1.91632732
H       -3.30387863       1.71803109       2.51332437
H       -0.38878651       1.78416175       0.64237057
H       -1.10005385       1.74697894      -0.99802810
H       -0.78166293      -2.45867439      -0.39749093
H        1.61838956       1.95396945      -0.35615865
H       -4.89084199       3.30442623       0.89691614
O        2.40152867      -2.21324118      -2.40200576
O        0.94495124      -3.07596296      -0.94036761
O        5.25441995      -2.04046382      -0.56098856
N        0.90914271      -0.59513529       0.40849638
N        4.88820862       0.11691727      -0.01359345
C        2.06115689      -1.01832912      -0.38326127
C        3.19281730      -1.47138897       0.56091835
C        1.71468916      -2.20799656      -1.27182973
C        4.55373289      -1.18857857      -0.06792746
H        2.39659627      -0.19074484      -1.01433354
H        3.12175065      -0.92454982       1.50056064
H        3.10086946      -2.53816770       0.76925284
H        0.62253487      -1.40092148       0.96147632
H        0.24303837       0.15735342      -2.23131664
H        4.27516716       0.80444769       0.39652565
H        5.76202166       0.41352171      -0.41426097
H        2.23690376      -3.01906787      -2.91795732
O        2.47957228       1.55992017       1.31121934
H        1.84644129       0.81776830       1.24698881
H        2.30259484       2.01658940       2.13537159
44
Properties=species:S:1:pos:R:3 product=T mapped+aligned=T onto=T reactant=T pbc="F F F"
O       -2.95846345       0.13277667      -1.42576549
O       -2.69712066       1.25024959       1.96154149
O       -1.59372739      -2.04721074       0.04319671
O       -5.11597180       2.53763763       1.39810509
O       -0.29948540      -0.73000179      -1.74082257
O        0.92814711       1.93674903      -0.97897370
C       -2.85328217      -0.09919282      -0.04935865
C       -3.22632554       1.20502997       0.66524437
C       -1.48777883      -0.69921967       0.33652992
C       -4.75291813       1.36554452       0.71036973
C       -0.23244064      -0.10986402      -0.33901798
C       -0.23487047       1.41723665      -0.39267053
H       -3.57755305      -0.87185272       0.25792116
H       -2.82197484       2.04042584       0.08031597
H       -1.38114736      -0.56085792       1.40880564
H       -5.13873092       1.35199115      -0.30912777
H       -5.19926375       0.54877270       1.27655029
H       -2.60353302      -0.65089672      -1.86537468
H       -3.31047203       1.77850848       2.49231217
H       -0.40326109       1.80933371       0.59613067
H       -1.04516781       1.70721931      -1.04102860
H       -0.77448603      -2.42859959      -0.28222294
H        1.63137700       1.95782260      -0.31635226
H       -4.90232846       3.30170272       0.85405793
O        2.46994165      -2.16051234      -2.41985165
O        0.96423944      -3.02734241      -1.05749063
O        5.26483353      -2.01792746      -0.55461569
N        0.89912395      -0.62826108       0.37333988
N        4.87348583       0.12671918       0.01319146
C        2.06164230      -1.01059141      -0.40744476
C        3.18530181      -1.47805770       0.53895725
C        1.74473936      -2.17042573      -1.32849289
C        4.55065034      -1.17834509      -0.06314702
H        2.39560535      -0.16735616      -1.01017761
H        3.09799834      -0.95262579       1.48541760
H        3.09790106      -2.54680122       0.72445822
H        0.50832161      -1.50548231       0.70178694
H        0.11128779      -0.01980911      -2.24887448
H        4.25188740       0.80319958       0.42594260
H        5.74930672       0.43361443      -0.36951135
H        2.32380949      -2.94828364      -2.95765845
O        2.45489374       1.54906514       1.36227491
H        1.82598860       0.80602122       1.31601688
H        2.27691470       2.02146084       2.17513273
44
Properties=species:S:1:pos:R:3 product=T mapped+aligned=T onto=T reactant=T pbc="F F F"
O       -2.91764340       0.11286395      -1.39263394
O       -2.69155839       1.31698860       1.95088489
O       -1.55261704      -2.00049327       0.18984010
O       -5.12295830       2.54603544       1.36975175
O       -0.42970278      -0.90451355      -1.76027670
O        0.96540057       1.93351978      -0.95791688
C       -2.82641878      -0.08830999      -0.01415778
C       -3.21808954       1.22555768       0.66259168
C       -1.46063319      -0.65708325       0.40252414
C       -4.74531954       1.36640997       0.70913752
C       -0.21116720      -0.09902556      -0.29382430
C       -0.20929455       1.41317064      -0.40411877
H       -3.54636244      -0.85979989       0.30363424
H       -2.82393175       2.04459025       0.05407500
H       -1.35992043      -0.46520678       1.45424319
H       -5.13282004       1.32377388      -0.30551716
H       -5.17891454       0.55988221       1.29502206
H       -2.56962758      -0.68286058      -1.81442203
H       -3.31706543       1.83898587       2.47129997
H       -0.41773567       1.83450568       0.54989078
H       -0.99028176       1.66745968      -1.08402909
H       -0.76730912      -2.39852478      -0.16695495
H        1.64436444       1.96167574      -0.27654588
H       -4.91381493       3.29897921       0.81119971
O        2.53835463      -2.10778350      -2.43769754
O        0.98352763      -2.97872185      -1.17461365
O        5.27524710      -1.99539110      -0.54824281
N        0.88910520      -0.66138688       0.33818338
N        4.85876304       0.13652108       0.03997638
C        2.06212771      -1.00285371      -0.43162824
C        3.17778632      -1.48472643       0.51699615
C        1.77478955      -2.13285489      -1.38515605
C        4.54756779      -1.16811161      -0.05836659
H        2.39461442      -0.14396748      -1.00602168
H        3.07424602      -0.98070176       1.47027456
H        3.09493266      -2.55543473       0.67966359
H        0.39410836      -1.61004315       0.44209757
H       -0.01892960      -0.19432087      -2.26832861
H        4.22860764       0.80195147       0.45535956
H        5.73659177       0.45370716      -0.32476173
H        2.41071522      -2.87749942      -2.99735957
O        2.43021521       1.53821011       1.41333048
H        1.80553590       0.79427415       1.38504496
H        2.25123456       2.02633227       2.21489387
44
Properties=species:S:1:pos:R:3 product=T mapped+aligned=T onto=T reactant=T pbc="F F F"
O       -2.87682334       0.09295124      -1.35950240
O       -2.68599611       1.38372760       1.94022828
O       -1.51150670      -1.95377579       0.33648350
O       -5.12994479       2.55443325       1.34139842
O       -0.55992017      -1.07902530      -1.77973082
O        1.00265404       1.93029054      -0.93686006
C       -2.79955539      -0.07742715       0.02104308
C       -3.20985353       1.24608539       0.65993900
C       -1.43348756      -0.61494684       0.46851837
C       -4.73772096       1.36727541       0.70790532
C       -0.18989377      -0.08818711      -0.24863062
C       -0.18371862       1.40910462      -0.41556701
H       -3.51517183      -0.84774706       0.34934732
H       -2.82588867       2.04875466       0.02783402
H       -1.33869350      -0.36955563       1.49968075
H       -5.12690916       1.29555662      -0.30190655
H       -5.15856534       0.57099171       1.31349383
H       -2.53572213      -0.71482445      -1.76346939
H       -3.32365883       1.89946325       2.45028776
H       -0.43221025       1.85967764       0.50365088
H       -0.93539572       1.62770005      -1.12702959
H       -0.76013222      -2.36844998      -0.05168696
H        1.65735187       1.96552889      -0.23673949
H       -4.92530139       3.29625570       0.76834150
O        2.60676760      -2.05505466      -2.45554343
O        1.00281583      -2.93010130      -1.29173668
O        5.28566068      -1.97285474      -0.54186994
N        0.87908644      -0.69451267       0.30302687
N        4.84404024       0.14632299       0.06676129
C        2.06261313      -0.99511600      -0.45581173
C        3.17027083      -1.49139516       0.49503505
C        1.80483975      -2.09528406      -1.44181920
C        4.54448524      -1.15787813      -0.05358615
H        2.39362350      -0.12057881      -1.00186576
H        3.05049371      -1.00877773       1.45513152
H        3.09196425      -2.56406825       0.63486897
H        0.27989510      -1.71460398       0.18240819
H       -0.14914699      -0.36883262      -2.28778274
H        4.20532788       0.80070336       0.48477651
H        5.72387683       0.47379988      -0.28001211
H        2.49762096      -2.80671519      -3.03706070
O        2.40553667       1.52735508       1.46438605
H        1.78508321       0.78252707       1.45407303
H        2.22555443       2.03120371       2.25465501
44
Properties=species:S:1:pos:R:3 product=T mapped+aligned=T onto=T reactant=T pbc="F F F"
O       -2.83600329       0.07303852      -1.32637086
O       -2.68043384       1.45046661       1.92957167
O       -1.47039636      -1.90705831       0.48312690
O       -5.13693128       2.56283106       1.31304509
O       -0.69013756      -1.25353706      -1.79918495
O        1.03990750       1.92706129      -0.91580324
C       -2.77269200      -0.06654432       0.05624395
C       -3.20161753       1.26661310       0.65728631
C       -1.40634192      -0.57281042       0.53451260
C       -4.73012237       1.36814085       0.70667312
C       -0.16862033      -0.07734866      -0.20343694
C       -0.15814270       1.40503861      -0.42701525
H       -3.48398122      -0.83569423       0.39506040
H       -2.82784558       2.05291907       0.00159304
H       -1.31746657      -0.27390448       1.54511830
H       -5.12099828       1.26733935      -0.29829594
H       -5.13821614       0.58210122       1.33196560
H       -2.50181669      -0.74678831      -1.71251674
H       -3.33025223       1.95994064       2.42927556
H       -0.44668483       1.88484960       0.45741098
H       -0.88050968       1.58794042      -1.17003009
H       -0.75295532      -2.33837518       0.06358103
H        1.67033931       1.96938204      -0.19693311
H       -4.93678786       3.29353219       0.72548329
O        2.67518058      -2.00232582      -2.47338932
O        1.02210403      -2.88148075      -1.40885970
O        5.29607426      -1.95031838      -0.53549707
N        0.86906768      -0.72763846       0.26787037
N        4.82931745       0.15612490       0.09354620
C        2.06309854      -0.98737830      -0.47999521
C        3.16275534      -1.49806389       0.47307395
C        1.83488995      -2.05771323      -1.49848236
C        4.54140269      -1.14764465      -0.04880571
H        2.39263258      -0.09719013      -0.99770983
H        3.02674140      -1.03685370       1.43998848
H        3.08899585      -2.57270176       0.59007435
H        0.16568184      -1.81916481      -0.07728119
H       -0.27936437      -0.54334438      -2.30723687
H        4.18204812       0.79945525       0.51419346
H        5.71116189       0.49389261      -0.23526249
H        2.58452669      -2.73593096      -3.07676183
O        2.38085813       1.51650005       1.51544162
H        1.76463052       0.77077999       1.52310110
H        2.19987429       2.03607515       2.29441615
44
Properties=species:S:1:pos:R:3 product=T mapped+aligned=T onto=T reactant=T pbc="F F F"
O       -2.79518324       0.05312581      -1.29323931
O       -2.67487156       1.51720562       1.91891507
O       -1.42928601      -1.86034084       0.62977030
O       -5.14391777       2.57122887       1.28469176
O       -0.82035494      -1.42804882      -1.81863908
O        1.07716097       1.92383205      -0.89474642
C       -2.74582861      -0.05566149       0.09144481
C       -3.19338152       1.28714081       0.65463362
C       -1.37919629      -0.53067400       0.60050682
C       -4.72252378       1.36900629       0.70544092
C       -0.14734689      -0.06651021      -0.15824326
C       -0.13256678       1.40097259      -0.43846349
H       -3.45279061      -0.82364140       0.44077348
H       -2.82980250       2.05708348      -0.02464794
H       -1.29623964      -0.17825333       1.59055586
H       -5.11508740       1.23912208      -0.29468533
H       -5.11786693       0.59321072       1.35043737
H       -2.46791125      -0.77875217      -1.66156410
H       -3.33684563       2.02041803       2.40826336
H       -0.46115941       1.91002156       0.41117109
H       -0.82562364       1.54818079      -1.21303058
H       -0.74577841      -2.30830038       0.17884902
H        1.68332675       1.97323519      -0.15712672
H       -4.94827433       3.29080868       0.68262507
O        2.74359356      -1.94959698      -2.49123521
O        1.04139222      -2.83286019      -1.52598272
O        5.30648783      -1.92778202      -0.52912420
N        0.85904892      -0.76076425       0.23271387
N        4.81459466       0.16592681       0.12033112
C        2.06358395      -0.97964059      -0.50417870
C        3.15523985      -1.50473262       0.45111285
C        1.86494015      -2.02014239      -1.55514552
C        4.53832014      -1.13741117      -0.04402528
H        2.39164166      -0.07380145      -0.99355390
H        3.00298908      -1.06492967       1.42484544
H        3.08602745      -2.58133528       0.54527972
H        0.05146859      -1.92372565      -0.33697057
H       -0.40958176      -0.71785614      -2.32669100
H        4.15876836       0.79820714       0.54361042
H        5.69844695       0.51398533      -0.19051287
H        2.67143242      -2.66514674      -3.11646295
O        2.35617959       1.50564502       1.56649719
H        1.74417782       0.75903292       1.59212917
H        2.17419415       2.04094659       2.33417729
44
Properties=species:S:1:pos:R:3 product=T mapped+aligned=T onto=T reactant=T pbc="F F F"
O       -2.75436319       0.03321309      -1.26010777
O       -2.66930929       1.58394463       1.90825846
O       -1.38817567      -1.81362336       0.77641369
O       -5.15090427       2.57962669       1.25633842
O       -0.95057233      -1.60256058      -1.83809321
O        1.11441443       1.92060280      -0.87368961
C       -2.71896522      -0.04477866       0.12664568
C       -3.18514552       1.30766853       0.65198093
C       -1.35205065      -0.48853758       0.66650105
C       -4.71492519       1.36987174       0.70420871
C       -0.12607345      -0.05567175      -0.11304957
C       -0.10699086       1.39690658      -0.44991174
H       -3.42160000      -0.81158858       0.48648656
H       -2.83175941       2.06124790      -0.05088891
H       -1.27501272      -0.08260219       1.63599341
H       -5.10917651       1.21090481      -0.29107473
H       -5.09751773       0.60432023       1.36890915
H       -2.43400581      -0.81071603      -1.61061145
H       -3.34343902       2.08089542       2.38725116
H       -0.47563400       1.93519353       0.36493119
H       -0.77073759       1.50842117      -1.25603108
H       -0.73860151      -2.27822557       0.29411700
H        1.69631419       1.97708833      -0.11732034
H       -4.95976080       3.28808517       0.63976686
O        2.81200654      -1.89686813      -2.50908111
O        1.06068042      -2.78423964      -1.64310574
O        5.31690141      -1.90524567      -0.52275132
N        0.84903017      -0.79389005       0.19755737
N        4.79987187       0.17572871       0.14711603
C        2.06406936      -0.97190289      -0.52836218
C        3.14772436      -1.51140136       0.42915175
C        1.89499034      -1.98257156      -1.61180868
C        4.53523760      -1.12717768      -0.03924484
H        2.39065073      -0.05041277      -0.98939797
H        2.97923677      -1.09300564       1.40970239
H        3.08305905      -2.58996879       0.50048510
H       -0.06274467      -2.02828648      -0.59665994
H       -0.53979914      -0.89236790      -2.34614512
H        4.13548861       0.79695904       0.57302737
H        5.68573200       0.53407806      -0.14576325
H        2.75833815      -2.59436251      -3.15616408
O        2.33150106       1.49478999       1.61755275
H        1.72372513       0.74728584       1.66115725
H        2.14851401       2.04581802       2.37393843
44
Properties=species:S:1:pos:R:3 product=T mapped+aligned=T onto=T reactant=T pbc="F F F"
O       -2.71354314       0.01330038      -1.22697622
O       -2.66374701       1.65068364       1.89760186
O       -1.34706532      -1.76690589       0.92305709
O       -5.15789076       2.58802450       1.22798509
O       -1.08078971      -1.77707234      -1.85754734
O        1.15166790       1.91737356      -0.85263279
C       -2.69210183      -0.03389583       0.16184654
C       -3.17690951       1.32819624       0.64932824
C       -1.32490502      -0.44640116       0.73249527
C       -4.70732660       1.37073718       0.70297651
C       -0.10480001      -0.04483330      -0.06785589
C       -0.08141494       1.39284056      -0.46135998
H       -3.39040939      -0.79953575       0.53219964
H       -2.83371633       2.06541231      -0.07712989
H       -1.25378579       0.01304896       1.68143097
H       -5.10326563       1.18268754      -0.28746412
H       -5.07716852       0.61542973       1.38738092
H       -2.40010037      -0.84267989      -1.55965881
H       -3.35003242       2.14137281       2.36623896
H       -0.49010858       1.96036549       0.31869130
H       -0.71585155       1.46866154      -1.29903157
H       -0.73142460      -2.24815077       0.40938499
H        1.70930163       1.98094148      -0.07751395
H       -4.97124727       3.28536166       0.59690864
O        2.88041952      -1.84413929      -2.52692700
O        1.07996861      -2.73561908      -1.76022876
O        5.32731498      -1.88270931      -0.51637845
N        0.83901141      -0.82701584       0.16240087
N        4.78514908       0.18553062       0.17390095
C        2.06455477      -0.96416518      -0.55254567
C        3.14020887      -1.51807009       0.40719065
C        1.92504054      -1.94500072      -1.66847184
C        4.53215505      -1.11694420      -0.03446441
H        2.38965981      -0.02702409      -0.98524204
H        2.95548445      -1.12108161       1.39455935
H        3.08009065      -2.59860231       0.45569047
H       -0.17695792      -2.13284732      -0.85634932
H       -0.67001653      -1.06687966      -2.36559925
H        4.11220885       0.79571093       0.60244433
H        5.67301706       0.55417078      -0.10101363
H        2.84524388      -2.52357829      -3.19586520
O        2.30682252       1.48393496       1.66860832
H        1.70327243       0.73553877       1.73018532
H        2.12283387       2.05068946       2.41369957
44
Properties=species:S:1:pos:R:3 product=T mapped+aligned=T onto=T reactant=T pbc="F F F"
O       -2.67272309      -0.00661234      -1.19384468
O       -2.65818474       1.71742265       1.88694525
O       -1.30595498      -1.72018841       1.06970049
O       -5.16487725       2.59642231       1.19963176
O       -1.21100710      -1.95158410      -1.87700147
O        1.18892136       1.91414431      -0.83157597
C       -2.66523844      -0.02301300       0.19704741
C       -3.16867351       1.34872395       0.64667555
C       -1.29775938      -0.40426474       0.79848950
C       -4.69972801       1.37160262       0.70174431
C       -0.08352657      -0.03399485      -0.02266221
C       -0.05583902       1.38877455      -0.47280822
H       -3.35921878      -0.78748292       0.57791272
H       -2.83567324       2.06957672      -0.10337087
H       -1.23255886       0.10870011       1.72686852
H       -5.09735475       1.15447027      -0.28385351
H       -5.05681932       0.62653924       1.40585269
H       -2.36619493      -0.87464375      -1.50870616
H       -3.35662582       2.20185020       2.34522676
H       -0.50458316       1.98553745       0.27245140
H       -0.66096551       1.42890191      -1.34203207
H       -0.72424770      -2.21807597       0.52465298
H        1.72228907       1.98479463      -0.03770757
H       -4.98273374       3.28263815       0.55405043
O        2.94883250      -1.79141045      -2.54477289
O        1.09925681      -2.68699853      -1.87735178
O        5.33772856      -1.86017295      -0.51000558
N        0.82899265      -0.86014163       0.12724437
N        4.77042629       0.19533253       0.20068586
C        2.06504018      -0.95642748      -0.57672915
C        3.13269338      -1.52473882       0.38522955
C        1.95509074      -1.90742989      -1.72513500
C        4.52907250      -1.10671072      -0.02968397
H        2.38866889      -0.00363541      -0.98108611
H        2.93173214      -1.14915758       1.37941631
H        3.07712225      -2.60723582       0.41089585
H       -0.29117118      -2.23740815      -1.11603870
H       -0.80023392      -1.24139141      -2.38505338
H        4.08892909       0.79446282       0.63186128
H        5.66030212       0.57426351      -0.05626401
H        2.93214961      -2.45279406      -3.23556633
O        2.28214398       1.47307993       1.71966389
H        1.68281974       0.72379169       1.79921339
H        2.09715373       2.05556090       2.45346071
44
Properties=species:S:1:pos:R:3 product=T mapped+aligned=T onto=T reactant=T pbc="F F F"
O       -2.63190303      -0.02652505      -1.16071314
O       -2.65262246       1.78416165       1.87628864
O       -1.26484464      -1.67347093       1.21634389
O       -5.17186374       2.60482012       1.17127843
O       -1.34122449      -2.12609585      -1.89645559
O        1.22617483       1.91091507      -0.81051915
C       -2.63837505      -0.01213016       0.23224827
C       -3.16043750       1.36925166       0.64402287
C       -1.27061375      -0.36212833       0.86448373
C       -4.69212943       1.37246806       0.70051211
C       -0.06225314      -0.02315640       0.02253147
C       -0.03026309       1.38470853      -0.48425646
H       -3.32802817      -0.77543009       0.62362580
H       -2.83763016       2.07374113      -0.12961185
H       -1.21133193       0.20435126       1.77230608
H       -5.09144387       1.12625301      -0.28024290
H       -5.03647012       0.63764874       1.42432446
H       -2.33228948      -0.90660762      -1.45775352
H       -3.36321922       2.26232758       2.32421455
H       -0.51905774       2.01070941       0.22621150
H       -0.60607947       1.38914228      -1.38503257
H       -0.71707080      -2.18800117       0.63992097
H        1.73527650       1.98864778       0.00209882
H       -4.99422020       3.27991464       0.51119222
O        3.01724547      -1.73868161      -2.56261878
O        1.11854501      -2.63837798      -1.99447481
O        5.34814214      -1.83763659      -0.50363271
N        0.81897389      -0.89326742       0.09208786
N        4.75570349       0.20513444       0.22747077
C        2.06552560      -0.94868977      -0.60091264
C        3.12517789      -1.53140755       0.36326845
C        1.98514094      -1.86985906      -1.78179815
C        4.52598995      -1.09647724      -0.02490353
H        2.38767797       0.01975326      -0.97693019
H        2.90797983      -1.17723355       1.36427327
H        3.07415384      -2.61586934       0.36610123
H       -0.40538444      -2.34196898      -1.37572808
H       -0.93045130      -1.41590317      -2.40450751
H        4.06564933       0.79321471       0.66127823
H        5.64758718       0.59435623      -0.01151439
H        3.01905535      -2.38200983      -3.27526746
O        2.25746544       1.46222490       1.77071946
H        1.66236705       0.71204461       1.86824146
H        2.07147360       2.06043234       2.49322185
44
Properties=species:S:1:pos:R:3 product=T mapped+aligned=T onto=T reactant=T pbc="F F F"
O       -2.59108298      -0.04643777      -1.12758159
O       -2.64706019       1.85090066       1.86563204
O       -1.22373429      -1.62675346       1.36298728
O       -5.17885024       2.61321793       1.14292509
O       -1.47144187      -2.30060761      -1.91590972
O        1.26342829       1.90768582      -0.78946233
C       -2.61151166      -0.00124733       0.26744914
C       -3.15220150       1.38977937       0.64137018
C       -1.24346811      -0.31999191       0.93047795
C       -4.68453084       1.37333351       0.69927990
C       -0.04097970      -0.01231794       0.06772515
C       -0.00468717       1.38064252      -0.49570470
H       -3.29683756      -0.76337726       0.66933888
H       -2.83958707       2.07790554      -0.15585282
H       -1.19010500       0.30000240       1.81774363
H       -5.08553299       1.09803574      -0.27663229
H       -5.01612091       0.64875825       1.44279623
H       -2.29838404      -0.93857148      -1.40680087
H       -3.36981262       2.32280497       2.30320235
H       -0.53353232       2.03588138       0.17997161
H       -0.55119342       1.34938265      -1.42803306
H       -0.70989389      -2.15792636       0.75518896
H        1.74826394       1.99250092       0.04190520
H       -5.00570667       3.27719113       0.46833400
O        3.08565845      -1.68595277      -2.58046467
O        1.13783320      -2.58975742      -2.11159783
O        5.35855571      -1.81510023      -0.49725983
N        0.80895514      -0.92639322       0.05693136
N        4.74098070       0.21493634       0.25425569
C        2.06601101      -0.94095207      -0.62509612
C        3.11766240      -1.53807628       0.34130735
C        2.01519113      -1.83228822      -1.83846131
C        4.52290740      -1.08624376      -0.02012310
H        2.38668704       0.04314194      -0.97277426
H        2.88422751      -1.20530952       1.34913023
H        3.07118544      -2.62450285       0.32130660
H       -0.51959769      -2.44652982      -1.63541745
H       -1.06066869      -1.59041493      -2.42396164
H        4.04236957       0.79196660       0.69069519
H        5.63487223       0.61444896       0.03323523
H        3.10596108      -2.31122561      -3.31496858
O        2.23278691       1.45136987       1.82177503
H        1.64191435       0.70029754       1.93726954
H        2.04579346       2.06530377       2.53298299
44
Properties=species:S:1:pos:R:3 product=T mapped+aligned=T onto=T reactant=T charge=0 multiplicity=1 pbc="F F F"
O       -2.55026293      -0.06635048      -1.09445005
O       -2.64149791       1.91763967       1.85497543
O       -1.18262395      -1.58003598       1.50963068
O       -5.18583673       2.62161574       1.11457176
O       -1.60165926      -2.47511937      -1.93536385
O        1.30068176       1.90445658      -0.76840551
C       -2.58464827       0.00963550       0.30265000
C       -3.14396549       1.41030708       0.63871749
C       -1.21632248      -0.27785549       0.99647218
C       -4.67693225       1.37419895       0.69804770
C       -0.01970626      -0.00147949       0.11291883
C        0.02088875       1.37657650      -0.50715294
H       -3.26564695      -0.75132443       0.71505196
H       -2.84154399       2.08206995      -0.18209380
H       -1.16887807       0.39565355       1.86318119
H       -5.07962211       1.06981847      -0.27302168
H       -4.99577171       0.65986775       1.46126800
H       -2.26447860      -0.97053534      -1.35584823
H       -3.37640602       2.38328236       2.28219015
H       -0.54800690       2.06105334       0.13373171
H       -0.49630738       1.30962302      -1.47103356
H       -0.70271699      -2.12785156       0.87045695
H        1.76125138       1.99635407       0.08171159
H       -5.01719314       3.27446762       0.42547579
O        3.15407143      -1.63322393      -2.59831056
O        1.15712140      -2.54113687      -2.22872085
O        5.36896929      -1.79256387      -0.49088696
N        0.79893638      -0.95951901       0.02177486
N        4.72625791       0.22473825       0.28104060
C        2.06649642      -0.93321436      -0.64927961
C        3.11014691      -1.54474501       0.31934625
C        2.04524133      -1.79471739      -1.89512447
C        4.51982485      -1.07601028      -0.01534266
H        2.38569612       0.06653062      -0.96861833
H        2.86047520      -1.23338549       1.33398719
H        3.06821704      -2.63313637       0.27651198
H       -0.63381095      -2.55109065      -1.89510683
H       -1.83423310      -2.57865498      -2.86025000
H        4.01908981       0.79071849       0.72011214
H        5.62215729       0.63454168       0.07798485
H        3.19286681      -2.24044138      -3.35466971
O        2.20810837       1.44051484       1.87283060
H        1.62146166       0.68855046       2.00629761
H        2.02011332       2.07017521       2.57274413
