44
Properties=species:S:1:pos:R:3:forces:R:3 reactant=T mapped=T (centered)=T charge=0 spin=1 energy=-34182.88403195872 free_energy=-34182.88403195872 stress="-1.1874839620972177 0.9622267532280236 0.33815516585145106 0.9622267532280236 -0.3406534538820586 -0.16283524311528602 0.33815516585145106 -0.16283524311528602 -0.05097589638537966" pbc="F F F"
O       -3.91506862       0.51264987      -1.24000034      -0.02760501       0.01163261       0.00567811
O       -2.98497632       0.78105456       2.20615593      -0.00852207      -0.00344161       0.00184700
O       -2.04727292      -1.39746925      -1.35821636      -0.00369949       0.02914931      -0.02035719
O       -4.99923831       2.64090050       2.14244534      -0.00327050       0.00373006       0.01343963
O       -0.72577369       0.93988561      -1.58789726      -0.02178628       0.03640890      -0.00081136
O        0.70804145       2.06324808       0.41288334      -0.01651387       0.00588894       0.00393488
C       -3.39423962       0.03843473      -0.01706734      -0.01920101       0.00536659      -0.00028208
C       -3.48191381       1.20345786       0.94779563      -0.01302282       0.00121108       0.00504589
C       -1.97907710      -0.54830818      -0.22841708      -0.01348640       0.02053477      -0.01407223
C       -4.91595883       1.68282297       1.08955099      -0.01081732       0.00499634       0.01129119
C       -0.93098568       0.53467929      -0.46928317      -0.04281566       0.05234099      -0.01966413
C       -0.20389210       1.03244603       0.75232385      -0.01877305       0.02668667       0.00237339
H       -4.01028112      -0.78058622       0.37595089      -0.01225213       0.00085546       0.00059826
H       -2.87575449       2.03483242       0.55312341      -0.01169762       0.00050062       0.00501729
H       -1.70104545      -1.14314429       0.64372349       0.00325512       0.01811068      -0.01921346
H       -5.27916287       2.07981164       0.14239245      -0.01220969       0.00691708       0.01272505
H       -5.54775991       0.84378230       1.38541202      -0.01225245       0.00639532       0.01219973
H       -3.82780848      -0.20672986      -1.87654458       0.00222605      -0.00702639      -0.01160951
H       -3.37926393       1.37094922       2.86382786      -0.00269997      -0.00302402       0.00510866
H       -0.93651784       1.35461910       1.49397725      -0.00448210       0.03720248       0.01996919
H        0.30967657       0.15868857       1.16580833      -0.01747858       0.01640239      -0.00355932
H       -1.70034185      -0.87127312      -2.09513833       0.03085180       0.02802278      -0.01707267
H        0.88727960       2.59289378       1.19631043      -0.01044027      -0.06390978      -0.03588522
H       -4.76660395       3.50618264       1.79221357      -0.00306446       0.00342605       0.01276973
O        4.19524407      -2.59717694      -1.82829119       0.02400473      -0.01692720      -0.00238606
O        2.36460373      -3.80135456      -1.35444995       0.02921898      -0.01818701      -0.00621664
O        4.79964605      -2.27172673       1.28243475       0.01593785       0.00283990       0.00247304
N        0.90133069      -1.44867444      -0.97472586       0.02223467      -0.02012230      -0.01907902
N        4.93487711      -0.16002957       0.47287186       0.00319077       0.00231755      -0.00164319
C        2.35079215      -1.44308619      -0.86829672       0.02223590      -0.01934159      -0.00788021
C        2.76084106      -1.21790125       0.59789067       0.01109740      -0.01115444      -0.00488445
C        2.94312979      -2.74737076      -1.37011124       0.02681260      -0.01884871      -0.00457401
C        4.26127614      -1.28175366       0.82317137       0.01064853      -0.00092018      -0.00038101
H        2.75225623      -0.62301841      -1.46344905       0.02089694      -0.01850371      -0.00630747
H        2.38426360      -0.23646537       0.88867157       0.00470676      -0.01140951      -0.00799807
H        2.29688549      -1.98055698       1.22330998       0.01365145      -0.01114948      -0.00420911
H        0.55406226      -2.39606320      -0.85382577       0.03414322      -0.01449207       0.01960730
H        0.62616549      -1.15703820      -1.90629773       0.02471317      -0.05967291       0.07504644
H        4.47520298       0.59794086      -0.01360678      -0.00188735      -0.00149196      -0.00204033
H        5.93928586      -0.19885684       0.49734133       0.00302936       0.00938659      -0.00062873
H        4.53535169      -3.48261722      -2.02622432       0.02288736      -0.01651159      -0.00433569
O        3.17342772       1.83140309      -0.96525975      -0.01497627      -0.00852797      -0.00211298
H        2.26195165       1.91661444      -0.63410035      -0.01400650       0.00083205      -0.00048371
H        3.18734519       2.27390345      -1.81838423      -0.00878166      -0.00649265       0.00856289
