44
Properties=species:S:1:pos:R:3 reactant=T mapped=T (centered)=T charge=0 spin=1 pbc="F F F"
O       -2.32595624       1.59766447      -1.26693927
O       -3.73011010       0.55006006       1.85140082
O       -1.44858405      -0.94186969      -1.39467026
O       -5.41524706       2.68390947       1.47019678
O        0.54826812       0.20425615      -0.43715430
O        0.25437546       1.72827610       1.56985434
C       -2.75540977       0.64911645      -0.30447345
C       -3.43060797       1.45332835       0.80388404
C       -1.66590005      -0.53373901      -0.05142575
C       -4.73556523       2.13359388       0.34047917
C       -0.16546470      -0.44311030       0.56712333
C        0.16043003       0.33776881       1.89223467
H       -3.55838472       0.03928816      -0.74748007
H       -2.75268266       2.24842725       1.14313144
H       -2.22793710      -1.31824723       0.44557013
H       -4.55588418       2.89554495      -0.42039738
H       -5.43016645       1.39591799      -0.06956648
H       -2.26550054       1.14856484      -2.11889010
H       -4.47524843       0.92612056       2.33936652
H       -0.53183049       0.18355637       2.72654993
H        1.14292970      -0.02157170       2.19828705
H       -0.80946354      -0.29372834      -1.72580212
H       -0.05953224       2.28509012       2.29437207
H       -4.99903418       3.51787294       1.72038886
O        3.56811877      -3.79120830      -1.20531055
O        3.15214762      -4.07780971       0.98053416
O        5.37298967      -1.10230017       0.02373315
N        0.71041401      -2.11515618       0.36470607
N        4.29977339       0.37316535      -1.30713131
C        2.12574576      -2.14988754      -0.23331635
C        2.97940570      -0.94729510       0.24755337
C        2.96810498      -3.45778358      -0.03902560
C        4.33237192      -0.60962728      -0.36299908
H        2.04016433      -2.13669726      -1.32693315
H        2.37035728      -0.07864284       0.06934231
H        3.11880481      -1.03054168       1.32353372
H        0.71108366      -2.78911328       1.13822507
H        0.84467634      -0.57343880      -0.92800651
H        3.46032669       0.87069420      -1.57833993
H        5.18415083       0.74116371      -1.61593435
H        4.17835737      -4.53473415      -1.05359740
O        1.58251393       1.87931241      -2.38540982
H        1.31874115       1.46491192      -3.21007668
H        0.91043572       1.63504732      -1.72740289
