44
Properties=species:S:1:pos:R:3 reactant=T mapped=T (centered)=T charge=0 spin=1 pbc="F F F"
O       -5.00353704      -1.85377335       0.45869892
O       -1.87505624      -0.07953986       0.78810205
O       -3.61943241      -3.11793310      -1.37459574
O       -3.50243697       1.46024785       2.61981484
O       -3.26995080      -1.27264534      -3.23190725
O       -1.74501884       2.12650713      -2.37418670
C       -3.59012053      -1.63355178       0.47263183
C       -3.28262005      -0.22738230       0.92028007
C       -3.00887028      -1.94139592      -0.91872832
C       -3.71417350       0.08431316       2.33986853
C       -2.91515142      -0.80339533      -2.20302120
C       -2.21056492       0.88500157      -2.89061024
H       -3.13339471      -2.35584581       1.17417135
H       -3.81455226       0.43656909       0.23212958
H       -1.95158570      -2.17525498      -0.78411855
H       -4.75907782      -0.19489905       2.51539306
H       -3.08559824      -0.46823814       3.04619755
H       -5.29840418      -2.09608498       1.34445094
H       -1.64309462       0.77892777       1.15467353
H       -1.45523347       0.44642005      -3.53131087
H       -3.10560249       1.12711547      -3.44827332
H       -4.49105164      -3.19205233      -0.94778449
H       -0.78885178       2.23756044      -2.50913921
H       -4.12572469       1.96847683       2.08874136
O        3.42417261       0.66217502      -3.06120758
O        1.62988535      -0.59797775      -2.59626001
O        2.95310063      -2.86281874       0.05902496
N        2.06998463       1.68367564      -0.57872262
N        3.98305272      -1.76151907       1.72172279
C        2.84926187       0.44560245      -0.76526299
C        2.37440804      -0.55244534       0.29738813
C        2.57532887       0.03899195      -2.21702910
C        3.13018525      -1.81944618       0.63502070
H        3.89641167       0.69295942      -0.66063793
H        2.24401311       0.05604623       1.20494135
H        1.37096007      -0.90498138      -0.00284273
H        1.13259966       1.55659970      -0.95735809
H        2.49609422       2.46091576      -1.06966983
H        4.15410165      -0.93126604       2.25420837
H        4.33283234      -2.64008673       2.07188397
H        3.09717294       0.51261079      -3.95785057
O        9.11581165       4.98391987       4.19737400
H        9.35880950       4.50199602       4.99161161
H        9.25047512       4.35811150       3.47762240
