44
Properties=species:S:1:pos:R:3:energies:R:1:forces:R:3:charge:R:1 product=T mapped+aligned=T onto=T reactant=T charge=0 multiplicity=1 energy=-2153.420486150729 free_energy=-2153.420486150729 dipole="0.1845735070058377 0.9700231028962126 0.29520521730686944" pbc="F F F"
O       -3.14232519       0.12902803      -1.17036947    -113.26707543      -0.02075376       0.00099936      -0.00329432      -0.47071335
O       -2.80557570       1.64379213       2.06162821    -113.17522201       0.00433108      -0.00466011      -0.00182046      -0.45553489
O       -1.43718416      -1.35110382       1.48074860    -112.93215703      -0.02111535      -0.01213374      -0.01345551      -0.43903611
O       -5.32630774       2.66701680       1.29041784    -113.03719160       0.00587429       0.00789820       0.01035722      -0.43994750
O       -1.13223092      -1.48901493      -1.52244853    -113.32786462       0.03552820       0.05632986      -0.00356897      -0.47686099
O        0.68031509       1.59648618      -0.62471397    -113.10451440      -0.01545755      -0.00904232      -0.00522229      -0.44058724
C       -2.86132180       0.04362588       0.20135186     -59.12209588      -0.01185782      -0.00195151      -0.00412318       0.09900862
C       -3.31515421       1.40018797       0.77308319     -59.04696918      -0.00217685      -0.00038267      -0.00006446       0.09855249
C       -1.39406742      -0.28438571       0.57020082     -58.96375618      -0.01155161      -0.01079344      -0.01241387       0.09190776
C       -4.84734402       1.44608059       0.77510010     -59.26226593      -0.00176247       0.00702349       0.00604472       0.06019054
C       -0.46075953      -0.61434032      -0.63634707     -58.98633822      -0.01536090      -0.01718366      -0.02330037       0.18116108
C       -0.10371676       0.70030056      -1.37135385     -59.23909397      -0.00998055      -0.00725459      -0.00472674       0.05535013
H       -3.45143935      -0.76058943       0.66613649     -12.95794472      -0.01398982       0.00096509      -0.00157521       0.05120692
H       -2.93725075       2.18086376       0.08807798     -13.17572806      -0.00095243      -0.00142904      -0.00044916       0.02677125
H       -0.95887992       0.58924409       1.08079926     -13.10091281      -0.00086669      -0.01358415      -0.01215205       0.03323586
H       -5.21421346       1.25399037      -0.23814060     -13.16961890      -0.00619307       0.01077561       0.00706760       0.04472849
H       -5.22704923       0.67144034       1.44630081     -13.02794051      -0.00290032       0.00746916       0.00582664       0.05900930
H       -2.75434937      -0.65514135      -1.59208771     -11.31387184      -0.01098839       0.00917478      -0.00784750       0.33186965
H       -3.52539747       2.03051217       2.57896120     -11.36643197       0.00827485      -0.00428462       0.00270325       0.31484547
H       -1.04723483       1.16323605      -1.68509741     -13.09385795      -0.00117870      -0.01533172       0.00394099       0.05035604
H        0.47497680       0.46912157      -2.26922526     -13.16010627      -0.01300958       0.00906046       0.00163447       0.04689281
H       -0.52173387      -1.58205641       1.68866655     -11.42835850      -0.03094842      -0.01078357       0.01799198       0.30638357
H        0.17926946       1.87958266       0.14910497     -11.52918306      -0.02160686      -0.00219728      -0.01399584       0.29760243
H       -5.12252025       3.36925216       0.66270677     -11.60254456       0.00666705       0.00819640       0.01100090       0.29228150
O        3.28120874      -0.96403288      -2.61529415    -112.38524588       0.00278956       0.00648430       0.00516560      -0.35298103
O        1.32931373      -2.03371903      -2.71391997    -112.58271571       0.01681091      -0.01558733       0.01133759      -0.43563570
O        5.29508519      -2.02687904      -0.63008201    -112.34365092       0.00091657      -0.00543860      -0.01032254      -0.42960921
N        0.69873269      -1.29580301      -0.06995829     -80.91536420      -0.00178609      -0.00320475       0.00257027      -0.29007386
N        4.70736046      -0.19584562       0.54352730     -80.92250546       0.00492855      -0.00398212      -0.00337940      -0.27495913
C        2.02010517      -1.05083282      -0.61152008     -59.06518647      -0.00046340      -0.00207611       0.00422499       0.02140536
C        3.03452473      -1.88402612       0.19215977     -59.27498866       0.00050713       0.00304726       0.00643477      -0.10041564
C        2.15719156      -1.41200947      -2.08573468     -58.85199936       0.00480890      -0.00650438       0.00493981       0.35510381
C        4.46398051      -1.39311014      -0.01971117     -59.19922980      -0.00556172       0.00637550       0.00449101       0.28722001
H        2.24954530       0.01310701      -0.49604174     -12.65154691      -0.00503260      -0.00188829       0.00413492       0.09839960
H        2.77623095      -1.79873463       1.24786097     -12.96680118       0.00290016       0.00969903       0.00571202       0.07269191
H        2.97749521      -2.93251250      -0.10598833     -13.10443582      -0.00131673       0.00231949       0.01299583       0.06483564
H        0.48358759      -2.29096584      -0.10307259     -12.32492940       0.09475176       0.02240193       0.04123548       0.17278004
H       -0.47772941      -1.84787775      -2.15076547     -11.35614028       0.02404088       0.02417846       0.00334813       0.32743106
H        4.02082047       0.30151382       1.09066705     -12.00410920       0.00879866      -0.00074959       0.00294714       0.21867477
H        5.62682271       0.20103535       0.44863555     -12.22732714       0.00564944      -0.00341775      -0.00647867       0.19176312
H        3.39195079      -1.26486986      -3.53231856     -10.86618668       0.00793722       0.00382555       0.00749579       0.34154963
O        2.93159999       1.50851972       2.24267820    -114.59622071       0.00932744      -0.00874107      -0.00753534      -0.57199405
H        2.38305593       1.45201057       3.02818781     -11.69677381       0.00440075      -0.01119595      -0.02931183       0.29241465
H        2.90061421       2.41790091       1.93719160     -11.69408496      -0.02243174      -0.02242557      -0.01856339       0.29272520
