44
Properties=species:S:1:pos:R:3 product=T mapped+aligned=T onto=T reactant=T pbc="F F F"
O       -2.84841131      -0.10354957      -1.09220509
O       -2.24972782       1.82156955       1.86038789
O       -1.35786864      -1.90600183       1.05835467
O       -4.74999610       2.88244104       1.51371710
O       -1.39518799      -2.43218752      -1.75012623
O        1.04773664       1.62522511      -1.23674725
C       -2.66994633      -0.02412517       0.29851820
C       -2.98561426       1.42830453       0.72194055
C       -1.29308961      -0.52880084       0.79901499
C       -4.48556921       1.59539118       1.00181290
C       -0.07307563      -0.20741300      -0.05877597
C       -0.14192342       0.87817661      -1.11176980
H       -3.39506362      -0.68637865       0.80390001
H       -2.72399795       2.09250002      -0.11871734
H       -1.13849309      -0.06364287       1.78139145
H       -5.05737027       1.38819335       0.09201998
H       -4.79228106       0.90018600       1.78715541
H       -2.48338457      -0.95598372      -1.39396821
H       -2.84721985       2.37030699       2.39165580
H       -0.97950159       1.54614823      -0.90360226
H       -0.32227793       0.41238533      -2.08627688
H       -1.34800163      -2.37113207       0.20631823
H        1.26016481       1.99395064      -0.36149548
H       -4.60699956       3.53355675       0.81720059
O        3.34282822      -1.08415030      -2.43303497
O        1.26154670      -1.86562096      -2.35645409
O        5.52628786      -1.88791543      -0.21229354
N        0.94313059      -0.89330402       0.24796317
N        4.87301427       0.04949722       0.72425457
C        2.22315625      -0.81362747      -0.39022401
C        3.21356824      -1.66925101       0.43026037
C        2.19520311      -1.31401693      -1.82172295
C        4.65165064      -1.20318390       0.26360909
H        2.59643502       0.21578605      -0.44858729
H        2.92349024      -1.58473205       1.47839520
H        3.14320669      -2.71806803       0.14310802
H       -0.45842096      -2.23949851      -1.93693044
H       -1.67267197      -3.07512969      -2.40559623
H        4.14158955       0.62262127       1.10696876
H        5.79165960       0.44696830       0.62424625
H        3.35133805      -1.44571623      -3.33408169
O        1.49877580       1.87812762       1.56167372
H        1.26912055       0.96644569       1.77077314
H        0.82219356       2.42564630       1.96797169
