41
Properties=species:S:1:pos:R:3 charge=0 multiplicity=1 source=Step1_TS2alluasp2.log pbc="F F F"
O        2.93670971      -1.98348285      -0.19336195
O        3.67895708       1.52117011      -0.19803617
O        1.16048774      -0.30977264      -2.28947199
O        5.96139239       0.60066640       1.02361966
O        0.23284329      -2.29018392      -0.46468698
O       -0.27598329      -1.54224410       2.11474899
C        2.87747408      -0.66382526      -0.69476361
C        3.71642016       0.18636073       0.25270324
C        1.45682588      -0.12036198      -0.92804391
C        5.15535294      -0.30592866       0.28288774
C        0.30337645      -0.67570260      -0.08363753
C        0.53914067      -0.62260246       1.41794164
H        3.35491812      -0.60273798      -1.67997459
H        3.31016673       0.12255039       1.27313764
H        1.47300655       0.95189191      -0.68841523
H        5.20788989      -1.31996900       0.68031152
H        5.55260574      -0.30356238      -0.73386433
H        2.30759945      -2.52539255      -0.68333892
H        4.46611567       1.95477619       0.15518781
H        1.56902739      -0.90862781       1.61728445
H        0.38820904       0.40746539       1.75391808
H        0.21600195      -0.10662473      -2.38095149
H       -1.06581922      -1.12141722       2.47075603
H        5.84661338       0.42630275       1.96207928
O       -3.16768724      -1.25153513       1.95644340
O       -2.72996014      -2.47632965       0.13549241
O       -5.21796385      -0.10427783       0.21863511
N       -0.91506054      -0.36897465      -0.67450198
N       -4.68088164       2.08300677       0.29840059
C       -2.07877529      -0.14277028       0.14366596
C       -3.13331877       0.52903861      -0.75841987
C       -2.69142543      -1.42557247       0.70724215
C       -4.44525498       0.79023709      -0.04920021
H       -1.87822705       0.52460542       0.99306306
H       -2.68276096       1.43904100      -1.15280065
H       -3.32957001      -0.15027097      -1.58835186
H       -0.67612805      -1.77577332      -0.94411192
H       -4.08387409       2.83109776      -0.00213727
H       -5.55304801       2.30308206       0.74998232
H       -3.66014294      -2.05084625       2.19753342
H       -0.11171608      -2.72935674       0.33545191
