44
Properties=species:S:1:pos:R:3 charge=0 multiplicity=1 source=Step1_TS1alluasp-qst3-2.log pbc="F F F"
O        2.16064110       0.32219438       1.47736056
O        3.34163292       0.91148725      -1.91116425
O        0.01507070      -0.62049327      -0.13973076
O        5.81898076       1.01817832      -0.66629628
O       -0.14396852       1.89844882       0.98970943
O        1.81179459       3.52211171       0.23722408
C        2.24020488       0.18479242       0.07270971
C        3.41755042       0.96950956      -0.49675953
C        0.87473116       0.40559017      -0.59122568
C        4.73015934       0.36156327      -0.03377807
C        0.21099500       1.77005566      -0.32909785
C        1.04963484       2.98780547      -0.81245389
H        2.44349145      -0.87481209      -0.11457613
H        3.37282085       2.00667241      -0.15006520
H        0.99214085       0.27346626      -1.66796425
H        4.80396321       0.39873351       1.05501324
H        4.78074119      -0.68030094      -0.35616396
H        1.64035409       1.11178246       1.68137779
H        4.23181149       1.08415573      -2.24381344
H        1.73279716       2.68496899      -1.60788590
H        0.37134673       3.75415479      -1.20710693
H        0.04531419      -0.60642897       0.82701141
H        1.24788655       3.52352959       1.02129393
H        5.94921355       1.87518303      -0.24920072
O       -2.63508142      -1.33776496      -1.46987272
O       -1.26010239      -0.20701912      -2.83166808
O       -5.52187305       0.59855503      -0.23008178
N       -1.09261751       1.89083987      -1.14941462
N       -4.25018075       2.00377889       1.01726405
C       -2.17836332       0.90286075      -0.92614870
C       -3.56066034       1.52483885      -1.24488781
C       -1.93662647      -0.27604224      -1.84044383
C       -4.55850102       1.32254030      -0.10596521
H       -2.12564776       0.59241331       0.11359230
H       -3.44149759       2.59665830      -1.41259720
H       -3.99619568       1.08033942      -2.13717679
H       -0.87945264       1.92010896      -2.14942911
H       -1.47748384       2.82087289      -0.74449031
H       -3.46250698       2.65217743       1.04415724
H       -4.86414690       1.90190329       1.80772961
H       -2.47975569      -2.04659015      -2.11152582
O       -1.85881106       3.53737438       0.57516635
H       -1.78763599       4.47120345       0.78081028
H       -0.89797112       2.70957063       1.01415192
