44
Properties=species:S:1:pos:R:3 reactant=T mapped=T (centered)=T charge=0 spin=1 pbc="F F F"
O       -3.15702859       1.10661916      -1.59427965
O       -3.20103013       0.66318221       1.97946817
O       -1.62376780      -1.18262018      -1.45997233
O       -5.21166247       2.54984969       1.80180515
O        0.05382674       0.78919492      -1.16432188
O        0.82994771       1.92876721       1.14557382
C       -3.12327475       0.35186438      -0.41456545
C       -3.42258227       1.30417384       0.74516188
C       -1.77346121      -0.41884746      -0.28597007
C       -4.87461496       1.80090525       0.65732458
C       -0.56343350       0.49771651      -0.16750533
C       -0.17005261       0.93252967       1.21827610
H       -3.89993860      -0.42960493      -0.44399167
H       -2.75328699       2.17623680       0.65138576
H       -1.83955621      -1.08043490       0.58064408
H       -5.00495619       2.37016679      -0.26678476
H       -5.55493074       0.94583275       0.65362531
H       -2.91601225       0.51287280      -2.31941303
H       -3.86818503       1.00573494       2.59479944
H       -1.04848196       1.27923344       1.77002168
H        0.20331954       0.02606209       1.71449151
H       -0.92878771      -0.73814188      -1.97787902
H        1.14369394       2.12881827       2.03320081
H       -4.80700198       3.42241686       1.74484025
O        3.51878897      -3.03261260      -1.86526636
O        2.64908439      -4.14089859      -0.12728912
O        5.16612338      -1.79727743       0.16795821
N        0.77388171      -2.08048838       0.22856827
N        4.65836906       0.22142760      -0.68858355
C        2.03976634      -1.83042151      -0.44473232
C        2.92785967      -0.97889833       0.48372100
C        2.77178429      -3.13213633      -0.76845707
C        4.36397188      -0.90523822      -0.02227920
H        1.86044514      -1.28889601      -1.37822653
H        2.50151003       0.01856482       0.56006681
H        2.93536075      -1.45527206       1.46571873
H        0.94139794      -2.76841996       0.96024639
H        0.11043630      -2.49962924      -0.41666687
H        3.97876597       0.95725162      -0.86208170
H        5.59338840       0.32765747      -1.04531263
H        4.04346361      -3.83805282      -2.00080881
O        2.61214140       2.16529408      -1.14221679
H        2.07316524       1.92369170      -1.90001234
H        1.99155354       2.19182595      -0.40028147
44
Properties=species:S:1:pos:R:3 reactant=T mapped=T (centered)=T charge=0 spin=1 pbc="F F F"
O       -3.10786761       1.10141524      -1.57255046
O       -3.22072907       0.63913303       1.98599608
O       -1.69300682      -1.27269798      -1.42087793
O       -5.25307742       2.50905326       1.78843600
O        0.03303207       0.63003692      -1.22770673
O        0.80049872       1.92542751       1.07623322
C       -3.11764461       0.32614688      -0.40452558
C       -3.44143777       1.26945926       0.75277522
C       -1.78562412      -0.46063533      -0.26251532
C       -4.89856191       1.75312461       0.65327370
C       -0.53382198       0.40126910      -0.18815033
C       -0.18864209       0.97389103       1.12917301
H       -3.90580081      -0.44181703      -0.46144610
H       -2.78500071       2.14935277       0.66172809
H       -1.86191476      -1.08846563       0.62795971
H       -5.02967474       2.31395944      -0.27609407
H       -5.57114068       0.89184134       0.65184073
H       -2.84549805       0.52830909      -2.29944184
H       -3.89246109       0.98043640       2.60001266
H       -1.01182176       1.39263164       1.67015723
H        0.06756862       0.11641796       1.76441420
H       -0.96605895      -0.90820719      -1.98044433
H        1.21128345       2.10943228       1.90180718
H       -4.85458952       3.38410558       1.72821817
O        3.39004064      -3.00228655      -1.91495362
O        2.41008034      -4.08833487      -0.23644556
O        5.22692818      -1.86560085       0.10251126
N        0.81079598      -1.86499134       0.29215312
N        4.74950910       0.20561784      -0.65964182
C        2.06583599      -1.71012153      -0.41282376
C        3.02615644      -0.97869040       0.52332309
C        2.65110317      -3.06107112      -0.81236820
C        4.44749489      -0.93694494      -0.02367110
H        1.94446952      -1.15241835      -1.32990629
H        2.65088435       0.02467617       0.66335573
H        3.04712513      -1.51446842       1.47299854
H        0.90116086      -2.58237632       1.00129666
H        0.12431526      -2.34753390      -0.45928191
H        4.07893897       0.96170331      -0.77900202
H        5.67741580       0.30158548      -1.03931815
H        3.83201902      -3.85212815      -2.09369563
O        2.65351720       2.11412821      -1.07890690
H        2.06521805       1.80835410      -1.75774393
H        2.09898274       2.31728148      -0.35615200
44
Properties=species:S:1:pos:R:3 reactant=T mapped=T (centered)=T charge=0 spin=1 pbc="F F F"
O       -3.05059881       1.07794151      -1.55337555
O       -3.23929250       0.62175073       1.99222737
O       -1.74434968      -1.36247239      -1.36213580
O       -5.28784072       2.47691281       1.75628864
O        0.01561042       0.47188982      -1.26863327
O        0.78482675       1.91622716       1.02561292
C       -3.10327965       0.29437831      -0.39190340
C       -3.45324476       1.23700138       0.75596300
C       -1.78622542      -0.50384672      -0.22841502
C       -4.91376353       1.70696858       0.63704838
C       -0.50088594       0.31306023      -0.19143540
C       -0.20403011       1.00652790       1.04575345
H       -3.90050535      -0.46205337      -0.47197069
H       -2.80856751       2.12368654       0.66630686
H       -1.87115833      -1.09393416       0.68420634
H       -5.04125324       2.25306056      -0.30161359
H       -5.57929037       0.84022239       0.64186898
H       -2.76469976       0.51400267      -2.27350223
H       -3.91663793       0.96720088       2.60056889
H       -0.97635920       1.49365410       1.55376093
H       -0.07023632       0.23078300       1.78505887
H       -0.99493524      -1.08092348      -1.94999625
H        1.27096736       2.06593238       1.78690678
H       -4.89319469       3.35305132       1.68894433
O        3.24745097      -2.94763019      -1.96198457
O        2.18755100      -3.98619616      -0.31719630
O        5.26976034      -1.92612723       0.01405890
N        0.84988697      -1.65904449       0.34755227
N        4.82282512       0.18717227      -0.64180910
C        2.08779398      -1.60005789      -0.38377600
C        3.11125116      -0.99639039       0.54586254
C        2.53130902      -2.97243885      -0.84722106
C        4.51364240      -0.97317950      -0.04416670
H        2.01389332      -1.02968283      -1.28090211
H        2.79378771       0.00382462       0.75732694
H        3.13842431      -1.60059145       1.44809058
H        0.87615230      -2.39447057       1.03845642
H        0.12670678      -2.21312734      -0.49162302
H        4.16432624       0.95725386      -0.70042445
H        5.74269195       0.27990331      -1.04282707
H        3.59596938      -3.82141459      -2.18715703
O        2.68702610       2.07762302      -0.98055582
H        2.06326442       1.72536934      -1.57864287
H        2.20523109       2.42818291      -0.32059612
44
Properties=species:S:1:pos:R:3 reactant=T mapped=T (centered)=T charge=0 spin=1 pbc="F F F"
O       -2.99353190       1.05390713      -1.53453088
O       -3.25816669       0.60557153       1.99815419
O       -1.79672986      -1.45328679      -1.30121361
O       -5.32321128       2.44563879       1.72272666
O       -0.00219739       0.31411714      -1.30838002
O        0.76984660       1.90613878       0.97653394
C       -3.08913130       0.26293413      -0.37922820
C       -3.46544578       1.20553576       0.75867432
C       -1.78718002      -0.54651147      -0.19325426
C       -4.92958144       1.66133215       0.61975707
C       -0.46839046       0.22604282      -0.19416691
C       -0.21974333       1.03923461       0.96250186
H       -3.89542768      -0.48197447      -0.48236206
H       -2.83253342       2.09890883       0.67022378
H       -1.88094146      -1.09853823       0.74133165
H       -5.05301345       2.19209656      -0.32839187
H       -5.58777469       0.78900620       0.63128454
H       -2.68244647       0.49912512      -2.24710953
H       -3.94130687       0.95552524       2.60054623
H       -0.94117723       1.59522498       1.43520677
H       -0.20881255       0.34544634       1.80417519
H       -1.02546898      -1.25590946      -1.91640519
H        1.33035815       2.01985343       1.67369449
H       -4.93241363       3.32283582       1.64796615
O        3.10482314      -2.89280284      -2.00938016
O        1.97103415      -3.88567817      -0.39574144
O        5.31258893      -1.98573437      -0.07735251
N        0.88958353      -1.45337971       0.40275579
N        4.89539617       0.16883979      -0.62564220
C        2.10982057      -1.49043307      -0.35476768
C        3.19646785      -1.01504863       0.56702499
C        2.41225104      -2.88400182      -0.88216805
C        4.57960798      -1.00959507      -0.06748718
H        2.08220601      -0.90778054      -1.23160716
H        2.93735475      -0.01876496       0.85163622
H        3.23037115      -1.68884750       1.41985704
H        0.85186383      -2.20757577       1.07542219
H        0.12930823      -2.07920288      -0.52331287
H        4.24875572       0.95275955      -0.62250724
H        5.80690087       0.25902677      -1.04849679
H        3.36125392      -3.78979713      -2.28004309
O        2.72012953       2.04119592      -0.87929185
H        2.06038478       1.64434667      -1.39544518
H        2.31431900       2.54021880      -0.28118712
44
Properties=species:S:1:pos:R:3 reactant=T mapped=T (centered)=T charge=0 spin=1 pbc="F F F"
O       -2.93314470       1.01438241      -1.51666644
O       -3.27471934       0.59739647       2.00522969
O       -1.83221098      -1.54201275      -1.21602526
O       -5.35470848       2.41909438       1.67464955
O       -0.01721792       0.15921920      -1.32779681
O        0.76256626       1.89656892       0.94410737
C       -3.06853156       0.22712034      -0.36225683
C       -3.47275886       1.17699263       0.75878893
C       -1.77829417      -0.58675534      -0.14586591
C       -4.94002207       1.61453895       0.59430855
C       -0.43299530       0.14942233      -0.18108932
C       -0.23292160       1.06882799       0.87986816
H       -3.87991760      -0.51001818      -0.48382728
H       -2.85167151       2.07672582       0.66886366
H       -1.87630906      -1.09504505       0.81024090
H       -5.05680493       2.12347771      -0.36623990
H       -5.58970519       0.73618485       0.61772513
H       -2.59265432       0.46060783      -2.21420967
H       -3.96479874       0.95533465       2.59790364
H       -0.90568033       1.68675223       1.29643742
H       -0.34699904       0.48789321       1.78646749
H       -1.04852481      -1.42944158      -1.84613862
H        1.38247633       1.95784503       1.57085835
H       -4.96725710       3.29654889       1.58781593
O        2.95665466      -2.81477758      -2.05559425
O        1.78404951      -3.75669143      -0.45027435
O        5.33735059      -2.03706591      -0.18491910
N        0.93069912      -1.25216390       0.44501936
N        4.95253583       0.14704475      -0.61208383
C        2.12753266      -1.39072198      -0.33120815
C        3.26468019      -1.05401401       0.57078672
C        2.29729980      -2.78153197      -0.91269617
C        4.62605038      -1.05007996      -0.10459851
H        2.13957607      -0.79557523      -1.18378790
H        3.07147980      -0.07473761       0.93443830
H        3.29031912      -1.80264877       1.35468016
H        0.83809912      -2.02012442       1.10313069
H        0.12106482      -1.95946551      -0.55468160
H        4.32207070       0.93763935      -0.54115662
H        5.85647684       0.24264000      -1.05071546
H        3.11931222      -3.71184320      -2.37078362
O        2.74858563       2.01449639      -0.74504396
H        2.06713332       1.58418618      -1.18342257
H        2.42183463       2.63377388      -0.26023787
44
Properties=species:S:1:pos:R:3 reactant=T mapped=T (centered)=T charge=0 spin=1 pbc="F F F"
O       -2.97103055       0.94533409      -1.50360927
O       -3.25494310       0.61754636       2.02869505
O       -1.88820298      -1.62764359      -1.10693589
O       -5.36951365       2.40237875       1.68654537
O       -0.05429486       0.13302885      -1.37680454
O        0.76573680       1.91711976       0.87150692
C       -3.08119390       0.18928514      -0.32748050
C       -3.48335509       1.16185662       0.77255970
C       -1.77706824      -0.60714150      -0.11433261
C       -4.96169593       1.56949203       0.62517127
C       -0.42600590       0.12709028      -0.20738344
C       -0.24085117       1.12352093       0.76548500
H       -3.89197527      -0.55672489      -0.41770624
H       -2.88160572       2.06811805       0.64893383
H       -1.84423249      -1.07756538       0.86068997
H       -5.10665561       2.04439960      -0.34870238
H       -5.59702523       0.68234518       0.69038702
H       -2.63425421       0.37483597      -2.18900243
H       -3.93611281       0.98726766       2.62698546
H       -0.87896183       1.79313464       1.12492049
H       -0.41795503       0.62867283       1.71040634
H       -1.14830627      -1.62398344      -1.75216021
H        1.40584262       1.94694523       1.48201062
H       -4.99706532       3.28196035       1.56480676
O        2.92804870      -2.77222248      -2.08119719
O        1.65695142      -3.67570888      -0.52930578
O        5.34219623      -2.09766077      -0.16481306
N        0.93668350      -1.14027708       0.40513851
N        5.01191616       0.10644974      -0.52812209
C        2.14361244      -1.33314094      -0.33695386
C        3.27881486      -1.08996353       0.59153439
C        2.24598681      -2.72464652      -0.94984261
C        4.65149450      -1.09777780      -0.06338027
H        2.20851216      -0.72118716      -1.17445214
H        3.12051460      -0.12305463       1.00350745
H        3.26817944      -1.88394983       1.33109025
H        0.79572457      -1.92629164       1.02817679
H        0.21326396      -1.70175766      -0.88187768
H        4.39770039       0.90731994      -0.43633656
H        5.92700641       0.19643145      -0.94518178
H        3.04862328      -3.67013434      -2.41437760
O        2.82748909       1.99995402      -0.64354666
H        2.13692992       1.55763063      -1.06741303
H        2.53107730       2.68871396      -0.25763337
44
Properties=species:S:1:pos:R:3 reactant=T mapped=T (centered)=T charge=0 spin=1 pbc="F F F"
O       -2.99823488       0.85561579      -1.49289972
O       -3.23219018       0.64751582       2.04945012
O       -1.90327965      -1.71316322      -0.97497583
O       -5.38433414       2.38517780       1.67627270
O       -0.08951615       0.12706918      -1.42079662
O        0.76962084       1.94152727       0.81239757
C       -3.08102339       0.14265962      -0.28957265
C       -3.48780264       1.14579478       0.77989304
C       -1.76121345      -0.62835129      -0.07096452
C       -4.97683842       1.51728144       0.64318951
C       -0.41250044       0.11119911      -0.22445094
C       -0.24741659       1.18216756       0.65559871
H       -3.88555804      -0.61666961      -0.34399509
H       -2.90766327       2.05799772       0.61828529
H       -1.79987484      -1.05087064       0.92606684
H       -5.14753773       1.94910845      -0.34611995
H       -5.59403176       0.62165567       0.75515708
H       -2.66221288       0.26020494      -2.15915741
H       -3.90726091       1.03188738       2.64725573
H       -0.85523936       1.89576569       0.94492004
H       -0.48865570       0.78007309       1.62955853
H       -1.18722918      -1.82281588      -1.58847932
H        1.42740387       1.93244913       1.40849063
H       -5.02928612       3.26531689       1.51432635
O        2.87446144      -2.71514040      -2.12202844
O        1.52530335      -3.58078962      -0.61647923
O        5.33107339      -2.16376132      -0.16878166
N        0.94097525      -1.03022959       0.36537432
N        5.05842171       0.05901584      -0.44969072
C        2.14675950      -1.27421450      -0.34842766
C        3.28106660      -1.13259786       0.60189202
C        2.17456987      -2.65489436      -1.00083656
C        4.66163655      -1.15233697      -0.03764114
H        2.26708866      -0.64254412      -1.16297783
H        3.15757967      -0.18493164       1.06944459
H        3.23476094      -1.97282143       1.28834777
H        0.76192245      -1.82901623       0.96406333
H        0.28187520      -1.41451906      -1.18833513
H        4.46322236       0.86952042      -0.32610873
H        5.98265732       0.14247572      -0.84878994
H        2.95038530      -3.61007237      -2.47843180
O        2.90109850       1.98942325      -0.51681946
H        2.20402548       1.54104919      -0.93538198
H        2.64299147       2.73778837      -0.23784186
44
Properties=species:S:1:pos:R:3 reactant=T mapped=T (centered)=T charge=0 spin=1 pbc="F F F"
O       -3.01218336       0.75915444      -1.48223686
O       -3.20926109       0.68318539       2.06551059
O       -1.88377481      -1.78502422      -0.84528206
O       -5.40149365       2.36346252       1.64901682
O       -0.12101255       0.13101975      -1.45584216
O        0.77204949       1.96740759       0.76571236
C       -3.06852427       0.09382834      -0.25173017
C       -3.48766408       1.12946436       0.78133720
C       -1.73398072      -0.64783618      -0.02063550
C       -4.98677022       1.45912082       0.65067052
C       -0.39198338       0.09591276      -0.23042601
C       -0.25308932       1.24104890       0.55079909
H       -3.86173546      -0.68157736      -0.27104066
H       -2.93079141       2.04713897       0.58180839
H       -1.75008557      -1.01611211       0.99824013
H       -5.18057408       1.84260268      -0.35374110
H       -5.58235010       0.55570985       0.81045161
H       -2.67397034       0.13681120      -2.12531269
H       -3.88104592       1.08276117       2.65779712
H       -0.83334811       1.98997892       0.75916413
H       -0.56182922       0.93794707       1.54143790
H       -1.15171911      -1.98866195      -1.38101096
H        1.44515706       1.91434406       1.34754388
H       -5.06641313       3.24259162       1.44498442
O        2.79986199      -2.64732016      -2.17014845
O        1.40091377      -3.48029712      -0.69300972
O        5.30933439      -2.23034361      -0.19829708
N        0.94635923      -0.92247936       0.33640154
N        5.09163739       0.00642579      -0.38448627
C        2.13917041      -1.21685483      -0.36014116
C        3.27619791      -1.18019199       0.60252744
C        2.08945098      -2.57538501      -1.05568258
C        4.65969142      -1.21052502      -0.03071285
H        2.31056287      -0.56760732      -1.14658776
H        3.18696418      -0.25850663       1.12942873
H        3.20072661      -2.06357895       1.23204373
H        0.73863903      -1.72899862       0.92380881
H        0.31379023      -1.12692084      -1.45680769
H        4.51577087       0.82314718      -0.22076007
H        6.02283193       0.08384266      -0.76986341
H        2.82689831      -3.53432699      -2.55448225
O        2.96265338       1.97662114      -0.36957156
H        2.26354851       1.52377907      -0.79004716
H        2.75138992       2.77524200      -0.21082823
44
Properties=species:S:1:pos:R:3 reactant=T mapped=T (centered)=T charge=0 spin=1 pbc="F F F"
O       -3.01123521       0.66672258      -1.47117638
O       -3.18624315       0.71865849       2.07579753
O       -1.84027905      -1.84468736      -0.72400391
O       -5.41779745       2.33684030       1.61180002
O       -0.14630334       0.13020164      -1.48473260
O        0.77089086       1.99206158       0.72837550
C       -3.04527016       0.04755996      -0.21675497
C       -3.48243742       1.11324511       0.77836814
C       -1.69878311      -0.66525338       0.03256196
C       -4.99016147       1.39887099       0.65068967
C       -0.36528382       0.08005910      -0.22996528
C       -0.25773622       1.29480180       0.45144130
H       -3.82456242      -0.74395148      -0.20517252
H       -2.94894514       2.03562611       0.54395884
H       -1.69828623      -0.97729713       1.07022043
H       -5.20307052       1.73338935      -0.36677917
H       -5.56268301       0.48923692       0.85552201
H       -2.66527726       0.02182938      -2.09004422
H       -3.85708831       1.13280521       2.65953689
H       -0.81045884       2.06954059       0.57354500
H       -0.63729520       1.09309469       1.44354000
H       -1.07544917      -2.10475199      -1.17325418
H        1.45709167       1.89418254       1.29534688
H       -5.10332912       3.21332639       1.36756858
O        2.70853323      -2.57156506      -2.21841974
O        1.28644481      -3.38171480      -0.75029422
O        5.28177207      -2.28993190      -0.24864643
N        0.95346661      -0.82084918       0.32650532
N        5.11177525      -0.04545688      -0.33386796
C        2.12667849      -1.16282753      -0.36588983
C        3.26799297      -1.22941821       0.59802637
C        1.99946673      -2.49221311      -1.10333728
C        4.64899621      -1.26594579      -0.03961942
H        2.34050814      -0.49950318      -1.12519095
H        3.21098727      -0.33942728       1.18392857
H        3.16970890      -2.15219678       1.16795930
H        0.72200219      -1.63263627       0.90767715
H        0.32207206      -0.85266331      -1.66756514
H        4.55372848       0.77262562      -0.12507912
H        6.04780882       0.02790427      -0.71000418
H        2.68491954      -3.44588644      -2.63263178
O        3.00546623       1.95974265      -0.21220242
H        2.30782595       1.49889390      -0.63797165
H        2.84983913       2.79695789      -0.18976610
44
Properties=species:S:1:pos:R:3 reactant=T mapped=T (centered)=T charge=0 spin=1 pbc="F F F"
O       -3.01755714       0.56822149      -1.45422239
O       -3.15532460       0.75874409       2.08858410
O       -1.79139044      -1.89916430      -0.59552568
O       -5.43446989       2.30263306       1.58397890
O       -0.18890613       0.07442583      -1.49581106
O        0.75828556       2.03990354       0.62472779
C       -3.02260530      -0.00030395      -0.17587338
C       -3.47731131       1.09667482       0.77740445
C       -1.66145634      -0.68066593       0.09235929
C       -4.99414534       1.33035761       0.66337578
C       -0.33654026       0.06354544      -0.23331588
C       -0.26527827       1.35356698       0.31386130
H       -3.78303580      -0.80898235      -0.12516010
H       -2.97375195       2.02379999       0.49752254
H       -1.63578202      -0.92648063       1.14779468
H       -5.23273878       1.60942810      -0.36478715
H       -5.53940111       0.41586468       0.92052076
H       -2.66432817      -0.09540488      -2.04909885
H       -3.82231007       1.18946963       2.66286384
H       -0.77952271       2.15151670       0.33355410
H       -0.73557098       1.28984328       1.27431408
H       -1.00710525      -2.17145556      -1.01296646
H        1.43779153       1.89070050       1.22120371
H       -5.14657154       3.17426289       1.29378784
O        2.61713931      -2.48106803      -2.27515662
O        1.18569124      -3.27932247      -0.81057445
O        5.24918637      -2.35444111      -0.30068104
N        0.96445117      -0.71788271       0.33147741
N        5.13055579      -0.10847252      -0.28340172
C        2.11667437      -1.10643078      -0.37193435
C        3.25612635      -1.28183345       0.59254690
C        1.91582792      -2.39958070      -1.15595658
C        4.63658455      -1.32792293      -0.04641585
H        2.36772713      -0.42717885      -1.10772516
H        3.22700251      -0.43100020       1.24326990
H        3.13191370      -2.24097949       1.09796740
H        0.70910551      -1.53318406       0.90344963
H        0.34796404      -0.58455361      -1.83752204
H        4.59102902       0.70816993      -0.03274636
H        6.07033623      -0.04148384      -0.65340708
H        2.54992638      -3.33691371      -2.72000296
O        3.05398829       1.93742217      -0.00913911
H        2.37020762       1.45382670      -0.44056776
H        2.97758881       2.80232866      -0.11257237
44
Properties=species:S:1:pos:R:3 reactant=T mapped=T (centered)=T charge=0 spin=1 pbc="F F F"
O       -3.00897816       0.46493436      -1.43712058
O       -3.11977681       0.80863376       2.09443535
O       -1.73530679      -1.95208493      -0.45417513
O       -5.43980933       2.28002221       1.54268354
O       -0.21898807      -0.01516290      -1.50468766
O        0.74411654       2.07628626       0.52622463
C       -2.99147391      -0.04633034      -0.13509180
C       -3.46395396       1.08449359       0.77024228
C       -1.61965359      -0.69630786       0.15925815
C       -4.98676756       1.27145059       0.66826595
C       -0.30558737       0.04170920      -0.23321740
C       -0.27103215       1.39470916       0.18012577
H       -3.73455722      -0.86751272      -0.04380193
H       -2.98803580       2.01165747       0.44159221
H       -1.57262225      -0.87054657       1.22879108
H       -5.24596758       1.49109947      -0.36908546
H       -5.50706414       0.35807391       0.97959541
H       -2.64555743      -0.21856837      -2.00377060
H       -3.78311064       1.25999738       2.65488074
H       -0.74188715       2.20317255       0.09442850
H       -0.83400488       1.46137410       1.07944389
H       -0.93160620      -2.23638513      -0.83805924
H        1.40920708       1.88090148       1.15865407
H       -5.17551787       3.14199788       1.20487828
O        2.51606190      -2.37663513      -2.33354383
O        1.09323501      -3.18085778      -0.86326800
O        5.21647504      -2.39834848      -0.37676578
N        0.97463189      -0.62804414       0.34922078
N        5.13447040      -0.15788331      -0.24512228
C        2.10512897      -1.05449998      -0.37370979
C        3.24301450      -1.33570726       0.57997144
C        1.83147371      -2.30408636      -1.20459741
C        4.61834722      -1.37740877      -0.06959568
H        2.38672845      -0.35578668      -1.08516972
H        3.23877819      -0.53324385       1.29711352
H        3.09898295      -2.32819230       1.01486810
H        0.70009558      -1.44697495       0.91113018
H        0.36061801      -0.29492328      -1.96879818
H        4.60973987       0.64973332       0.05502917
H        6.07541256      -0.08931438      -0.61370012
H        2.40700188      -3.21064806      -2.80988360
O        3.07033641       1.90820283       0.21046067
H        2.40403762       1.39762317      -0.22505057
H        3.08336509       2.78938086      -0.01307898
44
Properties=species:S:1:pos:R:3 reactant=T mapped=T (centered)=T charge=0 spin=1 pbc="F F F"
O       -3.01979489       0.38073122      -1.42251465
O       -3.08488841       0.86290334       2.09638340
O       -1.69881074      -1.98042904      -0.34465119
O       -5.45516504       2.25063887       1.52700531
O       -0.23143656      -0.11467202      -1.52008315
O        0.73762118       2.16949447       0.16031951
C       -2.97773754      -0.08052829      -0.10279151
C       -3.46324716       1.07429528       0.76617884
C       -1.59078345      -0.69492764       0.20774466
C       -4.99142039       1.21783163       0.68673876
C       -0.28846811       0.03949707      -0.24096515
C       -0.28471659       1.42455115       0.05793277
H       -3.70195206      -0.91182458       0.02934138
H       -3.02020252       1.99999914       0.38820772
H       -1.52407626      -0.80961871       1.28622523
H       -5.27449976       1.38669345      -0.35433844
H       -5.48297699       0.30603409       1.04683400
H       -2.64676937      -0.31510793      -1.96736462
H       -3.74841261       1.32087152       2.64940664
H       -0.74986854       2.24085948      -0.02418407
H       -0.90198377       1.57059971       0.89063396
H       -0.88729417      -2.26974701      -0.71444562
H        1.35002327       2.06474952       0.85516574
H       -5.21919950       3.10389615       1.14835364
O        2.45278802      -2.30934238      -2.37875231
O        1.04576081      -3.11963025      -0.89651748
O        5.19043554      -2.44125493      -0.44739124
N        0.98392814      -0.55824306       0.36026205
N        5.14105337      -0.20784168      -0.24555119
C        2.09939197      -1.01472023      -0.38235941
C        3.23508058      -1.38072311       0.55405786
C        1.78324795      -2.23814170      -1.24106489
C        4.60743999      -1.42339913      -0.10501121
H        2.40136205      -0.29389114      -1.06619274
H        3.24747547      -0.62737634       1.32291341
H        3.07571808      -2.39089788       0.94665143
H        0.70357154      -1.37465406       0.92243439
H        0.35936501      -0.10534395      -2.02021242
H        4.63580113       0.59409857       0.08427043
H        6.07868511      -0.13858785      -0.62228739
H        2.31006373      -3.12448331      -2.87490672
O        3.11106242       1.85038851       0.50560036
H        2.46216269       1.31630545       0.12407847
H        3.23166638       2.75094757       0.35484548
44
Properties=species:S:1:pos:R:3 reactant=T mapped=T (centered)=T charge=0 spin=1 pbc="F F F"
O       -3.03223531       0.31319386      -1.40818002
O       -3.02148715       0.93665615       2.09105859
O       -1.68112335      -2.00529789      -0.26491599
O       -5.42224604       2.27641347       1.52330312
O       -0.24014124      -0.20823675      -1.54812598
O        0.75646712       2.16849670      -0.25227113
C       -2.96361209      -0.09752832      -0.07361526
C       -3.43721532       1.08732574       0.76245195
C       -1.57169812      -0.69790595       0.23816452
C       -4.96850092       1.21538332       0.71332564
C       -0.28206394       0.01866274      -0.26240825
C       -0.28392621       1.42408081      -0.03781349
H       -3.68072333      -0.92671662       0.10257580
H       -3.01195651       2.00103859       0.33794556
H       -1.48408424      -0.76156813       1.32085773
H       -5.27608375       1.34118935      -0.32709670
H       -5.44398782       0.31502812       1.12040747
H       -2.66301265      -0.39926107      -1.93420935
H       -3.68266954       1.40186134       2.64250612
H       -0.74236675       2.24573881      -0.13195007
H       -0.90821860       1.62588177       0.75862721
H       -0.86836344      -2.30793809      -0.63241448
H        1.36959418       2.20679997       0.36166890
H       -5.20213954       3.11589694       1.10645599
O        2.42505768      -2.27639448      -2.40908353
O        1.02620008      -3.10493399      -0.91978657
O        5.20295667      -2.39211316      -0.52919781
N        0.98030496      -0.54674873       0.36098549
N        5.10956046      -0.16652426      -0.25050710
C        2.09496758      -1.00631777      -0.39685662
C        3.23566639      -1.41662414       0.52218478
C        1.76374298      -2.22011926      -1.26586712
C        4.60467170      -1.40004497      -0.14672118
H        2.40422134      -0.25643448      -1.05638438
H        3.24431748      -0.71936347       1.34021097
H        3.08581418      -2.44213429       0.87778308
H        0.70375964      -1.35954949       0.92582484
H        0.33943985      -0.06062344      -2.06055070
H        4.59227839       0.61762099       0.09641091
H        6.03263158      -0.05552881      -0.64802782
H        2.27155985      -3.08760046      -2.91317047
O        3.05074192       1.77722373       0.73145153
H        2.39496336       1.20047150       0.51665650
H        3.17893847       2.62654412       1.01829733
44
Properties=species:S:1:pos:R:3 reactant=T mapped=T (centered)=T charge=0 spin=1 pbc="F F F"
O       -3.03134205       0.27044596      -1.39167952
O       -2.93591018       1.00723527       2.08607272
O       -1.67162256      -2.03272561      -0.20480002
O       -5.34710911       2.33863166       1.53095902
O       -0.24754299      -0.31529625      -1.58341982
O        0.79773515       2.09669847      -0.55935509
C       -2.94052888      -0.10034189      -0.04732444
C       -3.38544873       1.11474830       0.76276202
C       -1.55409756      -0.70986149       0.25999752
C       -4.91769874       1.25004282       0.74483673
C       -0.27757308      -0.02133797      -0.29247223
C       -0.26039483       1.40621077      -0.12613121
H       -3.66113675      -0.91846006       0.16627967
H       -2.96427175       2.01233047       0.30053704
H       -1.44841571      -0.73357522       1.34439516
H       -5.24728897       1.34530986      -0.29214050
H       -5.38920792       0.36630852       1.19087177
H       -2.67628176      -0.46194719      -1.90218844
H       -3.58881528       1.48439732       2.63935913
H       -0.68597676       2.23743659      -0.21509985
H       -0.89446515       1.65388196       0.63446027
H       -0.85527103      -2.35639047      -0.56644868
H        1.51202491       2.17092248      -0.12380598
H       -5.13147995       3.16303990       1.08315488
O        2.41571365      -2.26096378      -2.43128137
O        1.01233404      -3.10886732      -0.94164572
O        5.23619825      -2.26410924      -0.60824670
N        0.96751328      -0.57380174       0.35674948
N        5.04652929      -0.05548711      -0.22585716
C        2.08938192      -1.01716316      -0.41414787
C        3.23931926      -1.43736600       0.49312239
C        1.75398574      -2.22503662      -1.28691632
C        4.60203956      -1.31950422      -0.17897016
H        2.39989950      -0.24282091      -1.05954863
H        3.22913779      -0.79432584       1.35380585
H        3.11685048      -2.47954912       0.80630511
H        0.69616707      -1.38526263       0.92190544
H        0.30598001      -0.04786876      -2.11154174
H        4.49535627       0.69712156       0.14736504
H        5.95102670       0.12464979      -0.63415666
H        2.25909160      -3.07250002      -2.93907701
O        2.90208592       1.73326700       0.90045062
H        2.22045666       1.08483007       0.84368568
H        2.86305272       2.37705385       1.56917962
44
Properties=species:S:1:pos:R:3 reactant=T mapped=T (centered)=T charge=0 spin=1 pbc="F F F"
O       -3.02614946       0.24678951      -1.38451343
O       -2.89833332       1.03819083       2.08057616
O       -1.65517949      -2.04091021      -0.16572045
O       -5.32996643       2.34167660       1.53728769
O       -0.23663452      -0.36628361      -1.60616912
O        0.84585822       2.05886589      -0.69005908
C       -2.92553603      -0.10469060      -0.03648802
C       -3.36885157       1.11972806       0.76201634
C       -1.53735797      -0.70806190       0.27264292
C       -4.90164640       1.24487018       0.76156177
C       -0.26788416      -0.03202548      -0.30792307
C       -0.23845583       1.40803910      -0.18692049
H       -3.64187739      -0.92197436       0.19339034
H       -2.95888226       2.01547470       0.28557286
H       -1.42438182      -0.70540620       1.35823897
H       -5.24345006       1.32261348      -0.27318621
H       -5.36319804       0.36518056       1.22681168
H       -2.66889418      -0.49138432      -1.88693826
H       -3.54808635       1.51784431       2.63490534
H       -0.59230839       2.28677465      -0.13461630
H       -0.97833387       1.68893131       0.39786427
H       -0.83353399      -2.37353359      -0.51529158
H        1.56704203       2.12387681      -0.21685304
H       -5.12594203       3.16084395       1.07488862
O        2.39587325      -2.24534055      -2.44186921
O        0.99082523      -3.09396323      -0.94809356
O        5.23828894      -2.22692477      -0.63486421
N        0.96376362      -0.56670218       0.36303970
N        5.02263975      -0.02764214      -0.20990244
C        2.08597705      -1.01377320      -0.41967893
C        3.23691101      -1.45063291       0.48800258
C        1.73712286      -2.21456024      -1.29561512
C        4.59571750      -1.29992461      -0.18528554
H        2.40266415      -0.22909082      -1.06373084
H        3.22039213      -0.82942781       1.36889703
H        3.11715306      -2.49831169       0.77653644
H        0.69059460      -1.37497210       0.92783461
H        0.28547601       0.01743137      -2.13810676
H        4.46469086       0.71250311       0.17889867
H        5.91790611       0.17623943      -0.62564928
H        2.22902071      -3.05260824      -2.95241498
O        2.83319988       1.69226675       0.99335232
H        2.15362138       1.02820602       0.93962963
H        2.77014523       2.30179816       1.69794198
44
Properties=species:S:1:pos:R:3 reactant=T mapped=T (centered)=T charge=0 spin=1 pbc="F F F"
O       -3.04652641       0.18090180      -1.38801714
O       -2.80602058       1.10557527       2.05162308
O       -1.63862188      -2.05910672      -0.11921218
O       -5.25877474       2.38302160       1.54657370
O       -0.22547634      -0.42880561      -1.64655567
O        0.84248733       2.04050747      -0.78278091
C       -2.91227290      -0.11749453      -0.02747113
C       -3.32465548       1.13443792       0.75055234
C       -1.52249206      -0.71187429       0.28343153
C       -4.85745762       1.26110996       0.79239909
C       -0.26481621      -0.05638109      -0.33391106
C       -0.24300368       1.41380341      -0.24381827
H       -3.62169679      -0.92463592       0.24486383
H       -2.93349701       2.01673413       0.23609251
H       -1.39787107      -0.66768713       1.36823496
H       -5.23376748       1.30237872      -0.23299474
H       -5.29839286       0.39871645       1.30321653
H       -2.67857209      -0.56444579      -1.87405241
H       -3.43730439       1.59637778       2.61213837
H       -0.46316215       2.03075057       0.51093341
H       -1.11138651       1.81934188      -0.47600697
H       -0.81191848      -2.40070322      -0.46427886
H        1.58347811       2.07432165      -0.27241070
H       -5.06954281       3.18588107       1.04998728
O        2.38024307      -2.21975253      -2.45587925
O        0.97364846      -3.08031483      -0.96160588
O        5.24346467      -2.15818604      -0.66515129
N        0.95083454      -0.57024281       0.36814743
N        4.98138171       0.02692726      -0.18706796
C        2.07766223      -1.00748289      -0.42736791
C        3.23084611      -1.45631759       0.47960066
C        1.72233300      -2.20099785      -1.30878654
C        4.58505564      -1.25769673      -0.19089549
H        2.39515785      -0.20479595      -1.06561502
H        3.20348262      -0.86563639       1.38481292
H        3.12201520      -2.51189199       0.73851588
H        0.67891280      -1.37673751       0.93120950
H        0.25992421       0.07867375      -2.17277914
H        4.40971856       0.74748031       0.22001245
H        5.86692573       0.26384011      -0.60456362
H        2.20977422      -3.02562754      -2.96916630
O        2.73311384       1.64655479       1.10001150
H        2.06506474       0.95868842       1.04268261
H        2.64170491       2.20079065       1.85534890
44
Properties=species:S:1:pos:R:3 product=T mapped+aligned=T onto=T reactant=T charge=0 spin=1 pbc="F F F"
O       -3.03467303       0.13865660      -1.38525465
O       -2.66313517       1.15058584       2.04416759
O       -1.62106649      -2.10572938      -0.07731863
O       -5.09195530       2.48115259       1.56506941
O       -0.20656908      -0.54616707      -1.72027934
O        0.85189357       1.95287241      -1.00887813
C       -2.88043822      -0.13164044      -0.01587739
C       -3.22632067       1.15552544       0.75308481
C       -1.50233882      -0.75460464       0.30223248
C       -4.75208880       1.32372055       0.83466285
C       -0.26199549      -0.12027790      -0.37874814
C       -0.28024843       1.42158265      -0.36582483
H       -3.59582470      -0.91284772       0.29343844
H       -2.83185777       2.01387778       0.18733477
H       -1.36409548      -0.67562442       1.39255357
H       -5.16092257       1.34260733      -0.18001175
H       -5.19163474       0.48986007       1.38678362
H       -2.67817802      -0.62733769      -1.85614660
H       -3.25510218       1.67713894       2.60299043
H       -0.38657948       1.77714001       0.66284076
H       -1.13691850       1.74459961      -0.96015772
H       -0.77251602      -2.46210438      -0.39412770
H        1.59458683       1.96848000      -0.38263524
H       -4.89248701       3.26123378       1.03535134
O        2.35944982      -2.17993111      -2.47311643
O        0.94509016      -3.06277885      -0.98232491
O        5.25454958      -1.99661127      -0.70027232
N        0.92318327      -0.59064751       0.38270584
N        4.88544023       0.15448767      -0.13055579
C        2.05890866      -1.00011203      -0.43922876
C        3.21639490      -1.45028123       0.47453651
C        1.70005836      -2.18691056      -1.32671856
C        4.55957691      -1.15317606      -0.18509264
H        2.37279191      -0.16611096      -1.07293773
H        3.16391012      -0.90979673       1.41906444
H        3.13752449      -2.51899583       0.67825959
H        0.65606790      -1.40199638       0.93730899
H        0.18794179       0.17294282      -2.23547993
H        4.27731985       0.83475872       0.29855548
H        5.74707687       0.46024583      -0.55026060
H        2.18848827      -2.98380601      -2.99005095
O        2.49868689       1.57079296       1.26099123
H        1.86978892       0.82421620       1.20732281
H        2.33821669       2.02101037       2.09204378
