44
Properties=species:S:1:pos:R:3:energies:R:1:forces:R:3:charge:R:1 reactant=T mapped=T (centered)=T charge=0 spin=1 energy=-2152.734851386035 free_energy=-2152.734851386035 dipole="-0.3121202752970494 0.5803845302201068 0.025792024294910627" pbc="F F F"
O       -2.80998463       1.56085166      -1.27199495    -113.20136328       0.00068018       0.00056833      -0.01031572      -0.45442222
O       -3.22164922       0.10880406       1.96906059    -113.27148849       0.00518661       0.00818859      -0.00719440      -0.45747447
O       -1.77951154      -1.46536398      -1.30841325    -113.06918408       0.01112840       0.01447816      -0.01445363      -0.44845263
O       -5.40310702       1.95918820       2.04569404    -113.05183215      -0.00227954      -0.01242999      -0.00084166      -0.43831189
O        0.08567281       0.40157382      -1.56320678    -112.76827264       0.01471988       0.01183268       0.01354509      -0.45695517
O        1.08311897       1.85806455       0.68729142    -113.11720089       0.00478213      -0.00569465       0.02873795      -0.44033771
C       -3.00636555       0.44354357      -0.43681219     -59.00932447       0.00308936       0.00388244      -0.00679057       0.09360427
C       -3.48194506       1.00569164       0.91541282     -59.10672314       0.00222228       0.00566120      -0.00817425       0.09282293
C       -1.75709380      -0.47221859      -0.31516223     -59.18925850       0.00509193       0.00637192      -0.00643164       0.06500644
C       -4.98068225       1.33206318       0.85748652     -59.25493125       0.00111604       0.00238869      -0.00692015       0.06024633
C       -0.45196224       0.32406989      -0.45908488     -58.65851242       0.00644464       0.00595800       0.01016826       0.20540943
C       -0.23606462       1.38256637       0.61188045     -59.33161798       0.00453178      -0.00348892       0.01834573       0.04897536
H       -3.79790250      -0.20442272      -0.84694834     -13.01231451       0.00413855       0.00127054      -0.00430114       0.04563967
H       -2.93534147       1.94648173       1.09467339     -13.11113577       0.00032006       0.00697165      -0.01070074       0.03347551
H       -1.82834432      -0.96161135       0.65925504     -12.86496020      -0.00096739      -0.00162359      -0.01136707       0.07151945
H       -5.18905141       1.94574689      -0.02488217     -13.19646847       0.00136164       0.01143733      -0.00027150       0.04117653
H       -5.55111887       0.40172462       0.79502995     -12.98926691       0.00225240       0.00277465      -0.01773617       0.06258268
H       -2.40121336       1.26482786      -2.09429094     -11.39492681      -0.00551841      -0.00386407      -0.01125995       0.31147278
H       -3.89385833       0.27247074       2.64611243     -11.28254497       0.00250276       0.00412658      -0.00892972       0.31844948
H       -0.84540482       2.24169869       0.31207929     -12.76177741       0.00898816       0.00009857       0.02233483       0.08392552
H       -0.58639749       1.01607021       1.58358875     -13.21198587      -0.00228946      -0.00977395       0.01292465       0.03735037
H       -1.18159675      -1.16112438      -2.01306604     -11.39281079       0.01926237       0.01651572      -0.00619454       0.31468132
H        1.66277639       1.09269492       0.76934143     -11.38631140       0.00655665      -0.00513199       0.00923593       0.30420066
H       -5.02887430       2.84696110       2.08069598     -11.55642365      -0.00259298      -0.01299772       0.01196053       0.29412263
O        3.33491311      -2.58291589      -1.69768161    -112.47698385      -0.00817044      -0.00072048       0.00138573      -0.35912066
O        1.44248977      -3.49689113      -0.93100038    -112.19960943       0.00733860      -0.00124328       0.01687260      -0.39896301
O        5.32204939      -2.07084195       0.60518213    -112.37664129       0.00247041       0.00374836      -0.01426038      -0.43130712
N        0.69293160      -1.22342409       0.35289006     -80.99497931       0.00204649      -0.00114714       0.00856433      -0.28433795
N        4.86235263      -0.13546746      -0.45397878     -80.97591473      -0.00615712       0.00564095      -0.00669542      -0.27726050
C        2.03740083      -1.27912502      -0.20793535     -59.01901660       0.00085594      -0.00122980       0.00686715       0.01633179
C        3.11738964      -1.16037047       0.87453971     -59.25299043       0.00448640       0.00168402       0.00257706      -0.09974357
C        2.22547984      -2.58687824      -0.97409275     -58.91945923      -0.00143677      -0.00561127       0.00783034       0.35615409
C        4.54512787      -1.18919487       0.31433582     -59.19337888       0.00033555       0.00371891      -0.00698556       0.28654267
H        2.12977409      -0.47350573      -0.95196629     -12.55743377      -0.00117329      -0.00228501       0.00511721       0.10472621
H        2.99388379      -0.23076421       1.43535628     -13.13739061       0.00594188       0.00217651       0.00159653       0.05602752
H        3.02392803      -1.99986276       1.56802978     -13.05386892       0.00962636       0.00238337       0.00348733       0.06874384
H        0.68888174      -1.27663055       1.36656843     -12.30461426       0.00349625      -0.00181714       0.00856358       0.17810003
H        0.15963141      -2.01765456      -0.00885236     -12.00846131       0.00159411      -0.00067836       0.00950528       0.21313687
H        4.18657208       0.54002882      -0.79360716     -11.94951341      -0.01144925      -0.00087978      -0.00755053       0.22538696
H        5.77765668      -0.13078925      -0.87325715     -12.19327154      -0.01152585       0.00448623      -0.01788749       0.19490385
H        3.47269426      -3.43543419      -2.14101957     -10.81336097      -0.00586854      -0.00160307       0.00242226       0.34489436
O        2.87284542       1.74741864      -1.46786366    -114.78604346      -0.03012183      -0.02162467      -0.01071889      -0.59434995
H        2.05440364       1.46463446      -1.89652146     -11.64044756      -0.03999277      -0.02341513       0.01072200       0.30945314
H        2.59549559       2.39731576      -0.81286703     -11.69083578      -0.01302417      -0.00910340      -0.01678327       0.30197416
