44
Properties=species:S:1:pos:R:3:energies:R:1:forces:R:3:charge:R:1 reactant=T mapped=T (centered)=T charge=0 spin=1 energy=-2152.7053304497385 free_energy=-2152.7053304497385 dipole="-1.0090149706656142 0.8999448640467452 0.06575476600449418" pbc="F F F"
O       -3.15702859       1.10661916      -1.59427967    -113.16867861       0.00521235       0.00680709      -0.00000451      -0.44663762
O       -3.20103013       0.66318221       1.97946815    -113.40653012       0.00403305       0.01778865      -0.00841793      -0.46292526
O       -1.62376780      -1.18262018      -1.45997235    -113.12689013      -0.02202176       0.00387287      -0.00028983      -0.44683263
O       -5.21166247       2.54984969       1.80180513    -113.09111209       0.00758169      -0.00467301      -0.00089999      -0.43668912
O        0.05382674       0.78919492      -1.16432190    -111.67060709      -0.00841724       0.01076912      -0.00114809      -0.34175449
O        0.82994771       1.92876721       1.14557380    -113.01744398       0.00077298      -0.00740449       0.00147190      -0.43105825
C       -3.12327475       0.35186438      -0.41456547     -58.95708394      -0.00041483       0.01032806       0.00022800       0.10289751
C       -3.42258227       1.30417384       0.74516185     -59.08311388       0.00308872       0.01755592      -0.00912257       0.09500581
C       -1.77346121      -0.41884746      -0.28597009     -59.11227057      -0.00417556       0.00250787       0.00342654       0.07053294
C       -4.87461496       1.80090525       0.65732456     -59.22886051      -0.00394785       0.00183579      -0.00601410       0.06077843
C       -0.56343350       0.49771651      -0.16750535     -58.34415692      -0.00762912       0.00448992      -0.00282606       0.22849245
C       -0.17005261       0.93252967       1.21827608     -59.36251659       0.00349364      -0.01136855      -0.00200240       0.04230373
H       -3.89993860      -0.42960493      -0.44399169     -13.02370011       0.00198896       0.00469661       0.01984937       0.04237101
H       -2.75328699       2.17623680       0.65138573     -13.14357546      -0.00204542       0.02334118      -0.02301801       0.03157867
H       -1.83955621      -1.08043490       0.58064406     -12.85714117       0.01528481       0.00547692       0.00830572       0.07295793
H       -5.00495619       2.37016679      -0.26678478     -13.14932718      -0.03630671      -0.00530805      -0.00676866       0.04709747
H       -5.55493074       0.94583275       0.65362529     -12.98323832       0.01300015      -0.01433278       0.00750594       0.06240779
H       -2.91601225       0.51287280      -2.31941305     -11.23476482       0.01346625       0.00153273       0.00554133       0.31992874
H       -3.86818503       1.00573494       2.59479942     -11.19771590      -0.02016349      -0.00347557      -0.02256235       0.32334435
H       -1.04848196       1.27923344       1.77002166     -12.82337523       0.00761518      -0.02959274       0.01611523       0.07723019
H        0.20331954       0.02606209       1.71449149     -12.69153732       0.00765972      -0.02417520      -0.02644756       0.08412630
H       -0.92878771      -0.73814188      -1.97787904     -11.25200659      -0.01571988      -0.01111082       0.00031288       0.32087731
H        1.14369394       2.12881827       2.03320079     -11.41546595      -0.00536339      -0.00486822       0.00393912       0.30383383
H       -4.80700198       3.42241686       1.74484022     -11.51209187       0.02675562      -0.00679778       0.00001693       0.29566960
O        3.51878897      -3.03261260      -1.86526638    -112.51151270      -0.01545728      -0.00083520      -0.00811738      -0.37240629
O        2.64908439      -4.14089859      -0.12728915    -112.13319954       0.00344777      -0.00761961      -0.00082728      -0.40493723
O        5.16612338      -1.79727743       0.16795818    -112.48284637      -0.00992066       0.00466409      -0.00329411      -0.45200155
N        0.77388171      -2.08048838       0.22856825     -81.59586451       0.00102689       0.00763588      -0.00102807      -0.35898898
N        4.65836906       0.22142760      -0.68858358     -80.93024007      -0.00582287      -0.01125906       0.01129203      -0.28177275
C        2.03976634      -1.83042151      -0.44473234     -58.92257430       0.00466851       0.00240662       0.00438092       0.03640450
C        2.92785967      -0.97889833       0.48372098     -59.28128997       0.00771922      -0.00562517       0.00846440      -0.10266810
C        2.77178429      -3.13213633      -0.76845710     -58.96892035      -0.00096276       0.01409889      -0.00862730       0.35554523
C        4.36397188      -0.90523822      -0.02227923     -59.27258087       0.01568520       0.01021926      -0.00943170       0.28365701
H        1.86044514      -1.28889601      -1.37822656     -13.09860449       0.01041344       0.01133167       0.00940045       0.05528145
H        2.50151003       0.01856482       0.56006678     -13.01454628      -0.00990884      -0.01584892       0.01454497       0.07021412
H        2.93536075      -1.45527206       1.46571870     -13.05796689       0.02993688      -0.00533568       0.00510497       0.06768168
H        0.94139794      -2.76841996       0.96024637     -12.54627084      -0.00710739       0.01020885       0.00238564       0.16284870
H        0.11043630      -2.49962924      -0.41666690     -12.62873225       0.00676998       0.00241745      -0.00585060       0.15685888
H        3.97876597       0.95725162      -0.86208172     -11.98095114      -0.01386712       0.00228965       0.00640619       0.22795584
H        5.59338840       0.32765747      -1.04531265     -12.30928042      -0.00321841       0.00848206      -0.03264837       0.18704513
H        4.04346361      -3.83805282      -2.00080883     -10.99770032       0.00625108       0.00646715       0.03069670       0.33755003
O        2.61214140       2.16529408      -1.14221681    -114.67104313      -0.00059254       0.00970167       0.00288422      -0.59086066
H        2.07316524       1.92369170      -1.90001237     -11.80095356      -0.00534214      -0.01669852       0.01282443       0.29388756
H        1.99155354       2.19182595      -0.40028149     -11.64704807       0.00253319      -0.01459658       0.00424899       0.31316871
44
Properties=species:S:1:pos:R:3:energies:R:1:forces:R:3:charge:R:1 reactant=T mapped=T (centered)=T charge=0 spin=1 energy=-2152.736271662701 free_energy=-2152.736271662701 dipole="-1.185216692526013 0.8683970942660472 0.15867151681075398" pbc="F F F"
O       -3.07999329       1.12347923      -1.64586348    -113.14830231      -0.00649243      -0.00445905      -0.00083903      -0.44458710
O       -3.23730925       0.80939283       1.92833515    -113.42352561      -0.00168807      -0.00203608      -0.00004021      -0.46359235
O       -1.63674810      -1.27440853      -1.31226904    -113.12384984       0.00101416       0.00156650      -0.00268887      -0.44523884
O       -5.32418706       2.58873431       1.65656822    -113.09341561       0.00366677       0.00418559      -0.00052387      -0.43624544
O       -0.02025728       0.80407397      -1.14174253    -111.71060274      -0.00481595       0.00694452      -0.00196613      -0.34465437
O        0.79436616       1.91855511       1.23245424    -112.99723556      -0.00508534       0.00332744      -0.00011237      -0.42905540
C       -3.13790296       0.38559816      -0.45612649     -58.94835571      -0.00215114      -0.00238187       0.00052569       0.10239811
C       -3.48528856       1.37320216       0.66138948     -59.08371375       0.00065546      -0.00097433       0.00004488       0.09452519
C       -1.81928169      -0.40829011      -0.21611408     -59.07997110      -0.00042561       0.00003856      -0.00185418       0.07126858
C       -4.96308152       1.78125777       0.56126907     -59.23930385       0.00219785       0.00408162      -0.00088818       0.06050560
C       -0.60763008       0.51022455      -0.12774902     -58.32145219      -0.00259840       0.00277766      -0.00169517       0.22989308
C       -0.19262364       0.90750453       1.25944451     -59.39463429      -0.00003305      -0.00151481      -0.00143214       0.03828575
H       -3.92840880      -0.37951117      -0.52050221     -13.03831717      -0.00158456      -0.00321328       0.00430170       0.04117599
H       -2.85708882       2.26987905       0.52212920     -13.11128135       0.00373526      -0.00316079       0.00052824       0.03614084
H       -1.93379874      -0.99887720       0.69475020     -12.88109482       0.00174042      -0.00122338      -0.00251370       0.07176215
H       -5.15076684       2.27198398      -0.39802249     -13.16180248       0.00520336       0.00566155      -0.00048692       0.04576018
H       -5.58789017       0.88729233       0.63704577     -12.98130470      -0.00099275       0.00632622      -0.00261658       0.06213359
H       -2.81754887       0.52172115      -2.35517924     -11.25391380      -0.00735775      -0.00534867      -0.00039513       0.31731836
H       -3.93595569       1.13686063       2.51644277     -11.18339129      -0.00023606       0.00082220       0.00002650       0.32390488
H       -1.07443107       1.20989742       1.83355446     -12.80605289       0.00055143      -0.00867543       0.00295549       0.08029019
H        0.20312611      -0.02161686       1.69822382     -12.61291331       0.00601480      -0.00189741      -0.00762209       0.09135970
H       -0.99859510      -0.83658374      -1.90112283     -11.27626684      -0.00166990       0.00408636      -0.00351564       0.31780767
H        1.06563928       2.11121667       2.13567166     -11.43266234      -0.00249636       0.00034581      -0.00030708       0.30202680
H       -4.92388723       3.45958207       1.55446433     -11.49867295       0.00500022       0.00357320      -0.00006675       0.29643754
O        3.46004211      -2.82434410      -1.96075160    -112.52333017      -0.00336278      -0.00021008      -0.00025128      -0.37226751
O        2.48667709      -4.11264381      -0.41432575    -112.16372826       0.00550617      -0.00526770       0.00538356      -0.40697167
O        5.43804187      -1.78631476       0.03566073    -112.46856281      -0.00218204      -0.00234944      -0.00529526      -0.45007787
N        0.91001352      -1.95156500       0.42797435     -81.62819552       0.00256072      -0.00622427       0.00552616      -0.35943671
N        4.62598107       0.09923416      -0.89144297     -80.92986644       0.00190239       0.00353061       0.00457229      -0.28280766
C        2.14043065      -1.72863894      -0.31583060     -58.95355615       0.00052976      -0.00331444       0.00200630       0.03400631
C        3.20185544      -1.12017609       0.62011297     -59.24157511       0.00001091       0.00044441      -0.00126769      -0.09920396
C        2.70736712      -3.02758373      -0.88232395     -58.97193835       0.00301247       0.00398053      -0.00088678       0.35191600
C        4.54249975      -0.97761422      -0.09767316     -59.27976470      -0.00064311       0.00048595      -0.00130667       0.28409289
H        1.94578518      -1.03813311      -1.14211225     -13.04253048      -0.00342451      -0.00424146       0.00219201       0.06048094
H        2.84950821      -0.14911200       0.96447814     -13.05519869       0.00007447       0.00052181      -0.00377161       0.06513733
H        3.33835646      -1.78492207       1.47475626     -13.08803016       0.00046634       0.00292689      -0.00021156       0.06647621
H        1.07943657      -2.69251331       1.10450018     -12.55006058       0.00502336      -0.01006993       0.00050306       0.16195466
H        0.18819145      -2.29803240      -0.19852089     -12.62720237       0.00019197      -0.00219122       0.00655650       0.15731175
H        3.88424389       0.79144687      -0.97165930     -11.97889469       0.00236178       0.00380544       0.00528075       0.22928767
H        5.47448808       0.23940019      -1.41394238     -12.31649446       0.00167232       0.00381251       0.00488037       0.18684169
H        3.89837616      -3.64583692      -2.23534048     -10.98396785      -0.00099461       0.00064707      -0.00215739       0.33775510
O        2.54391944       2.00805370      -1.05590283    -114.69249828      -0.00121302       0.00045434       0.00259561      -0.59354534
H        1.84588385       1.71749584      -1.65234386     -11.74809500       0.00254115       0.00413482      -0.00250293       0.30107135
H        2.08844530       2.13063139      -0.21236506     -11.69074509      -0.00618611       0.00027203      -0.00066387       0.30835811
44
Properties=species:S:1:pos:R:3:energies:R:1:forces:R:3:charge:R:1 reactant=T mapped=T (centered)=T charge=0 spin=1 energy=-2152.7626328916795 free_energy=-2152.7626328916795 dipole="-0.8560054550882965 0.7015349478130427 0.39798281394669177" pbc="F F F"
O       -2.78565758       1.19724012      -1.58067807    -113.09619865       0.00979682       0.00154756       0.00288811      -0.44516356
O       -3.13310590       0.65017104       1.93355278    -113.38930225       0.00013666      -0.00844579       0.00031253      -0.46421553
O       -1.61083243      -1.41170718      -1.33260929    -113.18126791       0.00110996      -0.00598992       0.00047107      -0.45272754
O       -5.25372651       2.43796529       1.66565899    -113.07811578       0.00293198      -0.00326898      -0.00117258      -0.43777941
O        0.14257718       0.56131522      -1.12945123    -112.53064416       0.00449789      -0.00970263       0.00082136      -0.43219141
O        1.12937639       1.44844267       1.32562346    -112.97328752       0.00996814      -0.01489988       0.00272917      -0.42926793
C       -2.96361604       0.35573737      -0.47294121     -58.99020985       0.00559511      -0.00203579      -0.00013772       0.10025596
C       -3.37507188       1.26480369       0.69057959     -59.07728551       0.00316001      -0.00497154       0.00148945       0.09566723
C       -1.72926123      -0.55838692      -0.21457603     -59.06806280       0.00292121      -0.00578385       0.00062967       0.07013710
C       -4.86202242       1.63525840       0.57596437     -59.23427920       0.00386090      -0.00310380      -0.00101591       0.06017727
C       -0.39501633       0.19630688      -0.08754839     -58.60649073       0.00716766      -0.01034611       0.00021534       0.21811853
C       -0.14444518       0.84106615       1.26651321     -59.24658760       0.00051355      -0.00038893      -0.00081011       0.05362544
H       -3.78501966      -0.35494455      -0.66892418     -13.05786683       0.00472679      -0.00025101      -0.00478292       0.03733450
H       -2.78669612       2.19544167       0.60542876     -13.12780135       0.00343827      -0.00475276       0.00532647       0.03225660
H       -1.94341815      -1.15822539       0.67150488     -13.03423896      -0.00010548      -0.00571020       0.00013218       0.05772736
H       -5.05064494       2.12334486      -0.38494094     -13.18197884       0.00657609      -0.00189390      -0.00088721       0.04356840
H       -5.46764563       0.72816865       0.64636904     -12.99621642       0.00228829      -0.00217108      -0.00302906       0.06143576
H       -2.47440811       0.66054284      -2.32059445     -11.31758175       0.01364601       0.00424569       0.00243337       0.31515291
H       -3.81890867       0.97569628       2.53676725     -11.22934807       0.00032475      -0.00803784       0.00028019       0.32130908
H       -0.92566920       1.59581744       1.40282162     -12.93479278       0.00501394       0.01501365      -0.01764334       0.06041756
H       -0.26729980       0.09270100       2.05591573     -13.11801290      -0.01832095       0.00737928       0.01114537       0.04439466
H       -0.97487886      -0.96848902      -1.92264487     -11.29201675       0.00156598      -0.00646259       0.00041650       0.31878032
H        1.21191007       1.89679991       2.17363071     -11.52996608       0.00312499      -0.00392450      -0.00057236       0.29495373
H       -4.87311583       3.31755847       1.56307205     -11.53444352       0.00431529      -0.00370356       0.00015721       0.29481113
O        3.36149361      -2.81069424      -1.83624694    -112.44722986      -0.00764791       0.00077867       0.00158208      -0.36192098
O        2.01113858      -3.93346206      -0.45128289    -112.22927374      -0.01860401       0.00182901      -0.00123726      -0.40760835
O        5.31506714      -1.71658937       0.13440433    -112.49880930      -0.00341978      -0.00021553      -0.00366635      -0.45008615
N        0.69560595      -1.58022322       0.25036025     -80.85585495      -0.00536677       0.01189816      -0.00201082      -0.27115859
N        4.56009065       0.10703260      -0.95716090     -80.96229489      -0.00015713       0.00424125       0.00187319      -0.28483755
C        1.99680119      -1.52337648      -0.39697746     -58.97683412      -0.00381163       0.00605231      -0.00109332       0.02467456
C        3.06320745      -0.99377048       0.57229064     -59.29264131      -0.00194735       0.00188770      -0.00121892      -0.10653342
C        2.44257202      -2.89770282      -0.88331513     -58.95425439      -0.00832348       0.00819983      -0.00310465       0.35455335
C        4.43529543      -0.91366146      -0.10033476     -59.26136866      -0.00155731       0.00097075      -0.00148380       0.28468654
H        1.91366825      -0.85112526      -1.26130733     -12.69168497      -0.00144365       0.00656361      -0.00156264       0.09486342
H        2.75340572      -0.00726114       0.91457511     -12.85152028      -0.00000032       0.00174979       0.00116003       0.08974159
H        3.14577524      -1.67248070       1.42430652     -13.14402513      -0.00189454      -0.00026955      -0.00273104       0.06064896
H        0.78438577      -1.86590176       1.22029460     -12.28736295      -0.00634879       0.02796589       0.00719333       0.18054669
H        0.10073364      -2.25610132      -0.22637552     -12.14907002      -0.00162346       0.00052093       0.00482226       0.19869059
H        3.82155338       0.79487103      -1.11288127     -11.93137371      -0.00097484       0.00324721       0.00070696       0.23381475
H        5.42876419       0.20627534      -1.45502427     -12.31154409      -0.00051662       0.00385868       0.00127791       0.18707370
H        3.72631967      -3.68273042      -2.05688367     -10.89261848      -0.01077513      -0.00090215       0.00031535       0.34206406
O        2.50582522       2.00334692      -1.16937381    -114.71432681      -0.00298718      -0.00074667      -0.00439296      -0.59872382
H        1.66439372       1.54261204      -1.33756386     -11.60504784      -0.00629508      -0.00760731       0.00816151       0.32189989
H        2.41050001       2.32831791      -0.26999841     -11.87950119       0.00544113       0.00763591      -0.00398765       0.28883263
44
Properties=species:S:1:pos:R:3:energies:R:1:forces:R:3:charge:R:1 reactant=T mapped=T (centered)=T charge=0 spin=1 energy=-2152.875137755264 free_energy=-2152.875137755264 dipole="-0.5071602017317769 0.7078487296123426 0.6079412689552477" pbc="F F F"
O       -2.62038414       1.29336365      -1.51906666    -113.10638997       0.00898258       0.00675805       0.00802585      -0.45159096
O       -3.12388654       0.41211692       1.90270719    -113.35338295      -0.00744365      -0.00621779       0.00298740      -0.46342967
O       -1.52855624      -1.49796347      -1.31699685    -113.10460498      -0.00259688      -0.00694033       0.01077650      -0.45233545
O       -5.28532823       2.21568771       1.67949586    -113.06679178      -0.00746575      -0.00756125      -0.00211700      -0.43937736
O        0.18996643       0.48794294      -1.22876569    -113.32824560      -0.00002915      -0.00320722      -0.00756575      -0.51990347
O        1.15300721       1.19676893       1.49006051    -113.13185150       0.00230221       0.00424041      -0.00333948      -0.44184851
C       -2.87503453       0.33422437      -0.52428613     -59.05210647       0.00448850       0.00278184       0.00327058       0.09677546
C       -3.36571459       1.11478796       0.70512188     -59.08478677      -0.00017070      -0.00167438       0.00439301       0.09310254
C       -1.66665039      -0.59602101      -0.24559025     -59.11077255       0.00235407       0.00110363       0.00463604       0.06977430
C       -4.86230954       1.43102160       0.58723475     -59.24483301       0.00112282       0.00029188      -0.00406074       0.05997238
C       -0.32726421       0.16304075      -0.13946695     -58.78197421       0.00325706      -0.00097428      -0.00241877       0.21049454
C       -0.20103830       1.06388791       1.09321176     -59.16818280       0.00424542       0.00522950      -0.00777245       0.04913494
H       -3.67855278      -0.34517304      -0.85778166     -13.04489865       0.00533407       0.00528202      -0.00330550       0.03975945
H       -2.81758841       2.07207141       0.72079995     -13.13447976       0.00123200      -0.00282628       0.01136171       0.03077718
H       -1.89855298      -1.16365254       0.65822247     -13.05747317       0.00491067       0.00724664       0.00897005       0.05433741
H       -5.06560781       1.91825942      -0.37122224     -13.19007592       0.00959587       0.00733547      -0.00194911       0.04274934
H       -5.43448565       0.50211470       0.65092385     -12.99508938       0.00021483       0.00027261      -0.01563694       0.06217805
H       -2.04435015       0.90075409      -2.18761528     -11.35292430       0.02396517       0.01478203       0.01716967       0.31796327
H       -3.79977051       0.70664792       2.53121235     -11.27124175      -0.01502012      -0.01319595      -0.00225882       0.31882422
H       -0.60312066       2.04247189       0.80253696     -13.08508560       0.00820420       0.00393869      -0.01244064       0.04766704
H       -0.80945570       0.65340097       1.90543187     -13.21456601       0.00155179       0.01035552      -0.00890453       0.04086804
H       -0.89050599      -1.08128111      -1.92495528     -11.38700666      -0.01029655      -0.00987377       0.00137912       0.31517702
H        1.18789370       1.78570021       2.25050859     -11.57228400      -0.00187622       0.01924529      -0.00088903       0.29210216
H       -4.91408603       3.10073715       1.58907534     -11.56286087      -0.00978868      -0.00600774       0.00573050       0.29348892
O        3.13342821      -2.74896698      -1.78799578    -112.38987457      -0.00811496      -0.00438645      -0.00680563      -0.35251161
O        1.37772913      -3.63367270      -0.72084643    -112.29336579       0.01267988      -0.00913162       0.02083126      -0.40725109
O        5.38191065      -1.81924329       0.06598585    -112.45899463      -0.00737509      -0.00746671      -0.01433165      -0.44280298
N        0.71478072      -1.30150723       0.44967379     -80.43286416      -0.00030604       0.00100857      -0.00362402      -0.20894365
N        4.57780807      -0.00326264      -1.00348353     -80.96893429       0.00117527       0.00580000       0.00180216      -0.28339998
C        1.97665925      -1.35255938      -0.27172775     -58.98662051      -0.00094966      -0.00215612      -0.00462378       0.01373686
C        3.17271179      -1.06622557       0.64022346     -59.32078242      -0.00196143       0.00127669      -0.00502426      -0.10646926
C        2.11968940      -2.71200815      -0.94036266     -58.93830246       0.00116245      -0.00618155       0.00456767       0.35702819
C        4.49573672      -1.01523879      -0.13076108     -59.22754624      -0.00301421      -0.00028615      -0.00632881       0.28662745
H        1.92107221      -0.59509438      -1.07187925     -12.35810807      -0.00117623      -0.00661828      -0.00848999       0.12613721
H        3.00533939      -0.10521440       1.12731066     -12.85567263      -0.00317362       0.00205959      -0.00765895       0.08757527
H        3.25897883      -1.84888466       1.39717687     -13.11690561      -0.00227873       0.00276569      -0.00359509       0.06300644
H        0.84299293      -1.21026847       1.45189746     -11.97066386       0.00188343       0.00137807      -0.00413487       0.20651477
H        0.17477179      -2.14445144       0.23064836     -11.83341085      -0.00183138       0.00160857      -0.00096200       0.22517276
H        3.83623721       0.68445624      -1.13691550     -11.92828799       0.00188355       0.00715711       0.00526294       0.23284063
H        5.41288236       0.07548623      -1.55888618     -12.28159459       0.00042679       0.00607987       0.00078444       0.18913315
H        3.25388796      -3.63564495      -2.16378212     -10.81461699      -0.00282198      -0.00613045       0.00057009       0.34486722
O        2.51435524       1.91631088      -1.19046678    -114.74389728      -0.00333580       0.00034556       0.00945661      -0.60382097
H        1.64243728       1.48697291      -1.31638163     -11.60084003      -0.00001691      -0.00287138      -0.00028280       0.32509508
H        2.46796691       2.31810746      -0.32022510     -11.95194611      -0.00992892      -0.01463564       0.01654500       0.28080364
44
Properties=species:S:1:pos:R:3:energies:R:1:forces:R:3:charge:R:1 reactant=T mapped=T (centered)=T charge=0 spin=1 energy=-2152.8037764263554 free_energy=-2152.8037764263554 dipole="-0.7682858859181934 0.6817718249043745 -0.05708171351766025" pbc="F F F"
O       -2.93070055       1.21259561      -1.62972379    -113.14681638       0.00033877      -0.00109406       0.00075857      -0.44604848
O       -3.25136449       0.58132125       1.87363679    -113.36659528      -0.00177584      -0.00289902       0.00169991      -0.46127206
O       -1.53891752      -1.29118147      -1.35266036    -113.11507430       0.00100400      -0.00176447       0.00252616      -0.44864551
O       -5.46250869       2.26917416       1.66007114    -113.06715358      -0.00169114      -0.00127095      -0.00195416      -0.43626889
O        0.13276880       0.70407056      -1.06068604    -112.23737492       0.00244562      -0.00256951       0.00094088      -0.39273952
O        0.98620094       1.60985722       1.37175260    -113.05022507       0.00442726      -0.00180999       0.00251016      -0.43649145
C       -3.06845398       0.35857736      -0.52608238     -58.96135919       0.00151465      -0.00112903       0.00151844       0.10157636
C       -3.53272685       1.21909709       0.65238542     -59.11417960       0.00038598      -0.00134648       0.00164843       0.09409624
C       -1.76354447      -0.44670880      -0.24911055     -59.11165818       0.00232553       0.00026663       0.00187068       0.07461266
C       -5.03806578       1.50992432       0.55278171     -59.24000934       0.00092698       0.00005262      -0.00188908       0.06028325
C       -0.54796691       0.45144179      -0.07941582     -58.37822336       0.00365516       0.00135920      -0.00107727       0.21498048
C       -0.31635374       1.10842742       1.25849029     -59.45163750       0.00154771       0.00715201      -0.00095602       0.04954992
H       -3.83164963      -0.40902860      -0.73294683     -13.02640942       0.00252132      -0.00264933       0.00157666       0.04226435
H       -2.99464793       2.18131122       0.59290269     -13.13976000       0.00099183      -0.00132673       0.00353494       0.03110160
H       -1.93681817      -1.05195062       0.64312976     -12.88666624       0.00266182       0.00114653       0.00269533       0.07014754
H       -5.26034099       2.00554984      -0.39737100     -13.18420636       0.00482405       0.00207553      -0.00179495       0.04287562
H       -5.59322194       0.57033786       0.61024407     -12.97837270      -0.00045553       0.00059001      -0.00564409       0.06316327
H       -2.60706201       0.68688807      -2.37292981     -11.28976289       0.00001577      -0.00124561       0.00017653       0.31607743
H       -3.92238385       0.88528550       2.50396687     -11.20460555      -0.00254150      -0.00348315       0.00133509       0.32274240
H       -0.98737010       1.96576377       1.35308553     -12.70695637       0.00847251       0.01440862      -0.00955404       0.08654881
H       -0.55937835       0.40486773       2.06298498     -12.94782682      -0.00739575       0.01407674       0.00309967       0.06060404
H       -0.83490122      -0.86918129      -1.87502256     -11.30733464       0.00206392      -0.00438595       0.00111741       0.31810200
H        1.57883513       0.92507329       1.03410889     -11.30069559       0.00133351      -0.00939068       0.00962775       0.31429436
H       -5.11039652       3.16343849       1.58445359     -11.52262975      -0.00145647      -0.00110938       0.00002191       0.29524608
O        3.18105375      -2.75619516      -1.86193103    -112.49360235      -0.00454736       0.00048496      -0.00247142      -0.36491478
O        1.71672060      -3.79390763      -0.52800294    -112.19489249       0.00065505      -0.00640198       0.00479647      -0.40444523
O        5.49619028      -1.96308779      -0.08429525    -112.40018236      -0.00616341      -0.00667951      -0.00955374      -0.43744554
N        0.88908053      -1.39526429       0.57770156     -81.46636898      -0.00163082      -0.00090351      -0.00011308      -0.33849437
N        4.72333665      -0.03764900      -0.96551518     -80.94470954       0.00468446       0.00367986       0.00259829      -0.27887535
C        2.12082277      -1.43986306      -0.20179847     -58.99621047      -0.00195592      -0.00061197      -0.00153613       0.02474312
C        3.35572823      -1.16246464       0.66910942     -59.23779077      -0.00138664       0.00324488      -0.00291808      -0.09859190
C        2.30681814      -2.80253246      -0.86460655     -58.94691290       0.00198150       0.00277600      -0.00175609       0.35320290
C        4.63919745      -1.11065919      -0.16589845     -59.23456272      -0.00189749       0.00006499      -0.00405305       0.28568510
H        2.04630359      -0.69101693      -1.00307076     -12.79562135      -0.00395812      -0.00179877      -0.00317699       0.08209166
H        3.23996381      -0.21383912       1.19649032     -13.10085463      -0.00069024       0.00601511      -0.00796796       0.06042710
H        3.46600623      -1.96369156       1.40381646     -13.09407326      -0.00157887       0.00651612       0.00102642       0.06593100
H        1.06969201      -1.64789643       1.54500818     -12.46221168      -0.00153805      -0.00705920      -0.00133564       0.16566823
H        0.24701068      -2.09490738       0.21169029     -12.37068366      -0.00397120       0.00299471      -0.00369628       0.18147886
H        3.99965855       0.67061258      -1.02771045     -11.95575739       0.00645250       0.00670006       0.00596650       0.22820348
H        5.52582825       0.04352005      -1.56677953     -12.24623734       0.00385234       0.00208420       0.00066043       0.19169339
H        3.35293271      -3.64180471      -2.22013706     -10.89130223      -0.00052023       0.00071622      -0.00176273       0.34161568
O        2.66094186       1.95392878      -1.03537222    -114.83039117      -0.00319279      -0.00254584       0.00350671      -0.60310474
H        1.75043747       1.64310434      -1.17046670     -11.57357342      -0.00186705      -0.00840112       0.00266547       0.31874666
H        2.60324527       2.65866185      -0.38627786     -11.83230468      -0.00886782      -0.00452877       0.00533197       0.28958420
44
Properties=species:S:1:pos:R:3:energies:R:1:forces:R:3:charge:R:1 reactant=T mapped=T (centered)=T charge=0 spin=1 energy=-2152.734851386035 free_energy=-2152.734851386035 dipole="-0.3121202752970494 0.5803845302201068 0.025792024294910627" pbc="F F F"
O       -2.80998463       1.56085166      -1.27199495    -113.20136328       0.00068018       0.00056833      -0.01031572      -0.45442222
O       -3.22164922       0.10880406       1.96906059    -113.27148849       0.00518661       0.00818859      -0.00719440      -0.45747447
O       -1.77951154      -1.46536398      -1.30841325    -113.06918408       0.01112840       0.01447816      -0.01445363      -0.44845263
O       -5.40310702       1.95918820       2.04569404    -113.05183215      -0.00227954      -0.01242999      -0.00084166      -0.43831189
O        0.08567281       0.40157382      -1.56320678    -112.76827264       0.01471988       0.01183268       0.01354509      -0.45695517
O        1.08311897       1.85806455       0.68729142    -113.11720089       0.00478213      -0.00569465       0.02873795      -0.44033771
C       -3.00636555       0.44354357      -0.43681219     -59.00932447       0.00308936       0.00388244      -0.00679057       0.09360427
C       -3.48194506       1.00569164       0.91541282     -59.10672314       0.00222228       0.00566120      -0.00817425       0.09282293
C       -1.75709380      -0.47221859      -0.31516223     -59.18925850       0.00509193       0.00637192      -0.00643164       0.06500644
C       -4.98068225       1.33206318       0.85748652     -59.25493125       0.00111604       0.00238869      -0.00692015       0.06024633
C       -0.45196224       0.32406989      -0.45908488     -58.65851242       0.00644464       0.00595800       0.01016826       0.20540943
C       -0.23606462       1.38256637       0.61188045     -59.33161798       0.00453178      -0.00348892       0.01834573       0.04897536
H       -3.79790250      -0.20442272      -0.84694834     -13.01231451       0.00413855       0.00127054      -0.00430114       0.04563967
H       -2.93534147       1.94648173       1.09467339     -13.11113577       0.00032006       0.00697165      -0.01070074       0.03347551
H       -1.82834432      -0.96161135       0.65925504     -12.86496020      -0.00096739      -0.00162359      -0.01136707       0.07151945
H       -5.18905141       1.94574689      -0.02488217     -13.19646847       0.00136164       0.01143733      -0.00027150       0.04117653
H       -5.55111887       0.40172462       0.79502995     -12.98926691       0.00225240       0.00277465      -0.01773617       0.06258268
H       -2.40121336       1.26482786      -2.09429094     -11.39492681      -0.00551841      -0.00386407      -0.01125995       0.31147278
H       -3.89385833       0.27247074       2.64611243     -11.28254497       0.00250276       0.00412658      -0.00892972       0.31844948
H       -0.84540482       2.24169869       0.31207929     -12.76177741       0.00898816       0.00009857       0.02233483       0.08392552
H       -0.58639749       1.01607021       1.58358875     -13.21198587      -0.00228946      -0.00977395       0.01292465       0.03735037
H       -1.18159675      -1.16112438      -2.01306604     -11.39281079       0.01926237       0.01651572      -0.00619454       0.31468132
H        1.66277639       1.09269492       0.76934143     -11.38631140       0.00655665      -0.00513199       0.00923593       0.30420066
H       -5.02887430       2.84696110       2.08069598     -11.55642365      -0.00259298      -0.01299772       0.01196053       0.29412263
O        3.33491311      -2.58291589      -1.69768161    -112.47698385      -0.00817044      -0.00072048       0.00138573      -0.35912066
O        1.44248977      -3.49689113      -0.93100038    -112.19960943       0.00733860      -0.00124328       0.01687260      -0.39896301
O        5.32204939      -2.07084195       0.60518213    -112.37664129       0.00247041       0.00374836      -0.01426038      -0.43130712
N        0.69293160      -1.22342409       0.35289006     -80.99497931       0.00204649      -0.00114714       0.00856433      -0.28433795
N        4.86235263      -0.13546746      -0.45397878     -80.97591473      -0.00615712       0.00564095      -0.00669542      -0.27726050
C        2.03740083      -1.27912502      -0.20793535     -59.01901660       0.00085594      -0.00122980       0.00686715       0.01633179
C        3.11738964      -1.16037047       0.87453971     -59.25299043       0.00448640       0.00168402       0.00257706      -0.09974357
C        2.22547984      -2.58687824      -0.97409275     -58.91945923      -0.00143677      -0.00561127       0.00783034       0.35615409
C        4.54512787      -1.18919487       0.31433582     -59.19337888       0.00033555       0.00371891      -0.00698556       0.28654267
H        2.12977409      -0.47350573      -0.95196629     -12.55743377      -0.00117329      -0.00228501       0.00511721       0.10472621
H        2.99388379      -0.23076421       1.43535628     -13.13739061       0.00594188       0.00217651       0.00159653       0.05602752
H        3.02392803      -1.99986276       1.56802978     -13.05386892       0.00962636       0.00238337       0.00348733       0.06874384
H        0.68888174      -1.27663055       1.36656843     -12.30461426       0.00349625      -0.00181714       0.00856358       0.17810003
H        0.15963141      -2.01765456      -0.00885236     -12.00846131       0.00159411      -0.00067836       0.00950528       0.21313687
H        4.18657208       0.54002882      -0.79360716     -11.94951341      -0.01144925      -0.00087978      -0.00755053       0.22538696
H        5.77765668      -0.13078925      -0.87325715     -12.19327154      -0.01152585       0.00448623      -0.01788749       0.19490385
H        3.47269426      -3.43543419      -2.14101957     -10.81336097      -0.00586854      -0.00160307       0.00242226       0.34489436
O        2.87284542       1.74741864      -1.46786366    -114.78604346      -0.03012183      -0.02162467      -0.01071889      -0.59434995
H        2.05440364       1.46463446      -1.89652146     -11.64044756      -0.03999277      -0.02341513       0.01072200       0.30945314
H        2.59549559       2.39731576      -0.81286703     -11.69083578      -0.01302417      -0.00910340      -0.01678327       0.30197416
44
Properties=species:S:1:pos:R:3:energies:R:1:forces:R:3:charge:R:1 reactant=T mapped=T (centered)=T charge=0 spin=1 energy=-2153.3475150507825 free_energy=-2153.3475150507825 dipole="-0.6703877009588922 0.6665592298251335 -0.6764731659068971" pbc="F F F"
O       -2.64008306       1.38929230      -1.21657758    -113.22611092       0.02893652      -0.02785853      -0.00058788      -0.45403212
O       -3.21812366       0.13008187       2.07778266    -113.23544211       0.00493002       0.01195579       0.01229596      -0.45539976
O       -1.77062245      -1.71679076      -0.98137714    -113.00183888       0.00762481      -0.03447140       0.04572427      -0.44092122
O       -5.37851816       1.96252282       1.99515318    -113.05185042      -0.00139685      -0.01082349      -0.00856907      -0.43741440
O        0.05642936       0.08416613      -1.57005961    -113.44843477       0.00071644      -0.03150077       0.00352982      -0.47216892
O        1.12336290       1.82182193       0.64496904    -113.20690083       0.01075849      -0.01031480       0.00939265      -0.44357299
C       -2.88285731       0.32810288      -0.32069368     -59.09359771       0.02042009      -0.01497054       0.01291921       0.08787572
C       -3.41774151       0.97568762       0.97272779     -59.11624938       0.01133059       0.00117800       0.00276086       0.09248302
C       -1.68770991      -0.63333611      -0.08186842     -59.09170823       0.01291608      -0.02010667       0.03091812       0.06994655
C       -4.91080885       1.31231709       0.83689826     -59.25529822       0.01109068      -0.00077986      -0.00895382       0.05985732
C       -0.25938600      -0.01779632      -0.19083722     -58.86634936       0.02824410      -0.04246959       0.03808084       0.18307495
C       -0.19357448       1.36784875       0.48100395     -59.29263923       0.01009971      -0.00238094      -0.00967287       0.05581405
H       -3.68255966      -0.31702531      -0.72661393     -13.02742068       0.01828979      -0.01555627       0.01688341       0.04057987
H       -2.86834566       1.91965342       1.12320717     -13.08880857       0.00972789       0.00310599      -0.00312715       0.03618822
H       -1.81816721      -1.06434819       0.91202707     -12.76332320       0.00500023      -0.01143559       0.03346259       0.08633238
H       -5.07816851       1.91233992      -0.06356182     -13.20265802       0.01884431       0.00513112      -0.00652833       0.04038942
H       -5.48779288       0.38628544       0.76827904     -12.98580698       0.01295636      -0.00086984      -0.02075261       0.06267034
H       -2.09344752       1.08264216      -1.95022160     -11.37922992       0.06040237      -0.03202426       0.02249649       0.30946540
H       -3.91947203       0.32986339       2.71451671     -11.25825903      -0.00232091       0.01270455       0.00442097       0.32038322
H       -0.71706459       2.11660976      -0.11126929     -12.87255194       0.02684328      -0.01427539      -0.04937564       0.07839378
H       -0.67675890       1.25709974       1.45877168     -13.14081962      -0.01189597       0.03076739      -0.01163030       0.04196443
H       -1.75693858      -1.37624581      -1.88595249     -11.50740010      -0.07980411      -0.03245460       0.01997065       0.29523138
H        1.60140586       1.09965759       1.07434427     -11.28883122      -0.01131774      -0.00131555       0.06815838       0.31434534
H       -4.99217547       2.84477882       2.03863931     -11.54476330       0.00249271      -0.01324013       0.00652968       0.29458087
O        3.16708661      -2.48594083      -1.65192968    -112.57935496      -0.02800379       0.01973183       0.00578385      -0.37341808
O        1.29240908      -3.32984101      -0.77304833    -112.19516833      -0.01866408       0.03660285       0.02116053      -0.40318984
O        5.28116788      -2.10352698       0.60199037    -112.38226181      -0.00855205      -0.01425168      -0.01172727      -0.43597226
N        0.70612932      -0.87569556       0.50200525     -80.91391955      -0.00050424       0.03998656       0.02117274      -0.29461055
N        4.85353458      -0.14744617      -0.42179677     -80.93676594      -0.00071655       0.00013439       0.00767612      -0.27828282
C        2.00146840      -1.10465889      -0.12250798     -58.99882959      -0.00361832       0.02608623       0.01712583       0.02009604
C        3.11144325      -1.13172850       0.94832167     -59.22765548       0.00173463       0.00852384       0.01328069      -0.10157500
C        2.08704026      -2.43378410      -0.87158167     -58.94656252      -0.02348390       0.02226078       0.01496780       0.34703669
C        4.51856776      -1.19639176       0.34973200     -59.21732354      -0.00696112       0.00185670       0.00066518       0.28650131
H        2.21455890      -0.30318366      -0.83512559     -12.72290985       0.00910131       0.02766051       0.02202542       0.09011299
H        3.04256156      -0.23526297       1.56618730     -13.07288553       0.01451878       0.00784263       0.01502151       0.06174260
H        2.97712838      -2.00245537       1.59179971     -13.03901639      -0.00425765       0.00851564       0.01139942       0.07216137
H        0.29782108      -1.75761438       0.78660025     -12.44255387      -0.05203626      -0.06963355      -0.09262969       0.17268224
H        0.16744750      -0.83918509      -1.84576347     -11.40275850      -0.00197363       0.16008651      -0.23839155       0.30830312
H        4.20554841       0.56928682      -0.72411477     -12.00390639       0.00247494       0.00623895       0.01336811       0.22142145
H        5.76348552      -0.16202333      -0.85189497     -12.24271141      -0.00773279      -0.00733853      -0.00750161       0.19164321
H        3.29224665      -3.37195465      -2.02878391     -10.93717310      -0.02772329       0.01588507       0.01411388       0.33835442
O        2.94736992       1.83619491      -1.43714079    -114.73175701      -0.00887717       0.00253564      -0.00554889      -0.59258327
H        2.26936508       1.64720140      -2.09081813     -11.81709661       0.01603374       0.01061389      -0.04027602       0.28983559
H        2.47273815       2.23278098      -0.69141886     -11.59061202      -0.04564745      -0.05133289       0.00996772       0.31367395
44
Properties=species:S:1:pos:R:3:energies:R:1:forces:R:3:charge:R:1 reactant=T mapped=T (centered)=T charge=0 spin=1 energy=-2153.619866086381 free_energy=-2153.619866086381 dipole="-0.6311591797445144 1.2132226240212511 -0.41210617537408284" pbc="F F F"
O       -2.85863495       0.50915460      -1.58082964    -113.30202654      -0.00677479      -0.00711491      -0.00276284      -0.46177638
O       -3.07251955       0.65431467       2.04673737    -113.31108060       0.00354508       0.01497985       0.00760742      -0.46105352
O       -1.62904117      -1.96673981      -0.67695834    -113.01869206       0.00095223      -0.00657837       0.00828357      -0.44495613
O       -5.32585858       2.15052078       1.67302027    -113.05748899       0.00480979       0.01045190      -0.00310074      -0.43530247
O       -0.11632632       0.18815858      -1.45238023    -113.32468208      -0.00236519      -0.00091953       0.00043601      -0.46395962
O        1.08365347       1.57350044       1.08856790    -113.25959542      -0.00432900       0.00171893      -0.00247218      -0.44675020
C       -2.93950781      -0.00846121      -0.27634035     -59.19186395      -0.00101440      -0.00521390       0.00402079       0.08596473
C       -3.37217522       1.07078376       0.73700942     -59.11674499       0.00107767       0.00194587       0.00172828       0.08487840
C       -1.67458656      -0.79619532       0.11530539     -59.05276886       0.00006606      -0.00403441       0.00389171       0.07511333
C       -4.88201990       1.33592021       0.61404624     -59.23562322       0.00118277       0.00181158       0.00147493       0.06050090
C       -0.30749080      -0.07300432      -0.07228044     -58.90434584      -0.00071457      -0.00395212       0.00108567       0.18150792
C       -0.22437731       1.28354045       0.66784101     -59.28645049      -0.00431414      -0.00285782      -0.00112436       0.05336852
H       -3.74671995      -0.75509132      -0.30715355     -12.90631114      -0.00057095      -0.00858939       0.00813420       0.05615695
H       -2.83598018       2.00973012       0.51740828     -13.23088945      -0.00110827       0.00277238      -0.00829534       0.02334662
H       -1.76205702      -1.10212970       1.16159341     -12.89902599       0.00087708      -0.00073708       0.00529894       0.07060204
H       -5.10889843       1.76886092      -0.36557706     -13.21084210       0.00290562      -0.00258255      -0.00107249       0.04020368
H       -5.42801240       0.39576843       0.72387784     -12.98385175      -0.00216552       0.00388793       0.00681633       0.06267101
H       -1.97463768       0.88825568      -1.71400111     -11.35885753       0.01006635      -0.01020463       0.00668598       0.31726253
H       -3.80014577       0.95901826       2.61169486     -11.23187582      -0.00130424       0.01254716       0.00347525       0.32255894
H       -0.51954658       2.09112909      -0.00336476     -13.02684021      -0.00663775      -0.00700871      -0.00644148       0.05923449
H       -0.88668293       1.24627065       1.53793949     -13.04909326      -0.00566622      -0.00245878      -0.00137444       0.05429796
H       -2.09080963      -1.78915948      -1.50690457     -11.44435921       0.01319491      -0.00425770       0.00053814       0.30680668
H        1.39341821       0.76821265       1.53190048     -11.23326462      -0.00059107       0.00396148      -0.00000428       0.32147824
H       -4.96061391       3.03672841       1.57048315     -11.52870806       0.00131985       0.01074633      -0.01528965       0.29469099
O        2.96238679      -2.35452836      -1.94484254    -112.54728757      -0.00149169       0.00755993      -0.01003249      -0.37201505
O        1.38848068      -3.34275371      -0.70557618    -112.12537337       0.00336881       0.00173432      -0.00560153      -0.39957807
O        5.14791101      -2.27595084       0.15556316    -112.42060613      -0.00727090      -0.00744569      -0.01525660      -0.44100217
N        0.71313375      -0.94818293       0.49651120     -80.95711455       0.00086888      -0.00264759      -0.00082055      -0.29491533
N        4.86263989      -0.20603187      -0.68786013     -80.91445251       0.00897893       0.00672701       0.01314637      -0.27756775
C        1.98236305      -1.05861744      -0.21124053     -58.96860363       0.00072117       0.00146959      -0.00224778       0.02310666
C        3.16385246      -1.05939603       0.78453833     -59.26980035       0.00006220      -0.00123219      -0.00173139      -0.10605224
C        2.05843767      -2.38075616      -0.96791525     -58.96114519       0.00158233       0.00428496      -0.00636926       0.35195472
C        4.49191503      -1.26168366       0.05544298     -59.22909045      -0.00056888      -0.00061593      -0.00284749       0.28665153
H        2.10445892      -0.23340809      -0.91827155     -12.76778598      -0.00146193       0.00430481       0.00071995       0.09002358
H        3.20148187      -0.10805739       1.31478296     -13.02730098      -0.00003484      -0.00306499       0.00198217       0.06681432
H        3.02875162      -1.86895945       1.50253717     -13.04365952      -0.00142994      -0.00389980      -0.00501031       0.07257578
H        0.34154388      -1.88896827       0.61490539     -12.29559082       0.00317055      -0.00427532      -0.00144462       0.18618509
H       -0.15778134      -0.66042705      -1.91679818     -11.41907884       0.00808582       0.00128715      -0.00483688       0.30955707
H        4.28497614       0.61916526      -0.78531502     -11.98332177       0.00343141       0.00329829       0.00626453       0.22549010
H        5.69586219      -0.28372168      -1.24610294     -12.28255872       0.00581004       0.00365217       0.00802380       0.18864973
H        3.08943155      -3.24036015      -2.32121495     -10.94937723      -0.00086819       0.00768668      -0.01003394       0.33868478
O        3.09423508       2.09019827      -0.78966948    -114.75283239      -0.01441384      -0.00910124      -0.00591031      -0.60109241
H        2.34281757       1.99253432      -0.17900109     -11.59064135      -0.02250086      -0.01455101       0.01963503       0.31736044
H        3.24267321       3.03081869      -0.89210940     -11.94896256       0.01151961       0.00651536       0.00483189       0.27832362
44
Properties=species:S:1:pos:R:3:energies:R:1:forces:R:3:charge:R:1 reactant=T mapped=T (centered)=T charge=0 spin=1 energy=-2153.729386759689 free_energy=-2153.729386759689 dipole="-0.278686219075497 0.5827190588142488 -0.23400457557363874" pbc="F F F"
O       -2.69165453       1.07341729      -1.40135483    -113.13631737       0.01010721       0.03591176       0.01038967      -0.45153370
O       -3.15956702       0.39580241       2.06551601    -113.27334108      -0.00414372      -0.01156159       0.00221001      -0.45934983
O       -1.65248689      -1.72923940      -0.97046951    -113.26246102      -0.00734913       0.01376474      -0.01620687      -0.46542335
O       -5.41550038       2.02690606       1.72651524    -113.04779118      -0.00405659      -0.00253003       0.00365178      -0.43784275
O        0.02153749       0.22035130      -1.47948565    -113.15799034       0.00627117      -0.00432935      -0.00357306      -0.45435760
O        1.05168921       1.76403732       0.98403011    -113.21608603      -0.00313011       0.00748136      -0.00513280      -0.44393630
C       -2.88078877       0.16818654      -0.34543430     -59.12726442       0.00332503       0.01217434      -0.00342335       0.09870517
C       -3.41467123       1.00915345       0.82578487     -59.12266334      -0.00286856      -0.00102471       0.00577021       0.09113473
C       -1.63890410      -0.68770145      -0.01179457     -58.99375249       0.00057857       0.00646046      -0.00630571       0.07996179
C       -4.92072688       1.25367627       0.65788120     -59.25478437      -0.00289339      -0.00297913       0.00419280       0.05933930
C       -0.26785169       0.03165433      -0.11974049     -58.96992546       0.00150047       0.00333742      -0.00391138       0.18291741
C       -0.24865950       1.40025377       0.59391686     -59.27501114      -0.00202160       0.00455130      -0.00670299       0.05412127
H       -3.64912102      -0.57472297      -0.62066899     -12.96886007       0.00567288       0.01146935      -0.01707206       0.04591445
H       -2.90792096       1.98732781       0.78180839     -13.07777124      -0.00585672       0.00211353       0.01526120       0.03632900
H       -1.77091695      -1.07537520       1.00575632     -13.09471191      -0.00130306       0.00412450      -0.00683678       0.04830799
H       -5.10912075       1.72471814      -0.31225757     -13.18664335      -0.00189283      -0.00312610       0.00379805       0.04238141
H       -5.45579834       0.30247482       0.70888469     -13.00045308      -0.00209334      -0.00351505       0.00367606       0.06171409
H       -2.14335728       0.65704312      -2.07657436     -11.31545855       0.00100425      -0.01963689      -0.01965839       0.31880178
H       -3.86521187       0.68412333       2.66381736     -11.27467857      -0.00098287      -0.01004644       0.00513209       0.31976025
H       -0.61472429       2.17069591      -0.08303090     -12.88905760      -0.00456760       0.00214630      -0.00827040       0.07674803
H       -0.88604339       1.32863126       1.48073969     -13.11285856      -0.00299664       0.00290773      -0.00740515       0.04639052
H       -0.94840372      -2.37385923      -0.78937233     -11.41397874       0.08050745      -0.04805824       0.05837713       0.32015950
H        1.41195107       0.98004718       1.42880638     -11.28415699      -0.00244721       0.00832093      -0.00394070       0.31686166
H       -5.05540429       2.91875659       1.65909190     -11.55431338      -0.00496496      -0.00228506       0.00157852       0.29426836
O        2.88834894      -2.54759973      -1.78767002    -112.40112437      -0.00330650      -0.00200629       0.00162130      -0.35278070
O        0.92140931      -3.08958283      -0.88270145    -112.64236809      -0.02612552       0.01627327      -0.01741560      -0.43970748
O        5.15885811      -2.34121450       0.12404425    -112.41312160      -0.00550807      -0.00870741      -0.00604622      -0.43865122
N        0.75411176      -0.79206008       0.55465034     -80.90470285       0.00123729       0.00611695       0.00207113      -0.29798646
N        4.85150541      -0.26382459      -0.69488023     -80.93466301       0.00647135      -0.00028157       0.00946792      -0.27809685
C        1.98004816      -1.04848554      -0.18018962     -59.00718204      -0.00019919       0.00196704       0.00036646       0.02372549
C        3.17433689      -1.14853140       0.78639851     -59.28047602      -0.00036656      -0.00260851      -0.00028293      -0.10338984
C        1.86736012      -2.33963195      -0.97861404     -58.85417847      -0.00970474       0.00603833      -0.00583636       0.35621104
C        4.49519168      -1.33085887       0.03748845     -59.22099054      -0.00097185      -0.00347619      -0.00020591       0.28712695
H        2.15188043      -0.22793729      -0.88362320     -12.58582007       0.00105545       0.00324540       0.00199105       0.10631781
H        3.23020918      -0.23148717       1.37352774     -13.01564366       0.00024730      -0.00301831       0.00062496       0.06796079
H        3.03682573      -1.99383977       1.46201576     -13.08667556      -0.00209635      -0.00316019      -0.00117518       0.06709037
H        0.36784168      -1.67062573       0.88467383     -12.54706396       0.00192224       0.00725758       0.01050337       0.15809817
H       -0.30675337      -0.56591541      -1.94923987     -11.42669646      -0.01156619      -0.00295083      -0.00094042       0.31002548
H        4.28182072       0.57078055      -0.76300812     -11.96032302       0.00561862      -0.00087939       0.00767060       0.22752053
H        5.69131812      -0.32227690      -1.24550334     -12.26651461       0.00502140      -0.00125277       0.00722006       0.18961991
H        2.83886824      -3.41541273      -2.22065412     -10.85315590      -0.01155131       0.00022696      -0.00478084       0.34244473
O        3.14620166       2.06660142      -0.80064732    -114.78885253      -0.00062883      -0.00631200      -0.00260878      -0.60488553
H        2.33704213       2.04406765      -0.25730320     -11.57508071      -0.00334442      -0.00626233      -0.00560634       0.31957184
H        3.34523115       2.99147623      -0.95113089     -11.95442299      -0.00160281      -0.00588087      -0.00223615       0.27841177
44
Properties=species:S:1:pos:R:3:energies:R:1:forces:R:3:charge:R:1 reactant=T mapped=T (centered)=T charge=0 spin=1 energy=-2153.7304631540264 free_energy=-2153.7304631540264 dipole="-0.2847522337962135 0.653910980027695 -0.1438081775135398" pbc="F F F"
O       -2.79643288       0.83338758      -1.46434989    -113.10115248      -0.00188608       0.00693555       0.00051244      -0.44714917
O       -3.04961772       0.62600949       2.07775667    -113.27171406      -0.00073364      -0.00778810       0.00081516      -0.45914334
O       -1.66294308      -1.84457482      -0.77250836    -113.28406130       0.00618045       0.00934080      -0.01399864      -0.46936649
O       -5.41751862       2.06778975       1.69322442    -113.04876595      -0.00030678      -0.00159761       0.00158420      -0.43758257
O       -0.03763550       0.10082074      -1.52395385    -113.13311502       0.00544220       0.01493945       0.00120821      -0.45582672
O        1.01265186       1.83889130       0.84830681    -113.22477906       0.00276924       0.00312509       0.00492512      -0.44572866
C       -2.91728415       0.07105355      -0.29245805     -59.11599503       0.00061155       0.00275419      -0.00170533       0.09929838
C       -3.42238342       1.04238385       0.78646794     -59.13022455      -0.00030445      -0.00184264       0.00216364       0.09135255
C       -1.63710963      -0.71339007       0.07624774     -58.98933466       0.00232378       0.00424744      -0.00535063       0.08140399
C       -4.94965422       1.17961408       0.70495937     -59.25193080      -0.00029528      -0.00114907       0.00115419       0.05943875
C       -0.28862490       0.02004891      -0.14647221     -58.97979120       0.00182214       0.00716353      -0.00048599       0.18401141
C       -0.27674527       1.44536253       0.44731038     -59.28045687       0.00232984       0.00585045       0.00326385       0.05272055
H       -3.67634264      -0.71714172      -0.43392883     -12.99366320       0.00187186       0.00187773      -0.00375269       0.04326702
H       -2.97985399       2.02860337       0.56857498     -13.06038248      -0.00023796      -0.00075542       0.00646567       0.03867942
H       -1.72028245      -1.00014854       1.13260677     -13.10019176       0.00193571      -0.00254902      -0.00697720       0.04633147
H       -5.23855914       1.49732054      -0.30211285     -13.20165158       0.00095399       0.00012820       0.00101910       0.04073505
H       -5.41617142       0.21725672       0.92943906     -12.99737589      -0.00123361      -0.00121197      -0.00047619       0.06183638
H       -2.42225547       0.27337035      -2.15473863     -11.33785223      -0.00641582       0.00823986      -0.00367071       0.31555395
H       -3.72789020       0.96522672       2.68132505     -11.27008370       0.00005265      -0.00877588       0.00228279       0.31995389
H       -0.61631433       2.15080536      -0.30978431     -12.89123158       0.00372603       0.00761961       0.00393003       0.07687461
H       -0.94089189       1.45873476       1.31590128     -13.08467564       0.00122921       0.00367235       0.00280864       0.04944890
H       -0.87815469      -2.40535393      -0.62973358     -11.40431456       0.00139620       0.00124686      -0.00056234       0.32200145
H        1.35522579       1.09409223       1.36748116     -11.29527692       0.00323055      -0.00116771      -0.00101270       0.31615976
H       -5.12721272       2.96066567       1.47403319     -11.54861895       0.00010269      -0.00164047       0.00141326       0.29464147
O        2.80390827      -2.24420257      -2.01705466    -112.40996774      -0.00298235      -0.00331083       0.00098128      -0.35347998
O        0.93702255      -2.96013911      -1.02670695    -112.62319733      -0.00121702      -0.00282199       0.00649767      -0.43851313
O        5.01435373      -2.52516257      -0.02103095    -112.42286607      -0.00024361       0.00035020      -0.00148256      -0.43966729
N        0.76587674      -0.73322211       0.56063886     -80.91508471       0.00025194       0.00371672      -0.00120008      -0.29700450
N        4.94135223      -0.34247171      -0.58163967     -80.93528787       0.00027870       0.00250326       0.00486678      -0.27709081
C        1.98822740      -0.96357179      -0.18878987     -58.98382433       0.00008858       0.00010233       0.00004023       0.02644602
C        3.15857524      -1.21523415       0.77721659     -59.28851862      -0.00069133      -0.00006365       0.00127467      -0.10279962
C        1.84626560      -2.16521202      -1.11293490     -58.82958314      -0.00002961      -0.00158619       0.00306579       0.35873318
C        4.46359245      -1.44598573       0.01520124     -59.22226140      -0.00088655       0.00318989       0.00120065       0.28648407
H        2.19987803      -0.08656070      -0.80563215     -12.61488599       0.00143093      -0.00149455      -0.00199106       0.10346503
H        3.27051376      -0.34889645       1.42898791     -13.01901329      -0.00208405      -0.00052192       0.00242658       0.06799822
H        2.95091431      -2.09608915       1.38656701     -13.08074112      -0.00029093      -0.00113975       0.00016262       0.06738943
H        0.41989578      -1.61921671       0.91588689     -12.55134148      -0.00224271       0.00522180       0.00011454       0.15646076
H       -0.41540187      -0.69357713      -1.93421856     -11.45110092      -0.01983578      -0.05270667      -0.00599234       0.30915973
H        4.43227816       0.53299452      -0.59312948     -11.96146591      -0.00015039       0.00277126       0.00488915       0.22673559
H        5.76395525      -0.42998321      -1.15442784     -12.25678800       0.00085972       0.00396124       0.00484574       0.19031160
H        2.73995651      -3.05966126      -2.54067313     -10.86096718      -0.00295369      -0.00424200       0.00198419       0.34223462
O        3.37720491       2.10753486      -0.55409883    -114.79096569       0.00187992      -0.00261890      -0.00252247      -0.60380225
H        2.47200777       2.09680728      -0.19410311     -11.57719477       0.00106620       0.00148600      -0.00479802       0.31907246
H        3.70162388       3.00102131      -0.43365365     -11.93876810       0.00318753      -0.00145944      -0.00991721       0.27895486
44
Properties=species:S:1:pos:R:3:energies:R:1:forces:R:3:charge:R:1 reactant=T mapped=T (centered)=T charge=0 spin=1 energy=-2153.6722196916257 free_energy=-2153.6722196916257 dipole="0.06305184042543016 1.3056415535075954 -0.11307865865650683" pbc="F F F"
O       -2.74884110       0.61384874      -1.49334195    -113.19657301      -0.00401145       0.00092564       0.00213560      -0.45744685
O       -3.02943665       0.80832500       2.05067867    -113.28123457      -0.00278346      -0.00497565       0.00298449      -0.46110217
O       -1.69985868      -2.00623152      -0.46269802    -112.99451162      -0.00268594      -0.00080905      -0.00136903      -0.45646763
O       -5.46003560       2.05203933       1.60072813    -113.04360356       0.00066855       0.00279244      -0.00081722      -0.43745065
O       -0.09911524      -0.07727734      -1.48946491    -113.15899161      -0.00630718       0.00447178      -0.00127128      -0.45735137
O        0.98173824       1.86247655       0.73076279    -113.38960604      -0.00009116      -0.00140960       0.00610579      -0.45563242
C       -2.91092110      -0.01604657      -0.24746602     -59.12325463      -0.00199320      -0.00193552       0.00092020       0.09463774
C       -3.43450203       1.05542620       0.72506147     -59.14074196      -0.00186774      -0.00340907       0.00248023       0.09060773
C       -1.64111676      -0.77241095       0.20711087     -59.06072722      -0.00070709      -0.00048551      -0.00077438       0.09050478
C       -4.96727833       1.12387495       0.66156480     -59.24782157      -0.00167659      -0.00092668       0.00125173       0.05939279
C       -0.30748443      -0.04506246      -0.09181756     -58.92890378      -0.00217335       0.00285176      -0.00158127       0.18329488
C       -0.32252611       1.39815727       0.45637749     -59.27617605      -0.00118261       0.00392248      -0.00063117       0.04396708
H       -3.67032380      -0.81094140      -0.32965914     -12.95762406      -0.00082892      -0.00318135      -0.00055104       0.04766207
H       -3.03372120       2.02878858       0.39511753     -13.10711412      -0.00007391      -0.00361572       0.00289715       0.03342270
H       -1.70872654      -0.91934776       1.29635060     -13.07318492       0.00188878      -0.00091273      -0.00012260       0.04329652
H       -5.28614387       1.36224657      -0.35808994     -13.21198133      -0.00036721      -0.00166656       0.00033041       0.03996292
H       -5.38653714       0.15862074       0.95514751     -12.99193238      -0.00448085       0.00032245       0.00278977       0.06272981
H       -2.28397291      -0.01504281      -2.06311243     -11.30961198       0.00144007       0.00548908       0.00177184       0.32414854
H       -3.74526302       1.13024452       2.62010094     -11.27592102      -0.00374163      -0.00667078       0.00279854       0.32011343
H       -0.76095747       2.07829349      -0.27518822     -13.03349943       0.00565996       0.00594845      -0.00349650       0.06138952
H       -0.91519322       1.41368650       1.37516394     -13.00874014      -0.00537465       0.00660486      -0.00309605       0.06051199
H       -0.81021577      -2.37434385      -0.60494966     -11.44006027      -0.00349513      -0.00419689       0.00145787       0.32588028
H        1.37178079       1.18951981       1.31010577     -11.24787518      -0.00445852      -0.00647541       0.00361387       0.31859513
H       -5.21557710       2.94170389       1.32134123     -11.56117806       0.00305118       0.00134706      -0.00397594       0.29370629
O        2.66354634      -2.08526265      -2.14101797    -112.48725399      -0.00378223       0.00040045      -0.00239302      -0.36112579
O        0.93600972      -2.95991183      -1.02983381    -112.39969230       0.00109852      -0.00348001       0.00475105      -0.41929055
O        5.01098733      -2.59735492      -0.07932384    -112.36830770      -0.00510736      -0.00268407      -0.00741695      -0.43313102
N        0.77959644      -0.73832729       0.62228430     -80.97654758      -0.00107409       0.00205857      -0.00297769      -0.29591616
N        4.91994628      -0.39999051      -0.56341997     -80.95110213       0.00080433       0.00298107       0.00423896      -0.27848979
C        1.98477707      -0.97578152      -0.15594232     -58.95014006      -0.00034218       0.00047962      -0.00152118       0.02850620
C        3.14842262      -1.33875237       0.78001434     -59.29754416      -0.00120668       0.00189286       0.00054077      -0.10209842
C        1.78845062      -2.11491448      -1.14834908     -58.84412389      -0.00023925      -0.00110108       0.00080271       0.36150125
C        4.44767684      -1.52823791      -0.00278546     -59.21048087      -0.00311454       0.00455246      -0.00059237       0.28610320
H        2.24263703      -0.07778101      -0.72048485     -12.75861513       0.00324414      -0.00118891      -0.00289884       0.08599701
H        3.27946301      -0.54013058       1.51095918     -13.03715077      -0.00197974       0.00306763      -0.00056467       0.06550755
H        2.92489962      -2.26743828       1.30685038     -13.05369356      -0.00072580       0.00247755       0.00198199       0.07061210
H        0.45369240      -1.62733653       0.99069240     -12.44583538      -0.00195223       0.00196371      -0.00359383       0.16677837
H        0.21821661       0.78040976      -1.79113449     -11.39350973       0.03755799      -0.01196681       0.00562358       0.30998169
H        4.39262340       0.46303411      -0.58715298     -12.01211219       0.00092199       0.00462779       0.00278375       0.21935989
H        5.73169414      -0.47535605      -1.15369294     -12.23911420       0.00067795       0.00271495       0.00359823       0.19130975
H        2.56140062      -2.85729459      -2.72117704     -10.88359203      -0.00296349       0.00036905      -0.00231762       0.34165586
O        3.34552103       2.09428845      -0.67507297    -114.84478030       0.00340408      -0.00162251      -0.00370359      -0.60185937
H        2.46242891       2.15095913      -0.27124929     -11.58191909       0.00302633      -0.00090915       0.00566782       0.31456375
H        3.79223901       2.91463158      -0.45998848     -11.87583615       0.00734432       0.00136134      -0.01586012       0.28166138
44
Properties=species:S:1:pos:R:3:energies:R:1:forces:R:3:charge:R:1 reactant=T mapped=T (centered)=T charge=0 spin=1 energy=-2153.6253562941574 free_energy=-2153.6253562941574 dipole="0.20835381683586982 1.4313327710820298 -0.08538429937014537" pbc="F F F"
O       -2.89806483       0.31668143      -1.48929149    -113.16904401       0.00152785       0.00245862       0.00124253      -0.45705825
O       -2.93147405       1.05883358       1.98261087    -113.27147016      -0.00235670      -0.00131101       0.00212756      -0.46122035
O       -1.66857703      -2.11788216      -0.02491266    -112.99329703       0.00144592       0.00080943       0.00151182      -0.45744517
O       -5.47495962       2.06669842       1.58335879    -113.04123334      -0.00025548       0.00221810      -0.00343459      -0.43777129
O       -0.24183431      -0.35757857      -1.56763268    -113.18029261       0.00072673       0.00393613       0.00097158      -0.45905348
O        0.96252976       1.94795354       0.17105159    -113.40415790      -0.00216480       0.00347393       0.00364236      -0.46307170
C       -2.95656163      -0.13410987      -0.15890982     -59.12587377       0.00118711       0.00088414       0.00069140       0.09254451
C       -3.47008329       1.05155569       0.68120162     -59.13467024       0.00039532       0.00021314       0.00102320       0.09042579
C       -1.63221314      -0.75849769       0.33959488     -59.08977798       0.00111312       0.00095668       0.00086700       0.08935851
C       -5.00277856       1.01938450       0.76659271     -59.25024866       0.00026831       0.00148781      -0.00224259       0.05934916
C       -0.34884552      -0.07760539      -0.18210681     -58.90147954       0.00062743       0.00179739       0.00122778       0.18443878
C       -0.35131219       1.44415281       0.08036854     -59.29629359      -0.00191672       0.00129232       0.00418839       0.04648382
H       -3.68250112      -0.96009554      -0.07857299     -12.96620312       0.00162844       0.00041964      -0.00036685       0.04726712
H       -3.16933873       1.97511007       0.15795140     -13.09311098       0.00203595       0.00052361       0.00244683       0.03541014
H       -1.62657744      -0.67702366       1.43682812     -12.97364767       0.00124789       0.00104850       0.00087825       0.05309608
H       -5.43370259       1.05725909      -0.23890760     -13.21910224       0.00243812       0.00238412      -0.00307011       0.03926663
H       -5.31840167       0.09726035       1.26080241     -12.99205764      -0.00205853       0.00184213      -0.00289712       0.06275239
H       -2.40709874      -0.34653523      -1.99357196     -11.34934616       0.00349805       0.00425534       0.00083688       0.32166811
H       -3.61947353       1.42198931       2.56134899     -11.28438829      -0.00346481      -0.00169012       0.00106634       0.31974316
H       -0.84387014       1.96563999      -0.74188177     -13.03460759      -0.00446490       0.00237407       0.00592771       0.06158450
H       -0.89034463       1.63758129       1.01239366     -13.04795356      -0.00040855      -0.00196215       0.00620713       0.05599290
H       -0.81855907      -2.41173551      -0.39434782     -11.43658313       0.00029258       0.00178564      -0.00225808       0.32702196
H        1.39386166       1.39523014       0.84081922     -11.26997565      -0.00064360       0.00250090       0.00940455       0.31734637
H       -5.31873209       2.90665173       1.13677913     -11.56575867       0.00156765       0.00210252      -0.00305533       0.29371062
O        2.32828522      -1.87906022      -2.38609090    -112.53500687       0.00722457      -0.00293599       0.00303043      -0.36653995
O        0.92245734      -2.95144275      -1.01949341    -112.37740650      -0.00199549       0.00204739      -0.00224003      -0.42022889
O        4.76772457      -2.65405605      -0.52930995    -112.36571962       0.00502425      -0.00402383      -0.00247772      -0.43299283
N        0.78952875      -0.63126331       0.56814936     -81.01411479       0.00131046       0.00126524       0.00003843      -0.29861993
N        5.01278256      -0.41669406      -0.45146807     -80.93653652      -0.00071620      -0.00019634      -0.00344403      -0.27675417
C        1.96381506      -0.92277303      -0.24045351     -58.87551627       0.00099263       0.00050973      -0.00033670       0.03412622
C        3.11330060      -1.37868070       0.66921629     -59.31316067       0.00180681      -0.00090200      -0.00159926      -0.10214426
C        1.66800407      -2.03170129      -1.24630082     -58.85901309       0.00138630       0.00060910      -0.00006740       0.36349716
C        4.38029104      -1.56787442      -0.16088108     -59.21719385       0.00065673       0.00586383      -0.00034432       0.28505242
H        2.26847547      -0.02606197      -0.78839627     -12.93624299       0.00178757       0.00025473      -0.00034327       0.06822104
H        3.27396332      -0.62540660       1.44017798     -13.02958676       0.00233262      -0.00184657      -0.00057852       0.06730779
H        2.85278550      -2.32874306       1.13753259     -13.03577942       0.00230512      -0.00163297      -0.00271032       0.07276891
H        0.51072119      -1.48763167       1.03961884     -12.38524569       0.00109017       0.00153197       0.00038115       0.17169706
H        0.21928233       0.36846763      -2.00222089     -11.41284980       0.00485552       0.00220482       0.00257739       0.30945749
H        4.65525942       0.48805875      -0.18055261     -12.00424815      -0.00089982       0.00054727      -0.00231031       0.21969925
H        5.83166290      -0.45620187      -1.03500526     -12.23079550       0.00095222       0.00185529      -0.00229889       0.19180923
H        2.17402315      -2.63345956      -2.97745869     -10.91129847       0.00985021      -0.00399062       0.00385339       0.34087095
O        3.86565968       2.22734437       0.23364838    -114.74685282      -0.01310285      -0.01373237       0.00025997      -0.58619811
H        2.98408597       2.48491995      -0.05817870     -11.57470513      -0.01678687      -0.02442813       0.00266642       0.30969055
H        4.16680436       2.90134157       0.84589940     -11.77350985      -0.01034032       0.00319856      -0.02099308       0.28743977
44
Properties=species:S:1:pos:R:3:energies:R:1:forces:R:3:charge:R:1 reactant=T mapped=T (centered)=T charge=0 spin=1 energy=-2153.5501426354413 free_energy=-2153.5501426354413 dipole="-0.193863794601267 1.8720369688466174 -0.33334868357901065" pbc="F F F"
O       -2.84317561       0.39070739      -1.43271409    -113.22339814      -0.00099808      -0.00249795       0.00067945      -0.46181876
O       -2.85116330       1.09949847       2.04417938    -113.26979499      -0.00352423       0.00351567      -0.00074390      -0.45941940
O       -1.58670368      -2.09113448       0.20500647    -112.96481533       0.00923492       0.00282339       0.02178321      -0.45135404
O       -5.41474538       2.09138287       1.65836220    -113.04472100      -0.00257018      -0.00312364       0.00055750      -0.43747714
O       -0.25045063      -0.43282011      -1.58971237    -113.25571707      -0.00635224      -0.00146760       0.00039572      -0.46605135
O        0.94419286       1.91733778      -0.67276299    -113.33038337       0.00231313       0.00100470       0.00654586      -0.45202807
C       -2.88701471      -0.08686298      -0.10864441     -59.11046323      -0.00046926      -0.00184470       0.00113462       0.08833332
C       -3.40493616       1.08845379       0.75150711     -59.11207590      -0.00297411      -0.00106692      -0.00094489       0.09200632
C       -1.55827677      -0.69788371       0.40289175     -59.15516074       0.00072058       0.00397978       0.00556282       0.08289479
C       -4.93658736       1.04464274       0.84457427     -59.25298599      -0.00282850      -0.00269434      -0.00017233       0.05919542
C       -0.27389710      -0.10194012      -0.20808840     -58.93311260      -0.00059611       0.00200327       0.00047016       0.19490010
C       -0.24498292       1.42745241      -0.06436693     -59.09083312      -0.00008003       0.00190818      -0.00100261       0.05039402
H       -3.61034453      -0.91524739      -0.03849201     -12.97726723       0.00067189      -0.00298589       0.00079052       0.04755499
H       -3.12284340       2.02241997       0.23470395     -13.13054646      -0.00409893      -0.00209059      -0.00361198       0.02952958
H       -1.52454629      -0.51884151       1.48525708     -12.84431262      -0.00016587       0.01172938       0.00392471       0.06845434
H       -5.37023929       1.07621886      -0.16022633     -13.21533961      -0.00365851      -0.00204159       0.00025834       0.03931166
H       -5.24301904       0.12167568       1.34235850     -12.98747673      -0.00234959      -0.00297011      -0.00012488       0.06345009
H       -2.30718703      -0.22813981      -1.94865036     -11.34572899       0.00674615       0.00261541       0.00246552       0.32236215
H       -3.54521418       1.42031476       2.63978838     -11.26442996      -0.00534185       0.00109707      -0.00149591       0.32042335
H       -1.11858099       1.83556012      -0.57623701     -13.07666153       0.00370788       0.00303764      -0.00503448       0.05309052
H       -0.27809668       1.68341574       0.99838598     -13.10262992      -0.00626740       0.00182206      -0.00202940       0.05118466
H       -0.90425369      -2.36672262      -0.42861664     -11.40239520      -0.02346650       0.00511431      -0.01002508       0.32759444
H        0.85116120       2.86668260      -0.80364019     -11.43826561       0.00478821      -0.00652254       0.00971050       0.30101367
H       -5.26977506       2.93092791       1.20725695     -11.56793099      -0.00101568      -0.00257302       0.00193237       0.29277225
O        2.35073449      -1.92980358      -2.44751545    -112.54393210       0.00664802      -0.00203106       0.00049276      -0.37056997
O        0.93116815      -3.00149439      -1.09632337    -112.35264427      -0.00039692      -0.00045831      -0.00514755      -0.42075541
O        4.90978809      -2.56517631      -0.62314574    -112.37366256       0.00083028      -0.00390437      -0.00210440      -0.43590595
N        0.85087246      -0.67500040       0.52028906     -80.90736540      -0.00026355       0.00070238      -0.00231758      -0.28886314
N        5.02836032      -0.33996906      -0.28119073     -80.92220260       0.00152879      -0.00231847      -0.00074783      -0.27844482
C        2.01236187      -0.99858590      -0.28739278     -58.91459246      -0.00046589       0.00012329      -0.00262408       0.03289704
C        3.14015156      -1.50202441       0.62586699     -59.32763935      -0.00029497       0.00009990      -0.00223933      -0.10463506
C        1.69183747      -2.09025720      -1.30429405     -58.88201173       0.00130485      -0.00083324      -0.00201847       0.36049689
C        4.45018123      -1.54819840      -0.15253661     -59.22822522      -0.00066103       0.00194504      -0.00014624       0.28573936
H        2.34495819      -0.10618745      -0.82382006     -12.90903561       0.00039959      -0.00037760      -0.00316598       0.07153175
H        3.22589558      -0.81587700       1.46739325     -12.89317280       0.00018412       0.00066204      -0.00257472       0.08197688
H        2.89966278      -2.50163474       0.98958003     -13.06182454      -0.00072351       0.00037581      -0.00145117       0.07093194
H        0.55281597      -1.52385127       0.99460847     -12.29172091      -0.00206208      -0.00023971      -0.00494343       0.17882325
H        0.33161145       0.20018840      -2.02933262     -11.36883088      -0.00353180      -0.00665053      -0.00330028       0.31581662
H        4.61454092       0.48877109       0.12134845     -11.99688999       0.00201461      -0.00078286      -0.00228295       0.22201097
H        5.88516821      -0.26241525      -0.80245018     -12.28465312       0.00305840      -0.00275475       0.00097360       0.18798391
H        2.19466222      -2.68031233      -3.04305325     -10.96630639       0.01067558      -0.00352107       0.00113371       0.33756149
O        3.40593269       1.84899074       0.79810977    -114.74778862       0.00835984       0.00536462      -0.00860502      -0.59501444
H        2.52137718       1.68697853       0.43830870     -11.57188870       0.00781515       0.01319911      -0.01058179       0.31398411
H        3.40859892       2.73876059       1.15342882     -11.90930906       0.00415480      -0.00737219       0.02062489       0.27811766
44
Properties=species:S:1:pos:R:3:energies:R:1:forces:R:3:charge:R:1 reactant=T mapped=T (centered)=T charge=0 spin=1 energy=-2153.7203385986386 free_energy=-2153.7203385986386 dipole="-0.20618104477019333 0.9999793160332309 0.07468424167882334" pbc="F F F"
O       -2.88214720       0.20571882      -1.30358659    -113.27331640      -0.00003264       0.00195463       0.00007750      -0.46614727
O       -2.91574709       1.16119634       2.16194541    -113.25833506      -0.00137292      -0.00340434       0.00028373      -0.45949913
O       -1.33272665      -1.92801411       0.73207046    -112.96123900       0.00158240      -0.00344619      -0.00375871      -0.43955359
O       -5.35864679       2.25051318       1.52426728    -113.05010236       0.00210468       0.00416874      -0.00506348      -0.43757895
O       -0.32104465      -0.62381392      -1.59245200    -113.36589427       0.00073797       0.00068759       0.00298981      -0.46800230
O        0.99456184       1.89660093      -1.11440733    -113.28995646      -0.00625974       0.00232156      -0.00561076      -0.45998287
C       -2.79502900      -0.09400167       0.06778151     -59.12636935      -0.00039104      -0.00236910      -0.00066209       0.08779727
C       -3.31964533       1.15089354       0.81468226     -59.10533067      -0.00021485      -0.00282927      -0.00001310       0.09223460
C       -1.39671928      -0.53395979       0.56762535     -59.18360786      -0.00054239      -0.00237901       0.00074864       0.07779495
C       -4.85186597       1.20198333       0.73113608     -59.24558038      -0.00009143       0.00030213      -0.00144422       0.06045655
C       -0.19705920      -0.06867560      -0.29033478     -58.81948105      -0.00041270       0.00165390       0.00286790       0.18140831
C       -0.14712270       1.46810247      -0.41800481     -59.32195554      -0.00130081       0.00206009       0.00188090       0.05150934
H       -3.45877530      -0.94167057       0.30774657     -13.00166974      -0.00017287      -0.00351827      -0.00361272       0.04491865
H       -2.90873555       2.04194657       0.31090650     -13.15718923       0.00167601      -0.00367588      -0.00013685       0.02985678
H       -1.27575392      -0.12109590       1.57472033     -12.79504480      -0.00335603      -0.00612828       0.00299487       0.07675308
H       -5.16327368       1.28595703      -0.31449702     -13.18670036       0.00096027      -0.00104219      -0.00179942       0.04307818
H       -5.26804294       0.28627634       1.15829436     -12.99682100      -0.00322385       0.00260175       0.00075895       0.06176133
H       -2.26332919      -0.37015548      -1.77764647     -11.34587322      -0.00650218      -0.00190620      -0.00321685       0.32171480
H       -3.66781978       1.49648401       2.67361580     -11.27301051      -0.00056095      -0.00037359      -0.00057218       0.32064356
H       -1.01022422       1.78032049      -1.01201311     -12.95452521      -0.00403735       0.00161757       0.00570855       0.06678093
H       -0.21815886       1.91757403       0.57686041     -13.27471897       0.00357058       0.00371235       0.00178989       0.03245205
H       -1.15179577      -2.35172161      -0.11978687     -11.40721493       0.00969258       0.00026775      -0.00528009       0.31817643
H        1.73268520       1.95758775      -0.48373869     -11.29020856       0.00935165      -0.01421571      -0.00221413       0.32375627
H       -5.10975312       3.09349150       1.12850134     -11.56187212       0.00176391       0.00248333      -0.00892011       0.29380590
O        2.09642475      -2.04527387      -2.62124690    -112.57988254      -0.00311701      -0.00147791       0.00360114      -0.37297752
O        0.97628212      -3.12056827      -1.01248535    -112.29548070      -0.00740491       0.00260492       0.00365855      -0.41407973
O        5.28621318      -2.07670685      -0.80302078    -112.29346498      -0.00138339       0.00702325      -0.00871122      -0.42248048
N        1.00326697      -0.57089674       0.39650566     -81.22955664       0.00066222       0.00313571       0.00344222      -0.30594374
N        4.89082597       0.07972437      -0.27589323     -80.92305662      -0.00033049       0.00418767       0.00648695      -0.27548812
C        2.07871727      -1.03172612      -0.48016806     -58.85306401      -0.00144761       0.00044240       0.00181809       0.03023115
C        3.25206368      -1.53777853       0.38143192     -59.32749825       0.00021765      -0.00044352      -0.00041282      -0.10567913
C        1.63112516      -2.18189924      -1.38070738     -58.88289754      -0.00506465       0.00023422       0.00303159       0.36231725
C        4.58456495      -1.23406264      -0.29499294     -59.18382430      -0.00067683       0.00426170      -0.00148114       0.28577972
H        2.40110863      -0.20272417      -1.11773892     -12.91660298      -0.00150254      -0.00104621      -0.00039553       0.07199177
H        3.22817937      -1.03801463       1.34996195     -12.93957499       0.00052759      -0.00324762       0.00141932       0.07386208
H        3.16412363      -2.61292253       0.54143580     -13.03104858       0.00235726      -0.00147264      -0.00358296       0.07464712
H        0.71291260      -1.36995633       0.96378015     -12.20635580       0.00072765       0.00349662       0.00415809       0.18888278
H        0.15504663      -0.03764818      -2.19839608     -11.26670830      -0.00366737       0.00312606       0.00164722       0.32398729
H        4.30320084       0.75596740       0.18601081     -12.05131775      -0.00297570       0.00235131       0.00677543       0.21024740
H        5.74971207       0.38538961      -0.70114107     -12.21924203      -0.00452226       0.00844862       0.00028971       0.19276160
H        1.87210377      -2.81817280      -3.16338973     -10.96780523      -0.00454896      -0.00086469       0.00311993       0.33585716
O        2.57981826       1.58835294       1.19549499    -114.97837274       0.00356029      -0.00108004      -0.01057286      -0.60568570
H        1.98994376       0.80757755       1.16369319     -11.49184986       0.00223353      -0.00464624       0.00813970       0.31345019
H        2.33053551       2.09980135       1.96717897     -11.83671771       0.02338725      -0.00357697      -0.00022743       0.28418400
44
Properties=species:S:1:pos:R:3:energies:R:1:forces:R:3:charge:R:1 reactant=T mapped=T (centered)=T charge=0 spin=1 energy=-2153.7021252794148 free_energy=-2153.7021252794148 dipole="-0.4850912658394511 0.7113881134889986 0.1905877995252889" pbc="F F F"
O       -2.95945192       0.06575614      -1.30947914    -113.26014737       0.00096221      -0.00253130      -0.00036940      -0.46643263
O       -2.48565785       1.47613244       1.93853213    -113.33054414      -0.00294473      -0.00103426       0.00009392      -0.46229153
O       -1.41210055      -2.01155735       0.66810981    -112.97160948      -0.00083815      -0.00098863      -0.00027933      -0.43808959
O       -5.03239216       2.55619520       1.56151680    -113.06087565       0.00258409       0.00040315       0.00056026      -0.43810768
O       -0.41368643      -0.82446255      -1.65409958    -113.41812160       0.00450342       0.00126209       0.00152624      -0.47193062
O        1.06467584       1.72456334      -1.17278280    -113.22062515       0.00162801       0.00535485       0.01320561      -0.45175662
C       -2.79346210      -0.09534505       0.07882510     -59.15226058       0.00115980      -0.00036831      -0.00032133       0.08710525
C       -3.16511755       1.25937133       0.72398793     -59.09560909       0.00011359      -0.00003217      -0.00182673       0.08942358
C       -1.40675971      -0.61438131       0.52158207     -59.17709611       0.00076993      -0.00092058       0.00074359       0.07912122
C       -4.68003395       1.33206379       0.95967176     -59.25479233      -0.00012020       0.00156111      -0.00353156       0.05976515
C       -0.22020307      -0.20830418      -0.38433776     -58.80271869       0.00219149      -0.00161187       0.00318452       0.18109649
C       -0.13626213       1.32238701      -0.56412982     -59.35653772       0.00029888      -0.00159259       0.00524410       0.04846729
H       -3.50480988      -0.85600228       0.44329679     -12.99175751       0.00189296       0.00017148       0.00177392       0.04506317
H       -2.88580367       2.05062634       0.00841158     -13.10189136       0.00198507       0.00065332      -0.00023106       0.03496831
H       -1.22405204      -0.21879812       1.52549120     -12.77891086      -0.00103491      -0.00029522       0.00074808       0.07843181
H       -5.20917630       1.16971673       0.01541286     -13.19997314      -0.00027323       0.00497904      -0.00395830       0.04138219
H       -4.97129672       0.55853273       1.67492304     -12.99379421      -0.00124648      -0.00001488      -0.00590772       0.06197468
H       -2.31730091      -0.50224822      -1.76186703     -11.35052363      -0.00580838      -0.00960647      -0.00040837       0.32162411
H       -3.08403169       1.99537659       2.49670679     -11.25974645      -0.00384904       0.00101258      -0.00258703       0.32036439
H       -0.94564559       1.62532715      -1.23444684     -12.95933487       0.00389324      -0.00520191       0.00582445       0.06530031
H       -0.27957961       1.80453900       0.40629506     -13.14353371      -0.01240306      -0.00289813      -0.00068171       0.04691539
H       -1.34782066      -2.42567077      -0.20379679     -11.40871973       0.01253991       0.00058146       0.00029631       0.31534843
H        1.73018992       1.83987019      -0.47996315     -11.27433032      -0.00113421       0.00442077       0.01635961       0.32324221
H       -4.91615140       3.26596553       0.91970021     -11.55038130       0.00392051       0.00226682       0.00294341       0.29445542
O        2.00367825      -2.17888476      -2.73203394    -112.56436558       0.00280185       0.00047842      -0.00070794      -0.37199221
O        1.10411736      -3.30237187      -1.02238727    -112.27112304      -0.00548793       0.00469782      -0.00281932      -0.41150255
O        5.39215567      -1.33575382      -0.95627949    -112.33618331       0.00068171      -0.00753937       0.00421187      -0.42856027
N        0.98143046      -0.72093130       0.28507344     -81.19709591       0.00156095      -0.00152398       0.00345350      -0.30014548
N        4.63918548       0.46843029       0.16458453     -80.98493824      -0.00110009       0.00000704      -0.01106222      -0.28378758
C        2.07189919      -1.12699137      -0.60362498     -58.83728535      -0.00011722       0.00109198       0.00065740       0.02963024
C        3.30501915      -1.52931627       0.23639982     -59.29412525      -0.00083634      -0.00189529      -0.00032862      -0.10430408
C        1.65755485      -2.32657915      -1.45383633     -58.87643782      -0.00171764       0.00371257      -0.00201291       0.36046671
C        4.55848022      -0.80818819      -0.25614439     -59.19989532      -0.00022597      -0.00338772      -0.00101424       0.28439391
H        2.31890312      -0.29712725      -1.27206497     -12.91595155      -0.00012342       0.00446618       0.00466469       0.07507127
H        3.12767055      -1.27442137       1.28087025     -12.98130324      -0.00254124      -0.00365739      -0.00008630       0.07066756
H        3.47370010      -2.60435560       0.16804211     -13.04512283      -0.00090445      -0.00184223      -0.00249967       0.07245346
H        0.70091237      -1.54984620       0.81430756     -12.20236193       0.00488819      -0.00193468       0.00470621       0.18901437
H        0.09134206      -0.32017520      -2.30615577     -11.29943488      -0.00036029       0.00787939       0.00294587       0.32143667
H        3.90931403       0.90205571       0.71499452     -12.00504013      -0.00146279       0.00531012      -0.01638018       0.21870775
H        5.41669888       1.02868609      -0.14191090     -12.26163379       0.00240477      -0.00484843      -0.01079811       0.18967947
H        1.78524952      -2.97300869      -3.24536844     -10.97210504       0.00454374      -0.00169180       0.00180523       0.33492101
O        2.25343919       1.42121395       1.48887597    -114.96716033       0.00900506      -0.00755331       0.00257899      -0.60727668
H        1.72943148       0.62695480       1.24780210     -11.53237159      -0.00078232       0.00036838      -0.00185285       0.31147832
H        2.07574821       1.61095651       2.41129496     -11.84435513      -0.01901731       0.01229196      -0.00786286       0.28420736
44
Properties=species:S:1:pos:R:3:energies:R:1:forces:R:3:charge:R:1 reactant=T mapped=T (centered)=T charge=0 spin=1 energy=-2153.7006794399445 free_energy=-2153.7006794399445 dipole="-0.5539850004196049 0.7236452574442525 0.1934645128801569" pbc="F F F"
O       -3.00117128      -0.05787806      -1.31449674    -113.24992463      -0.00139987      -0.00090499       0.00155180      -0.46782708
O       -2.34410374       1.60675466       1.77091770    -113.38033087      -0.00324742      -0.00361119       0.00384578      -0.46526080
O       -1.42586627      -2.04231164       0.64885017    -112.97537126      -0.00005171      -0.00226915      -0.00135927      -0.43780580
O       -4.92965402       2.62907628       1.55045686    -113.06700305       0.00241253       0.00054049      -0.00011957      -0.43828836
O       -0.41934920      -0.82356880      -1.66243542    -113.43585537       0.00039256       0.00114672       0.00172679      -0.47327414
O        1.12414822       1.72201004      -1.02469766    -113.25056224      -0.00479413       0.00239063       0.00264951      -0.45524357
C       -2.79834267      -0.11894514       0.07704495     -59.17202219      -0.00044638      -0.00169964       0.00135548       0.08686799
C       -3.13128376       1.28092314       0.64723158     -59.07957982       0.00038952      -0.00149135       0.00088723       0.08757250
C       -1.41503305      -0.64413973       0.51646285     -59.17542100      -0.00053059      -0.00225365       0.00120109       0.08105755
C       -4.61604416       1.35800317       1.02921388     -59.25340858      -0.00062714       0.00147024      -0.00416892       0.05949170
C       -0.22121578      -0.23236670      -0.37904277     -58.79596010      -0.00063994       0.00008918       0.00223589       0.17998761
C       -0.11918968       1.30212874      -0.52615921     -59.36715897      -0.00422816       0.00029033       0.00238340       0.04833061
H       -3.51516009      -0.83984870       0.50496396     -12.96903176      -0.00063508      -0.00118418       0.00189812       0.04711378
H       -2.93852502       2.01410074      -0.15383489     -13.09825249       0.00446193      -0.00129207       0.00211711       0.03570484
H       -1.23321382      -0.25841975       1.52442313     -12.79982474      -0.00215708      -0.00377662       0.00201231       0.07556884
H       -5.23677154       1.10266245       0.16486988     -13.20783119       0.00153818       0.00757034      -0.00729982       0.04076864
H       -4.81481310       0.65087438       1.83877521     -12.99165918      -0.00576767      -0.00125787      -0.00794043       0.06209939
H       -2.27625352      -0.53146004      -1.75153912     -11.35561533      -0.00414253      -0.00326077       0.00014786       0.32291167
H       -2.88764835       2.19386113       2.31843902     -11.25336966      -0.00506006      -0.00441219       0.00304405       0.32046895
H       -0.34353816       1.76594435       0.43780285     -13.10647135      -0.00708541       0.00137834       0.00120607       0.05058592
H       -0.87251170       1.62009726      -1.25233642     -13.00203507      -0.00397428      -0.00263167       0.00082553       0.06053037
H       -1.37909564      -2.44679047      -0.22861457     -11.39595640       0.00188884      -0.00079647      -0.00121266       0.31619075
H        1.73982935       1.78314742      -0.27753474     -11.26379260      -0.00530727       0.00772597       0.00258992       0.32440535
H       -4.91010743       3.27493353       0.83518866     -11.54603266       0.00662767       0.00321544       0.00252899       0.29469466
O        2.03518042      -2.16767572      -2.75786948    -112.56921549       0.00040803       0.00009643       0.00072039      -0.37230988
O        1.11240358      -3.31621477      -1.07735204    -112.26696431       0.00051922       0.00268943       0.00222756      -0.41086880
O        5.38724908      -1.23954315      -0.98902844    -112.32621122       0.00178277      -0.00495619       0.00144423      -0.42744660
N        0.97049910      -0.77282535       0.28199347     -81.17367105       0.00077785       0.00128037       0.00105543      -0.29784827
N        4.55314574       0.52508168       0.13639172     -80.96262088       0.00534707      -0.00245522       0.00031925      -0.28016374
C        2.06457273      -1.14226280      -0.61654226     -58.84283688       0.00069490       0.00229869       0.00012370       0.02884649
C        3.31318316      -1.53211377       0.20591638     -59.29938120       0.00040143       0.00039635      -0.00003611      -0.10451653
C        1.66967543      -2.33333938      -1.48711430     -58.87557682       0.00021924       0.00164586       0.00096167       0.35979546
C        4.53409659      -0.75519732      -0.28139791     -59.19489058       0.00212589      -0.00215712       0.00080420       0.28470821
H        2.29217580      -0.29428996      -1.26888227     -12.89253946       0.00142714       0.00239213       0.00036656       0.07734673
H        3.13522692      -1.31002119       1.25762186     -12.96491339       0.00063814       0.00010390      -0.00001303       0.07288116
H        3.51624344      -2.59873856       0.10673130     -13.04975861      -0.00151814       0.00011747      -0.00047055       0.07201730
H        0.68582595      -1.62043274       0.77876938     -12.20862601       0.00227052      -0.00014943      -0.00034872       0.18882188
H        0.10465752      -0.32624757      -2.30409492     -11.31448523      -0.00030772       0.00260033       0.00235103       0.31991675
H        3.84155253       0.90592740       0.74257306     -12.00031803       0.00163811       0.00189432      -0.00676369       0.21840493
H        5.31030688       1.11813404      -0.15887527     -12.24525851       0.00563222      -0.00379581      -0.00160166       0.19095632
H        1.83369526      -2.95779338      -3.28421942     -10.97149921       0.00050925      -0.00082808       0.00204949       0.33491693
O        2.16345458       1.32992661       1.62328243    -114.97400713       0.00491156       0.00129372      -0.00291256      -0.60825116
H        1.66858522       0.52419232       1.36197348     -11.54001413       0.00445296       0.00316056      -0.00801629       0.31092638
H        1.77318451       1.65464537       2.43617306     -11.83542079       0.00045303      -0.00060357      -0.00436722       0.28521506
44
Properties=species:S:1:pos:R:3:energies:R:1:forces:R:3:charge:R:1 product=T mapped+aligned=T onto=T reactant=T charge=0 spin=1 energy=-2153.638361830694 free_energy=-2153.638361830694 dipole="0.05029272991032703 0.9468438255621475 0.3187221066753112" pbc="F F F"
O       -3.05753723       0.11570132      -1.33621699    -113.16414319       0.01948053       0.01837282      -0.00345186      -0.45358854
O       -2.63234175       1.16480097       2.07575850    -113.28752414      -0.00098363      -0.01241417      -0.01793034      -0.46054958
O       -1.61597583      -2.11086479      -0.02833604    -112.99483811      -0.00672403       0.00094339       0.02719566      -0.45625667
O       -5.07261534       2.48357081       1.62296602    -113.05008974       0.01916695      -0.00946479      -0.00174555      -0.43865273
O       -0.23336973      -0.56486570      -1.71078802    -113.13761424      -0.02564381      -0.00949225       0.00587913      -0.45420881
O        0.82941084       1.94443878      -1.04331393    -113.28571177       0.01197808      -0.03658077      -0.00912133      -0.46060314
C       -2.87991129      -0.13969723       0.03318563     -59.13036249       0.01246629       0.00843473      -0.00683273       0.09540531
C       -3.21679351       1.15456343       0.79419369     -59.14146063       0.00148900       0.00295625      -0.01761147       0.09011434
C       -1.49493362      -0.75548719       0.33497334     -59.06200244       0.00086747       0.00712373       0.00704796       0.09008087
C       -4.74148950       1.31942691       0.89924195     -59.24012101       0.00266951      -0.01027570      -0.00816161       0.05947327
C       -0.26786554      -0.12498831      -0.37307447     -58.89877766      -0.00939371      -0.00347906       0.00214958       0.18237815
C       -0.29039820       1.41686690      -0.37606024     -59.30071559      -0.00178899      -0.00442904      -0.00584400       0.05047537
H       -3.58780873      -0.91955318       0.36249525     -12.95313316       0.02173413       0.00330924      -0.00373526       0.04781585
H       -2.83423620       2.00797227       0.21300001     -13.11774057      -0.00268678       0.02001979       0.00548997       0.03224979
H       -1.33892586      -0.66461972       1.42196638     -13.07162605       0.01838622       0.02264873      -0.00049352       0.04201935
H       -5.16708514       1.32647754      -0.10866923     -13.18783477      -0.03665825      -0.01298573       0.00675495       0.04269722
H       -5.16942010       0.49024096       1.46729771     -13.00051869       0.03185568      -0.01410116       0.00631203       0.06208558
H       -2.70663891      -0.65424228      -1.80486655     -11.30469454       0.01372009       0.02942414      -0.02069839       0.32429029
H       -3.21652797       1.69560054       2.63873661     -11.28699564      -0.01088497      -0.02810941      -0.01977987       0.31868908
H       -0.38075553       1.78297350       0.65042978     -13.24800743       0.00676771       0.02201861      -0.01395997       0.03674872
H       -1.15770906       1.73124032      -0.95949522     -12.92480702       0.00263399      -0.00482014      -0.00972685       0.06934121
H       -0.77173994      -2.46823746      -0.35538278     -11.42787637      -0.01148776       0.01448095       0.02077699       0.32732428
H        1.58230078       1.96869422      -0.42964834     -11.32208039      -0.01482694       0.00999575       0.01755967       0.32167427
H       -4.88420166       3.25855904       1.08184770     -11.57297253       0.02614238      -0.01369173      -0.00257794       0.29325605
O        2.32461349      -2.19944693      -2.48877749    -112.44807369      -0.01216397       0.01656672      -0.00889706      -0.35812756
O        0.93765782      -3.07037813      -0.96558165    -112.46818934      -0.01248458      -0.03828709      -0.00874225      -0.42721346
O        5.24806198      -1.98948099      -0.76612016    -112.29402720       0.00654529      -0.00357296       0.00307294      -0.42150614
N        0.93109859      -0.58404030       0.37356114     -81.23676757      -0.00517095       0.00228176      -0.00351885      -0.31056503
N        4.88214513       0.16649376      -0.21301706     -80.92664831      -0.01388913      -0.00089758      -0.00721656      -0.27520079
C        2.05427815      -0.99904575      -0.46270915     -58.82312226      -0.00365280      -0.00749859       0.00163281       0.03344889
C        3.22801121      -1.43636617       0.43645447     -59.30668118       0.00356580      -0.00316277       0.00099195      -0.10508897
C        1.68427585      -2.19612867      -1.33161260     -58.84572391       0.02291400       0.03665261      -0.02016723       0.36561173
C        4.55923955      -1.14256139      -0.24840311     -59.17955131       0.00960030      -0.00176016       0.00823950       0.28605807
H        2.35521534      -0.17092525      -1.11025897     -12.90815090      -0.00607060       0.00193611       0.01425766       0.07356606
H        3.18956325      -0.88608424       1.37598771     -12.92626055      -0.00944675      -0.01093271       0.00585625       0.07470370
H        3.15563399      -2.50308224       0.65267861     -13.07244416       0.02487956      -0.00524612      -0.01112479       0.06981338
H        0.67554966      -1.39021704       0.94100813     -12.36978031      -0.00586301       0.02326333       0.02067456       0.17050908
H        0.15047672       0.14984286      -2.23997898     -11.30176729      -0.01525572      -0.01170961       0.01548830       0.32172479
H        4.27921651       0.84958820       0.21892582     -12.04718665      -0.00702465      -0.00662890       0.01030156       0.21054307
H        5.73583464       0.47016422      -0.65011700     -12.20931022      -0.01229028       0.00751697      -0.01019884       0.19331058
H        2.14747924      -3.00920113      -2.99433224     -10.89476869      -0.03178463       0.00840207       0.01486143       0.34060828
O        2.51458900       1.59086493       1.20287842    -114.97219320       0.00468378      -0.00813702       0.00516825      -0.60411385
H        1.88706973       0.84204173       1.16747798     -11.47797770       0.00748910      -0.01095111       0.02111785       0.31432334
H        2.36655918       2.04939088       2.03169436     -11.81808923      -0.01285994       0.01228092      -0.00929273       0.28533532
