44
Properties=species:S:1:pos:R:3 reactant=T mapped=T (centered)=T charge=0 spin=1 pbc="F F F"
O       -3.15211495       1.11521316      -1.58332098
O       -3.25594068       0.58244203       1.95586931
O       -1.63367160      -1.17537915      -1.47504931
O       -5.18317732       2.53659166       1.82015871
O        0.07501831       0.77833804      -1.13232013
O        0.82908213       1.94232408       1.13034248
C       -3.11555873       0.33903964      -0.40464810
C       -3.43428084       1.28369093       0.73743074
C       -1.77823751      -0.41685283      -0.28832106
C       -4.85973290       1.80115617       0.64263101
C       -0.56871027       0.49470980      -0.14793482
C       -0.18277425       0.95736731       1.23071667
H       -3.88547075      -0.44329615      -0.43023345
H       -2.74887330       2.14408485       0.67981056
H       -1.81936490      -1.08313164       0.57485979
H       -4.99349038       2.39361167      -0.26313013
H       -5.54754538       0.95425619       0.61593089
H       -2.94555847       0.52365476      -2.31705626
H       -3.79582665       1.04038161       2.61493954
H       -1.05978286       1.31498977       1.77271197
H        0.17176274       0.05039816       1.73481267
H       -0.92560897      -0.73894166      -1.97722709
H        1.15774133       2.14327442       2.01137232
H       -4.84535874       3.43311067       1.73054409
O        3.49317285      -3.03627400      -1.90449746
O        2.66563685      -4.15137557      -0.14037847
O        5.15699102      -1.79346764       0.22037091
N        0.77513916      -2.08905087       0.23581941
N        4.69250216       0.22738427      -0.68863120
C        2.03874593      -1.84566957      -0.44737835
C        2.92728088      -0.98259611       0.46356629
C        2.75530087      -3.14415807      -0.78881319
C        4.37007723      -0.89030849      -0.00731277
H        1.84845146      -1.30160129      -1.37467066
H        2.46396300       0.00068495       0.54214828
H        2.95085677      -1.45067527       1.44913976
H        0.94021826      -2.78670035       0.95620843
H        0.10516023      -2.49830966      -0.40824542
H        4.02046010       0.96812304      -0.86442204
H        5.63336210       0.30225140      -1.03606821
H        4.03045616      -3.83985855      -1.97265697
O        2.60129246       2.21721965      -1.15369021
H        2.05833195       1.93461812      -1.89733377
H        1.97007551       2.18873051      -0.41604479
44
Properties=species:S:1:pos:R:3 reactant=T mapped=T (centered)=T charge=0 spin=1 pbc="F F F"
O       -3.16072765       1.00765669      -1.57911075
O       -3.20728620       0.64192037       1.98040234
O       -1.71298422      -1.28949572      -1.38100248
O       -5.17880070       2.54285465       1.78433358
O        0.03885781       0.65983420      -1.26341028
O        0.74084272       2.02051969       1.03174388
C       -3.11634596       0.28330534      -0.36867024
C       -3.42234368       1.27616405       0.73067889
C       -1.78970575      -0.47158732      -0.22929611
C       -4.85936697       1.74789260       0.64536119
C       -0.57681030       0.43571607      -0.23591822
C       -0.23727595       1.03744921       1.07584177
H       -3.87629381      -0.50873403      -0.34378823
H       -2.76839402       2.15293108       0.60388897
H       -1.81550200      -1.07749632       0.67798984
H       -5.02624547       2.28007215      -0.29167922
H       -5.52374942       0.88363266       0.69060350
H       -2.94012327       0.39536191      -2.29044841
H       -3.73521309       1.13173806       2.62559332
H       -1.05127651       1.43420668       1.68307061
H        0.09122240       0.15878494       1.64470300
H       -1.01639424      -0.90790385      -1.94505959
H        1.15874228       2.16473147       1.88594953
H       -4.85818304       3.43704013       1.62980656
O        3.36739273      -2.93933807      -1.99296521
O        2.47280091      -4.08497301      -0.24427343
O        5.20010096      -1.85974138       0.13229884
N        0.80151415      -1.92203248       0.28385376
N        4.75731087       0.20860063      -0.60928725
C        2.04960958      -1.74410012      -0.45284939
C        3.00144205      -1.03129232       0.50103259
C        2.65176016      -3.07338744      -0.86631308
C        4.41899309      -0.93951520      -0.00540082
H        1.91895092      -1.15733180      -1.36211417
H        2.57857095      -0.04529748       0.67774465
H        3.02538648      -1.59204032       1.43567121
H        0.89731655      -2.65083594       0.98752364
H        0.14681476      -2.40092975      -0.58777554
H        4.09466293       0.96487291      -0.70940873
H        5.68761584       0.31468725      -0.97127795
H        3.82815688      -3.78323427      -2.10854132
O        2.70038798       2.18583192      -1.00713054
H        2.07200226       1.84804618      -1.65336469
H        2.17256699       2.26541598      -0.20900699
44
Properties=species:S:1:pos:R:3 reactant=T mapped=T (centered)=T charge=0 spin=1 pbc="F F F"
O       -3.17585915       0.91151100      -1.56661524
O       -3.16327306       0.69863851       2.00245642
O       -1.80605924      -1.42432760      -1.26181566
O       -5.17344455       2.54893363       1.75146612
O       -0.00699363       0.53293261      -1.40668332
O        0.66517122       2.11295131       0.88975506
C       -3.11752098       0.23052974      -0.33102548
C       -3.41334165       1.26703611       0.72684882
C       -1.79758665      -0.52728874      -0.17098409
C       -4.85997463       1.69826909       0.65239472
C       -0.58253466       0.36677016      -0.32939687
C       -0.29912549       1.11881422       0.91270929
H       -3.87058483      -0.56564622      -0.25703638
H       -2.79453781       2.15644204       0.53184907
H       -1.81213088      -1.08107521       0.77001463
H       -5.05836715       2.17078338      -0.31020453
H       -5.49923767       0.82188780       0.76667427
H       -2.95575007       0.28796964      -2.26605770
H       -3.67888519       1.21863765       2.63356854
H       -1.04891925       1.55302377       1.58513828
H        0.01830600       0.28342714       1.55816822
H       -1.18914123      -1.06767817      -1.93098907
H        1.07256108       2.20228924       1.76254104
H       -4.87108182       3.43717650       1.53664785
O        3.25565972      -2.85097726      -2.07470883
O        2.29568456      -4.01954577      -0.34400230
O        5.23776456      -1.92134087       0.04040910
N        0.83233515      -1.76593821       0.32294239
N        4.82466158       0.17982228      -0.53893363
C        2.08240963      -1.64406606      -0.44519437
C        3.07338231      -1.07695096       0.54338088
C        2.57030505      -3.00497892      -0.93062189
C        4.46539757      -0.98970063      -0.00729698
H        2.00761113      -1.02472904      -1.33774047
H        2.68953236      -0.10101608       0.82502810
H        3.09596637      -1.73674026       1.40950646
H        0.85313653      -2.51696183       1.00977094
H        0.23318894      -2.28507053      -0.77705217
H        4.17732635       0.94899997      -0.56261967
H        5.74254365       0.32185746      -0.91575250
H        3.63323936      -3.72674855      -2.24015052
O        2.78020328       2.15419727      -0.84703287
H        2.10848538       1.77274556      -1.41263853
H        2.45947780       2.33513484       0.03328190
44
Properties=species:S:1:pos:R:3 reactant=T mapped=T (centered)=T charge=0 spin=1 pbc="F F F"
O       -3.18683744       0.81998732      -1.54887538
O       -3.12173049       0.75264278       2.02291343
O       -1.90267888      -1.61050499      -1.06924674
O       -5.16698256       2.55370502       1.72310700
O       -0.05512562       0.42839641      -1.54472932
O        0.58976942       2.22034338       0.68695672
C       -3.11464901       0.17991069      -0.29185057
C       -3.40570534       1.25549982       0.72623533
C       -1.79994157      -0.58319351      -0.11012816
C       -4.86014785       1.65231779       0.66388282
C       -0.58361920       0.28830342      -0.41893378
C       -0.36367590       1.20915202       0.74425956
H       -3.86748870      -0.61198821      -0.17116801
H       -2.82608408       2.15420488       0.46593153
H       -1.80901145      -1.08732999       0.86199095
H       -5.08773884       2.06713902      -0.31883091
H       -5.47384141       0.76890996       0.84282988
H       -2.96321399       0.19049437      -2.23884417
H       -3.62622705       1.29955488       2.63993147
H       -1.04574542       1.69248618       1.47870092
H       -0.06275208       0.41513451       1.45558955
H       -1.42751527      -1.32395050      -1.87047325
H        0.97256381       2.30043117       1.57737800
H       -4.88341421       3.43336759       1.45370391
O        3.15857749      -2.77396248      -2.14823317
O        2.11370692      -3.94751474      -0.43928624
O        5.26952213      -1.97709745      -0.05337317
N        0.85202163      -1.62320454       0.31930155
N        4.89070146       0.14658178      -0.47773798
C        2.13423863      -1.55560404      -0.42708087
C        3.14203661      -1.12681020       0.59014422
C        2.50426105      -2.94415119      -0.98327634
C        4.50940409      -1.03882599      -0.00998170
H        2.14097151      -0.90408027      -1.30283247
H        2.78553432      -0.17626190       0.97311581
H        3.14803258      -1.88525712       1.36946046
H        0.80316028      -2.38261190       0.99269112
H        0.35942959      -2.02091762      -1.05964445
H        4.26507804       0.92744731      -0.42451822
H        5.79513311       0.32524551      -0.86912482
H        3.44602693      -3.67149538      -2.36556012
O        2.82171461       2.12697580      -0.58745055
H        2.21830362       1.69627343      -1.19432144
H        2.71393853       2.34025700       0.33737660
44
Properties=species:S:1:pos:R:3 reactant=T mapped=T (centered)=T charge=0 spin=1 pbc="F F F"
O       -3.17616298       0.70216140      -1.53871973
O       -3.08709388       0.80286341       2.04425826
O       -1.97621201      -1.82922058      -0.79708338
O       -5.15902847       2.55585700       1.70004840
O       -0.11577634       0.44663717      -1.65128784
O        0.49333364       2.38497436       0.38663916
C       -3.10172577       0.12276503      -0.25323657
C       -3.39606509       1.23801491       0.72795335
C       -1.79969371      -0.66408655      -0.04722710
C       -4.85822467       1.60784551       0.67988605
C       -0.57111352       0.17108299      -0.49192570
C       -0.40755624       1.33968195       0.55082032
H       -3.86299401      -0.65427460      -0.09004785
H       -2.85373695       2.14135033       0.41443359
H       -1.79951105      -1.10679044       0.96341273
H       -5.11123131       1.96579443      -0.31893891
H       -5.44632614       0.72179831       0.91958263
H       -2.90398898       0.04567363      -2.18695256
H       -3.57758994       1.37658118       2.64806644
H       -1.00857126       1.89887972       1.43894760
H       -0.21459975       0.57961100       1.30225635
H       -1.57510953      -1.79017695      -1.66124905
H        0.88771558       2.48779704       1.27255874
H       -4.89446491       3.42499693       1.38146904
O        3.06878171      -2.70844585      -2.20888794
O        1.90146780      -3.84975797      -0.54016512
O        5.29108093      -2.02740781      -0.15129030
N        0.83680759      -1.48550342       0.25484354
N        4.95481215       0.10743730      -0.42334320
C        2.13376983      -1.49239351      -0.41230521
C        3.18585562      -1.19495588       0.61467316
C        2.39777819      -2.87611814      -1.04262483
C        4.54364918      -1.08991307      -0.01369934
H        2.30773937      -0.80799339      -1.25066639
H        2.85209637      -0.28583276       1.10498830
H        3.17302804      -2.03556677       1.30286951
H        0.75649788      -2.22277127       0.95183647
H        0.49646443      -1.57027037      -1.56746231
H        4.36965730       0.90508779      -0.27839262
H        5.84446291       0.32394961      -0.83041525
H        3.25785197      -3.61485233      -2.48274464
O        2.88576830       2.07850498      -0.22997388
H        2.37227357       1.62008224      -0.90515405
H        2.88588416       2.25690345       0.71424912
44
Properties=species:S:1:pos:R:3 reactant=T mapped=T (centered)=T charge=0 spin=1 pbc="F F F"
O       -3.16365992       0.62672660      -1.53414975
O       -3.11637916       0.81208537       2.07691059
O       -2.05205718      -1.91607663      -0.74275806
O       -5.15897903       2.55881107       1.69405491
O       -0.17532168       0.44760244      -1.68046656
O        0.43440508       2.54512474       0.13162015
C       -3.11508271       0.06858276      -0.24001524
C       -3.42270021       1.22865090       0.73202616
C       -1.81663553      -0.79059892      -0.00847756
C       -4.87491291       1.58605604       0.69279789
C       -0.47265341      -0.06002096      -0.52741938
C        0.01200043       1.25831100       0.32669728
H       -3.87077219      -0.70105666      -0.04752765
H       -2.89344300       2.14481601       0.40985734
H       -1.73675020      -1.14706180       1.03540148
H       -5.12870426       1.91260099      -0.31590684
H       -5.43897685       0.69458478       0.96378129
H       -2.85408838      -0.05245858      -2.14537986
H       -3.56758162       1.42521845       2.66984686
H       -0.79954495       2.08019488       1.85911292
H       -0.82117510       1.00413329       0.83044939
H       -1.37636405      -2.12082037      -1.37571462
H        0.86193052       2.72140903       0.98475551
H       -4.90094237       3.42056658       1.35085966
O        3.01099046      -2.67061556      -2.23655406
O        1.77698253      -3.78017481      -0.60244554
O        5.29760642      -2.05143946      -0.20974675
N        0.83249853      -1.36811507       0.28958155
N        4.98494198       0.08235411      -0.40019823
C        2.07762182      -1.45624125      -0.42485878
C        3.18909659      -1.24828947       0.59822215
C        2.29920472      -2.81619879      -1.09027547
C        4.55208400      -1.12058120      -0.02425862
H        2.34352638      -0.76822342      -1.22742700
H        2.88200960      -0.37589968       1.16862851
H        3.17887304      -2.12426038       1.24152555
H        0.72194889      -2.11937926       0.96067540
H        0.55936873      -1.28626185      -2.02691391
H        4.43808719       0.89338001      -0.19665786
H        5.86813259       0.31969577      -0.81263306
H        3.14591070      -3.57454067      -2.54613590
O        2.93196520       2.02925936       0.03665722
H        2.44325437       1.52652010      -0.62684732
H        2.91428491       2.16163055       0.98930523
44
Properties=species:S:1:pos:R:3 reactant=T mapped=T (centered)=T charge=0 spin=1 pbc="F F F"
O       -3.18879986       0.55580512      -1.52421211
O       -3.00924222       0.84599578       2.07041606
O       -1.98313079      -1.85769001      -0.67291667
O       -5.15242260       2.55056835       1.69119328
O       -0.20427320       0.33581217      -1.65792641
O        0.48454427       2.45573186      -0.11446912
C       -3.08226471       0.04576799      -0.20182482
C       -3.40920644       1.19908791       0.75338474
C       -1.73539379      -0.70128582       0.05388063
C       -4.87041275       1.55644175       0.70827835
C       -0.39929835      -0.06610998      -0.38488475
C       -0.19199183       1.20613669       0.60595542
H       -3.82805632      -0.72871833      -0.00063766
H       -2.97126209       2.16107236       0.43881363
H       -1.63223087      -0.96211489       1.11086103
H       -5.14314048       1.85862069      -0.30465560
H       -5.41621607       0.66397132       1.00404386
H       -2.83907739      -0.11744409      -2.12075851
H       -3.50461178       1.43556996       2.65551403
H       -0.65242056       1.60602325       1.56051783
H       -0.96672120       1.61397931      -0.01293715
H       -1.23514978      -2.21197821      -1.14246232
H        0.80862666       2.79980286       0.72713285
H       -4.91036361       3.40957001       1.32874776
O        2.94389484      -2.62028171      -2.27025907
O        1.68009137      -3.71939814      -0.65902806
O        5.30200562      -2.06157380      -0.26275920
N        0.85387134      -1.29127762       0.32049825
N        4.98765390       0.08386350      -0.37640541
C        2.06308351      -1.41490828      -0.44148873
C        3.20134870      -1.30193979       0.57669767
C        2.22053838      -2.75989121      -1.13508258
C        4.55980916      -1.13573394      -0.04398840
H        2.33197482      -0.71763863      -1.23405288
H        2.93408246      -0.47428200       1.22816052
H        3.18967313      -2.20701171       1.17980697
H        0.70473432      -2.05485732       0.96897000
H        0.52750324      -1.11965168      -2.15137877
H        4.46238593       0.90189292      -0.14147616
H        5.87015094       0.32745211      -0.78815088
H        3.04482699      -3.52077523      -2.60286348
O        2.92478151       1.98701965       0.28013252
H        2.41717733       1.36158290      -0.24721290
H        2.81292829       2.08279396       1.22882523
44
Properties=species:S:1:pos:R:3 reactant=T mapped=T (centered)=T charge=0 spin=1 pbc="F F F"
O       -3.18598481       0.45175025      -1.49277134
O       -2.92154295       0.90782485       2.07382919
O       -1.87223667      -1.89191670      -0.56940630
O       -5.13111061       2.54057535       1.66628511
O       -0.32874609       0.18550449      -1.66492077
O        0.63269843       2.26318147      -0.52685832
C       -3.03121043       0.00841077      -0.15185119
C       -3.36325059       1.18484798       0.75668766
C       -1.68095900      -0.68710996       0.11749412
C       -4.83817005       1.50644836       0.72874422
C       -0.37445093      -0.04362450      -0.33603474
C       -0.26326778       1.32302214       0.31297614
H       -3.76426828      -0.77311380       0.07678775
H       -2.93729659       2.13470886       0.40855014
H       -1.56117168      -0.87498745       1.18814404
H       -5.14809297       1.75398708      -0.28836674
H       -5.36374493       0.62016817       1.07753625
H       -2.82174257      -0.23339118      -2.06734885
H       -3.42929794       1.50157144       2.64334516
H       -0.58291435       1.62968053       1.31390070
H       -1.02074994       1.79514889      -0.31749535
H       -1.06694806      -2.25607048      -0.93903423
H        0.91040801       2.81474400       0.22273219
H       -4.91266584       3.38618009       1.26034818
O        2.82869167      -2.52129318      -2.32480782
O        1.51030762      -3.59453427      -0.75328885
O        5.30068219      -2.06454064      -0.36659918
N        0.88102113      -1.13546651       0.35119364
N        4.95876713       0.11060488      -0.31960191
C        2.05512905      -1.32447923      -0.46123683
C        3.22271104      -1.38794659       0.54214819
C        2.10065300      -2.64644536      -1.19709427
C        4.56926328      -1.14816652      -0.08133696
H        2.31918953      -0.56628329      -1.20136216
H        3.03934893      -0.67003078       1.34045998
H        3.19640658      -2.34730152       1.05735159
H        0.69053040      -1.90957844       0.97749318
H        0.51438581      -0.90173311      -2.27143529
H        4.40354615       0.90461376      -0.06114985
H        5.84076370       0.35913293      -0.72862349
H        2.85184086      -3.41171807      -2.70047906
O        2.85983325       1.86059635       0.65798969
H        2.29012836       1.09937221       0.47139640
H        2.62351692       2.04765671       1.57570901
44
Properties=species:S:1:pos:R:3 reactant=T mapped=T (centered)=T charge=0 spin=1 pbc="F F F"
O       -3.17391170       0.35857964      -1.45932561
O       -2.84914954       0.97351480       2.06921442
O       -1.77477968      -1.96200010      -0.44777859
O       -5.10697417       2.53596298       1.63194104
O       -0.46407790      -0.12132217      -1.62433364
O        0.75090844       2.03997602      -0.77804563
C       -2.99093100      -0.02936872      -0.10489352
C       -3.31650369       1.18516429       0.74920479
C       -1.64779378      -0.70966940       0.19027016
C       -4.80276889       1.46307198       0.74384515
C       -0.35173819      -0.05360517      -0.28383803
C       -0.26613531       1.39590013       0.07051852
H       -3.71248193      -0.81318166       0.15557144
H       -2.87678271       2.10382486       0.34461779
H       -1.50570234      -0.81796959       1.26732800
H       -5.14777333       1.65260537      -0.27436031
H       -5.30957386       0.58734538       1.14721552
H       -2.81453982      -0.34575851      -2.01376278
H       -3.36120832       1.57746819       2.62340611
H       -0.51974366       1.70117490       1.08831282
H       -1.03774909       1.82734203      -0.56631631
H       -0.94486813      -2.26309260      -0.83799845
H        1.17698716       2.61531017      -0.13014851
H       -4.91030214       3.36401097       1.18178328
O        2.69619280      -2.41813543      -2.37155813
O        1.34011525      -3.44772249      -0.83905717
O        5.28674565      -2.05983803      -0.45821373
N        0.89762872      -0.98153716       0.37290378
N        4.92721288       0.13400015      -0.24636570
C        2.04904408      -1.22575347      -0.45732358
C        3.22667228      -1.42826599       0.51678012
C        1.96624772      -2.50641575      -1.25120969
C        4.56922834      -1.15456959      -0.10412879
H        2.33906135      -0.42085059      -1.13064567
H        3.10459400      -0.78487294       1.38625845
H        3.18561963      -2.43250991       0.93851273
H        0.67144676      -1.76125145       0.98017600
H        0.58040103      -0.47527143      -2.35714427
H        4.33945558       0.88441801       0.07294000
H        5.80695595       0.38374201      -0.65927289
H        2.64919628      -3.29347205      -2.78172677
O        2.73634296       1.69479303       0.94184723
H        2.10475044       0.94606110       0.91706809
H        2.48068188       2.08216817       1.78773133
44
Properties=species:S:1:pos:R:3 reactant=T mapped=T (centered)=T charge=0 spin=1 pbc="F F F"
O       -3.12816513       0.26002288      -1.43414916
O       -2.78110055       1.04166660       2.05329493
O       -1.72038350      -2.03116714      -0.29778865
O       -5.08307744       2.53103333       1.58551183
O       -0.36472216      -0.45389320      -1.64753268
O        0.79934237       1.96641250      -0.91494086
C       -2.94054395      -0.06814897      -0.06755020
C       -3.27185589       1.18373177       0.73148648
C       -1.59333363      -0.72425731       0.23760066
C       -4.76801715       1.41819938       0.75213120
C       -0.32334505      -0.07613773      -0.32124946
C       -0.26422354       1.41217938      -0.14494139
H       -3.65611013      -0.84563435       0.23094243
H       -2.82724279       2.06893007       0.26232326
H       -1.44392922      -0.75203554       1.31984642
H       -5.14498691       1.54332559      -0.26473240
H       -5.25165469       0.55646528       1.21285897
H       -2.75048246      -0.45782240      -1.95800495
H       -3.29439080       1.65828457       2.59192941
H       -0.44853198       1.75149799       0.87602681
H       -1.07076432       1.77125112      -0.77857146
H       -0.88019469      -2.36809214      -0.64273538
H        1.44579561       2.30108989      -0.28881677
H       -4.91039991       3.33826556       1.09051507
O        2.54287865      -2.29845279      -2.42182605
O        1.16663827      -3.28613595      -0.91995133
O        5.26455028      -2.05597290      -0.54369358
N        0.90105686      -0.80795583       0.38282972
N        4.91308056       0.13491430      -0.16414691
C        2.04244515      -1.12489734      -0.44691918
C        3.21399006      -1.44748453       0.50317335
C        1.83091878      -2.35371170      -1.29589372
C        4.56141710      -1.16857546      -0.11609135
H        2.34241160      -0.30309954      -1.09284953
H        3.11574161      -0.85132352       1.40846887
H        3.16199642      -2.48706782       0.82418212
H        0.64638256      -1.59424780       0.97155690
H        0.46883046       0.04218334      -2.28971942
H        4.32060494       0.84906426       0.22711890
H        5.78832867       0.39383800      -0.58230102
H        2.43340789      -3.15569008      -2.85992750
O        2.61313666       1.57820424       1.14160940
H        1.94995334       0.84910714       1.14656180
H        2.39454803       2.06213687       1.94436344
44
Properties=species:S:1:pos:R:3 product=T mapped+aligned=T onto=T reactant=T charge=0 spin=1 pbc="F F F"
O       -3.07809635       0.14730939      -1.40677264
O       -2.71175234       1.11539799       2.02962013
O       -1.64862702      -2.08283249      -0.15201805
O       -5.06011268       2.52222405       1.52612957
O       -0.22148137      -0.49569051      -1.73889904
O        0.87349237       1.93103161      -1.00530298
C       -2.88289015      -0.11245119      -0.02828684
C       -3.23005851       1.17558478       0.71080549
C       -1.51817201      -0.73294557       0.26944663
C       -4.73521922       1.36562162       0.75827539
C       -0.27932978      -0.09542208      -0.38147677
C       -0.28107458       1.43004195      -0.35016776
H       -3.58841051      -0.88314641       0.31291473
H       -2.80008085       2.03047407       0.17524756
H       -1.37518493      -0.68141670       1.35482664
H       -5.14360532       1.41615436      -0.25314030
H       -5.18729962       0.52209839       1.28196506
H       -2.67366529      -0.58218229      -1.89424889
H       -3.22451278       1.74753086       2.55051290
H       -0.36468005       1.78859559       0.67925236
H       -1.13632675       1.77497652      -0.92663763
H       -0.79795009      -2.45058714      -0.44084566
H        1.57999376       2.02139964      -0.34718357
H       -4.91660570       3.30373364       0.98325007
O        2.39408494      -2.18766094      -2.46533842
O        0.96693360      -3.10248486      -1.00011722
O        5.24365152      -2.05175824      -0.63151761
N        0.90057599      -0.61315445       0.37724728
N        4.91246240       0.11978537      -0.06988074
C        2.04619381      -1.02939181      -0.42440529
C        3.20230822      -1.47809857       0.49965463
C        1.70977437      -2.20686047      -1.32297199
C        4.55887826      -1.18997386      -0.12147363
H        2.36840832      -0.19223412      -1.04192056
H        3.12086208      -0.93896555       1.44268371
H        3.13878529      -2.54557376       0.70440143
H        0.61468267      -1.40553985       0.94511192
H        0.25206233       0.20056728      -2.21664694
H        4.32652331       0.80050566       0.38942997
H        5.77991203       0.39879450      -0.49371805
H        2.20212400      -3.00979812      -2.94215572
O        2.47712029       1.50828316       1.28266956
H        1.82057512       0.77022600       1.26739876
H        2.36573125       1.97783256       2.11428152
