44
Properties=species:S:1:pos:R:3:forces:R:3 reactant=T mapped=T (centered)=T charge=0 spin=1 energy=-34183.13667705039 free_energy=-34183.13667705039 stress="-0.49200500044235995 0.09567595007534176 0.0015036703270330117 0.09567595007534176 -0.3524757300069553 0.001888805672227315 0.0015036703270330117 0.001888805672227315 -0.06434024136183829" pbc="F F F"
O       -3.15211495       1.11521316      -1.58332098      -0.00611639      -0.00800735       0.00508537
O       -3.25594068       0.58244203       1.95586931      -0.00789834       0.00702196      -0.00348867
O       -1.63367160      -1.17537915      -1.47504931      -0.00155375       0.00699741       0.00265402
O       -5.18317732       2.53659166       1.82015871       0.00032357       0.00027106      -0.00643629
O        0.07501831       0.77833804      -1.13232013      -0.00545291      -0.00031341      -0.03666996
O        0.82908213       1.94232408       1.13034248      -0.00940764       0.00306407       0.00681029
C       -3.11555873       0.33903964      -0.40464810      -0.00730298      -0.00269617       0.00392219
C       -3.43428084       1.28369093       0.73743074      -0.00782141       0.00098983      -0.00106607
C       -1.77823751      -0.41685283      -0.28832106      -0.00867540       0.00048314       0.00117605
C       -4.85973290       1.80115617       0.64263101      -0.00045016      -0.00060481       0.00298066
C       -0.56871027       0.49470980      -0.14793482      -0.02109638      -0.00569388       0.01331158
C       -0.18277425       0.95736731       1.23071667      -0.00363774       0.00179163      -0.01147537
H       -3.88547075      -0.44329615      -0.43023345      -0.00736302       0.00250212      -0.00655250
H       -2.74887330       2.14408485       0.67981056      -0.00116032      -0.00742634       0.00745227
H       -1.81936490      -1.08313164       0.57485979      -0.01570302      -0.00447677      -0.00374640
H       -4.99349038       2.39361167      -0.26313013       0.00215110      -0.00223471       0.01091350
H       -5.54754538       0.95425619       0.61593089      -0.00342123       0.00538455      -0.00332565
H       -2.94555847       0.52365476      -2.31705626      -0.00034752       0.00476204      -0.00250837
H       -3.79582665       1.04038161       2.61493954       0.00191003       0.00506510       0.00419880
H       -1.05978286       1.31498977       1.77271197       0.00390587      -0.00001666      -0.00599096
H        0.17176274       0.05039816       1.73481267       0.00060167       0.01405348      -0.00551178
H       -0.92560897      -0.73894166      -1.97722709      -0.00207330       0.01255114       0.00718474
H        1.15774133       2.14327442       2.01137232      -0.00808441       0.00153884       0.00347880
H       -4.84535874       3.43311067       1.73054409      -0.00495047       0.00138769       0.00286896
O        3.49317285      -3.03627400      -1.90449746      -0.00936524      -0.01424470      -0.00235233
O        2.66563685      -4.15137557      -0.14037847       0.01159664      -0.02764861      -0.00235884
O        5.15699102      -1.79346764       0.22037091       0.03296369      -0.00677763       0.01164682
N        0.77513916      -2.08905087       0.23581941       0.00967779      -0.01057334       0.00443810
N        4.69250216       0.22738427      -0.68863120       0.00701514      -0.00004475       0.00883963
C        2.03874593      -1.84566957      -0.44737835       0.00795866      -0.00901897       0.00657003
C        2.92728088      -0.98259611       0.46356629       0.01293938      -0.00738763       0.00501571
C        2.75530087      -3.14415807      -0.78881319      -0.00261775       0.01352435      -0.01431049
C        4.37007723      -0.89030849      -0.00731277      -0.00555948       0.01795014       0.00245945
H        1.84845146      -1.30160129      -1.37467066       0.00054327      -0.01268087       0.00548296
H        2.46396300       0.00068495       0.54214828       0.01367920      -0.00351579       0.00783184
H        2.95085677      -1.45067527       1.44913976       0.00624739      -0.00227454       0.00856955
H        0.94021826      -2.78670035       0.95620843       0.00021761      -0.01636988       0.00115333
H        0.10516023      -2.49830966      -0.40824542       0.00532272       0.00173127       0.00269817
H        4.02046010       0.96812304      -0.86442204      -0.00129701      -0.00584184      -0.00668186
H        5.63336210       0.30225140      -1.03606821      -0.00426417       0.00518326      -0.00012141
H        4.03045616      -3.83985855      -1.97265697      -0.00727947      -0.01007817      -0.00819590
O        2.60129246       2.21721965      -1.15369021       0.00207508       0.04326737      -0.01224284
H        2.05833195       1.93461812      -1.89733377       0.01255831       0.00537356      -0.00504899
H        1.97007551       2.18873051      -0.41604479       0.02121215       0.00303279       0.00134173
44
Properties=species:S:1:pos:R:3:forces:R:3 reactant=T mapped=T (centered)=T charge=0 spin=1 energy=-34183.141020419986 free_energy=-34183.141020419986 stress="-0.019700421277467513 0.021807253264912948 0.011206627324660956 0.021807253264912948 0.008013113241039156 0.0409540405871593 0.011206627324660956 0.0409540405871593 -0.024508259227684733" pbc="F F F"
O       -3.28050952       0.99091182      -1.58950071       0.00132423       0.00252303      -0.00007655
O       -3.27874999       0.66166357       1.97657716      -0.00143286      -0.00112073      -0.00031537
O       -1.63742590      -1.19786206      -1.41275410      -0.00006891       0.00085204      -0.00035136
O       -5.26071978       2.55057845       1.77139727      -0.00136989      -0.00123375       0.00063145
O       -0.00746473       0.83535015      -1.18122801       0.00022180       0.00043732       0.00084940
O        0.72552642       2.11685894       1.04153722       0.00176278      -0.00178114       0.00116165
C       -3.17305773       0.28876025      -0.36980835       0.00002613       0.00122313      -0.00062745
C       -3.49897694       1.28690013       0.72421546      -0.00046664       0.00024532       0.00017641
C       -1.79794297      -0.39922026      -0.25495760      -0.00035651       0.00053062      -0.00012747
C       -4.94019139       1.75913526       0.62986630      -0.00035244       0.00061220      -0.00038853
C       -0.62397959       0.56740476      -0.17504342      -0.00005324       0.00011230       0.00061917
C       -0.23122403       1.08301581       1.18097005       0.00000579      -0.00075254       0.00091011
H       -3.90853443      -0.52523296      -0.32446177      -0.00035514       0.00142824      -0.00204744
H       -2.83936518       2.16108063       0.60615827      -0.00021170       0.00025733       0.00154619
H       -1.79365266      -1.03355726       0.63351511      -0.00108965       0.00023439      -0.00027754
H       -5.10753250       2.29673237      -0.30350510       0.00065171       0.00221954       0.00033043
H       -5.60483252       0.89420269       0.66343056      -0.00053397       0.00066459      -0.00249765
H       -3.07294781       0.36625417      -2.29490205       0.00154745       0.00313633      -0.00060759
H       -3.81195355       1.14822522       2.62059553      -0.00205853      -0.00190687      -0.00020365
H       -1.11495293       1.40438927       1.73425662      -0.00016668       0.00040185       0.00058674
H        0.18152011       0.20584345       1.69472301      -0.00125164      -0.00175279       0.00103509
H       -0.97619180      -0.73476169      -1.95435616       0.00052526       0.00084429       0.00018095
H        0.96582960       2.43549714       1.91633907       0.00700036      -0.00513480       0.00224023
H       -4.96682623       3.45379291       1.61797742      -0.00122584      -0.00092451       0.00239240
O        3.40272317      -2.90714522      -2.06296787       0.00165347      -0.00035592       0.00175960
O        2.57500785      -4.16059916      -0.39637776       0.00099195      -0.00075021       0.00146474
O        5.30159104      -1.95693747       0.14234372       0.00105576       0.00227722       0.00171376
N        0.86087468      -2.01470264       0.30162770       0.00011622      -0.00093478       0.00082944
N        4.83169664       0.13032603      -0.59995996      -0.00189158       0.00018921      -0.00226563
C        2.11896520      -1.79170732      -0.39832982       0.00005992      -0.00056132       0.00067946
C        3.10671916      -1.11914967       0.56829667       0.00000899       0.00024947       0.00052146
C        2.71281723      -3.09099916      -0.92580444       0.00083456      -0.00042777       0.00120251
C        4.52282794      -1.02690627       0.02074516      -0.00017477       0.00103757       0.00012833
H        1.94292017      -1.12652956      -1.24604107      -0.00024554      -0.00078249       0.00035765
H        2.70827110      -0.13387810       0.81374780      -0.00047992       0.00017624       0.00042829
H        3.16005585      -1.72157864       1.47631474       0.00064672       0.00033926       0.00067172
H        1.00270541      -2.76521933       0.97207236       0.00038716      -0.00083891       0.00103149
H        0.15904717      -2.35119250      -0.35139084      -0.00000615      -0.00118404       0.00089316
H        4.14567337       0.86396304      -0.74586685      -0.00251725      -0.00045886      -0.00269150
H        5.74124735       0.19924117      -1.02349302      -0.00199745       0.00064023      -0.00243299
H        3.84651202      -3.74409053      -2.26767557       0.00236350      -0.00020657       0.00234365
O        2.70282987       2.09884170      -1.05772768      -0.00096571       0.00057702      -0.00316082
H        2.17076639       1.85331031      -1.82210231       0.00072267       0.00185424      -0.00494971
H        2.04090445       2.14899055      -0.34845372      -0.00263429      -0.00195511      -0.00366441
44
Properties=species:S:1:pos:R:3:forces:R:3 reactant=T mapped=T (centered)=T charge=0 spin=1 energy=-34183.08324042398 free_energy=-34183.08324042398 stress="-0.789048133446199 0.4375524190687524 0.22498180372923138 0.4375524190687524 -0.4392955433864333 0.04717550993838027 0.22498180372923138 0.04717550993838027 -0.2974223995010344" pbc="F F F"
O       -3.36636999       0.83054237      -1.56371771      -0.00484241       0.00461885      -0.00172842
O       -3.22907047       0.70747659       2.01289593      -0.01278802      -0.00018712       0.00102374
O       -1.65136884      -1.29021866      -1.34177005      -0.00345961       0.01738665      -0.02093403
O       -5.21028129       2.58877986       1.74749364      -0.01156178       0.00531280       0.00742092
O       -0.10387677       0.84360160      -1.27848452       0.01659741      -0.00994770      -0.01624033
O        0.49703104       2.36707745       0.88950933       0.01171338       0.02351267      -0.01515953
C       -3.18441603       0.20631461      -0.31060152      -0.00478257       0.00525813      -0.00091251
C       -3.47732355       1.26425220       0.73351951      -0.00816268       0.00495710       0.00214125
C       -1.78760073      -0.43686739      -0.22022583      -0.00321686       0.01012136      -0.00617692
C       -4.91770914       1.73466022       0.64473755      -0.01112340       0.00723988       0.00406776
C       -0.65456119       0.58070727      -0.23331892      -0.01304108       0.01165377      -0.00054005
C       -0.23355586       1.16862971       1.08749966      -0.00608591       0.00135519      -0.00436422
H       -3.89856620      -0.61665020      -0.17852396      -0.00044913      -0.00110557      -0.00139856
H       -2.81693218       2.12702371       0.55182524      -0.00525371       0.00886024       0.00541617
H       -1.72656540      -1.02637723       0.69653497       0.00452400       0.00203520      -0.00872107
H       -5.10179721       2.21960897      -0.31354367      -0.01343288       0.01164191       0.00421600
H       -5.58201095       0.87399394       0.73847046      -0.01250276       0.00600483       0.00446137
H       -3.19669338       0.16593366      -2.24167328       0.00074557       0.00057939       0.00033414
H       -3.74558002       1.23025122       2.64181234      -0.01360746       0.00111713       0.00206227
H       -1.10198375       1.31517034       1.72787316      -0.04754679       0.00023874       0.00527440
H        0.38260298       0.38678371       1.54691754       0.01032019      -0.03141991      -0.00091049
H       -1.07444627      -0.81241785      -1.96006842       0.02773168       0.04379792      -0.02707107
H        0.43403421       2.89385163       1.69024363       0.04949582       0.01789535       0.01230159
H       -4.92188842       3.48132826       1.53392091      -0.00823909       0.00874885       0.00830542
O        3.39531808      -2.79884547      -2.14247668       0.01745206       0.00043327      -0.01359765
O        2.39560320      -4.09096675      -0.60721504       0.01595742      -0.01559533       0.00122811
O        5.36300023      -2.10955411       0.18414374       0.01655784       0.00569188       0.00262630
N        0.87970213      -1.86063718       0.21418117       0.00152990      -0.02091484       0.03296091
N        4.94715971       0.01194407      -0.49266536      -0.00427860       0.00851743      -0.00297208
C        2.18004239      -1.69839750      -0.41478489       0.01004514      -0.00323537      -0.00478098
C        3.19148090      -1.22237294       0.63714550       0.00940572      -0.00272666      -0.00291625
C        2.65729768      -3.00090099      -1.04016398       0.01535681      -0.00658972      -0.00542981
C        4.60978379      -1.15607249       0.09614118       0.00838954       0.00375593       0.00271421
H        2.10499538      -0.94496255      -1.20047995       0.00178850       0.00741775      -0.01994251
H        2.85938218      -0.24782312       0.99642710       0.00045185       0.00056625      -0.00879072
H        3.19551975      -1.93037107       1.46654355       0.00169477      -0.00679287      -0.00495737
H        0.92697723      -2.67257897       0.82157741       0.00392805      -0.03871126       0.06690946
H        0.18834820      -2.09096409      -0.49345130      -0.02134846      -0.05404032       0.02758463
H        4.26886358       0.75165339      -0.63164915      -0.01835792       0.00151567      -0.00522579
H        5.84428158       0.05908103      -0.94439241      -0.00118146       0.01447878      -0.00273624
H        3.73943664      -3.66249076      -2.41584569       0.02426481      -0.00608669      -0.01118713
O        2.71348380       1.94065075      -0.90211451      -0.00331920      -0.01197387      -0.00387972
H        2.05759574       1.67832148      -1.55941454      -0.00423809      -0.01407285      -0.01138053
H        2.15065723       2.24183128      -0.17283314      -0.01513064      -0.01131304       0.01090518
44
Properties=species:S:1:pos:R:3:forces:R:3 reactant=T mapped=T (centered)=T charge=0 spin=1 energy=-34177.476648993885 free_energy=-34177.476648993885 stress="3.6288117284524812 1.2367296568323631 2.491067797238672 1.2367296568323631 5.124475277023922 -5.598203822345626 2.491067797238672 -5.598203822345626 10.380490705368834" pbc="F F F"
O       -3.27647365       0.12073316      -1.44928143      -0.09933190      -0.05476286      -0.03965313
O       -2.86909501       0.53951974       2.07877079      -0.12488061       0.03896813       0.03116725
O       -1.57061742      -2.24600665      -0.56427795       0.30741432       0.51054347      -0.60750437
O       -4.37823392       2.76766327       1.38947493      -0.03211149       0.09031852       0.04934050
O       -0.87711188       1.06118371      -1.13112316       0.16360225       0.10098641       0.04388147
O       -0.54196997       2.21764195       1.31392221       1.01245940      -0.65075886       0.19493863
C       -3.00948129      -0.32011857      -0.12523214       0.00494241      -0.02871712      -0.03837280
C       -3.00463889       0.92937290       0.71328388      -0.18917827      -0.00407868      -0.02110605
C       -1.66420436      -1.00031485       0.12107683       0.24491188       0.44409618      -0.41016936
C       -4.24330398       1.71237821       0.44036078      -0.20454006       0.07717046       0.03253789
C       -0.51877367       0.17522883      -0.21089004      -0.06051512       0.87784559      -0.29204097
C        0.00448202       0.86370196       1.14657882       0.27801475       0.65028739      -0.32066533
H       -3.83592628      -0.95444440       0.22324673       0.20910175      -0.23228331       0.04147048
H       -2.15626425       1.52268708       0.39719267      -0.27439964       0.13397825      -0.01089339
H       -1.70139442      -1.27198958       1.18969935       0.58174205       0.27721420      -0.42243502
H       -4.16156242       2.07691161      -0.58234912      -0.26984671       0.13480656       0.03589287
H       -5.10369526       1.05031358       0.52198067      -0.31986839       0.22442617       0.13357666
H       -3.38188858      -0.58232191      -2.08883632      -0.05427311      -0.37546501       0.11650065
H       -3.25559669       1.24240076       2.61184991      -0.21937087       0.08023120       0.02510400
H        0.08344810       0.19683954       2.01473354      -1.31795287       0.21215227       0.14134581
H        1.06331914       1.05429988       1.04877594       0.28989288       0.40714914      -0.72507232
H       -2.00497185      -2.17077066      -1.42813929       0.12938498       0.00826042       0.27167237
H       -1.28511063       2.38178547       1.92033576       0.56336021      -1.18928218      -0.14906418
H       -3.76093072       3.45896155       1.12812603      -0.08225767       0.08021519       0.01843342
O        3.11681210      -2.77112827      -1.81435227      -0.01968392       0.10695443      -0.18622346
O        1.26835761      -3.18060223      -0.64689570      -0.16138484      -0.06050127       0.07272024
O        4.90288751      -2.37295452       0.86452936      -0.15494426       0.13716730      -0.00601556
N        0.72613659      -0.39647024      -1.08539059       0.23805571      -0.24523881       0.15984078
N        5.13151048      -0.42882297      -0.26133567      -0.45226762      -0.10441106       0.16516681
C        2.12617515      -0.95846203      -0.56860907       0.29267493      -0.03277419      -0.18767621
C        2.90289971      -1.01778237       0.86422965      -0.06892358       0.24578792      -0.49053833
C        2.11527843      -2.41053489      -1.00340676       0.04806187      -0.01826577      -0.10755585
C        4.40701013      -1.33064266       0.49657655      -0.02810339       0.17386808      -0.25819513
H        2.83706068      -0.35133097      -1.10160718      -0.06231179      -0.08406916      -0.69342190
H        2.87672783      -0.09854169       1.45349838      -0.16890970       0.17922519      -0.41538766
H        2.63434489      -1.83303009       1.55495645      -0.29553285       0.21154556      -0.65090543
H        0.20187702      -1.19776230      -1.50191826       0.73389536       0.27825174       0.27605531
H        0.57983484       0.51353725      -1.98377823      -0.07639903      -2.60569644       3.45360756
H        4.79595202       0.46557836      -0.58231280      -0.33441135      -0.12898578       0.18269296
H        6.00066386      -0.73466224      -0.68013917      -0.21559750      -0.14218339       0.38664109
H        2.93880163      -3.70530133      -2.01698688       0.25620362       0.00326407       0.02801762
O        2.28262575       2.08610311      -0.93995808      -0.03950221       0.03731772      -0.09469073
H        1.36110395       1.94665903      -1.20773688      -0.11893310       0.18334104       0.21992649
H        2.24393571       2.95049446      -0.51864323       0.09171359       0.05210077       0.04705739
44
Properties=species:S:1:pos:R:3:forces:R:3 reactant=T mapped=T (centered)=T charge=0 spin=1 energy=-34153.70607665857 free_energy=-34153.70607665857 stress="3.017023758327024 2.1079524032626185 0.46953511467925113 2.1079524032626185 20.962531326152583 -6.927239691184935 0.46953511467925113 -6.927239691184935 13.053766320298221" pbc="F F F"
O       -3.27147304      -2.04144894      -1.08815884       0.20646589       1.09555781      -0.30911449
O       -2.52071646       0.56222366       1.31646446       0.16128333       0.35478660       0.93905509
O       -2.69934171      -4.26235816       0.76175064       0.14513202       0.84818816       0.66566294
O       -1.83321379       2.42881394      -0.16057802      -0.38603762      -0.25246173      -0.34173977
O        0.82415313       0.14606886      -3.21416829      -0.37108463      -0.37198317       0.83613747
O       -5.28917547       2.44909298       4.55713084      -0.05904416      -0.14848083       2.30492592
C       -2.95731526      -1.32375980       0.04375536      -0.63147777      -0.35844922       0.79716074
C       -2.25253054       0.03544212       0.06604057       1.53093588       1.04600215      -1.34635758
C       -2.46491629      -3.01699930       1.41562102      -0.70787263       0.41703662      -0.15938614
C       -2.40573089       1.35098727      -0.91893694       0.09106794      -1.06052804      -0.42018926
C       -1.24781808      -2.86699613       2.16074480       1.13354313      -0.11079565      -0.91315717
C       -0.06615660      -2.52885748       2.36065569      -1.44125509       0.97292829      -0.28670692
H       -3.78455640      -1.18077600       0.72828481      -0.55122817      -0.34053251      -0.20882466
H       -1.18535789      -0.16006565      -0.11254112      -0.53476918       0.33380559       0.41820917
H       -3.33090653      -2.68144280       1.97124746      -0.07304338      -0.34865132       0.15375647
H       -1.81422661       1.31678968      -1.83719653      -0.09551960      -0.77241266      -0.01245491
H       -3.42795714       1.55915314      -1.25103512      -0.03584795       0.14712845       0.71896011
H       -3.13029764      -1.50062068      -1.88521949       0.16273698      -0.39518631       0.24501520
H       -2.13726153       1.47640399       1.32720249      -0.45425269      -0.96667063       0.27575833
H       15.66449488      -0.67830135      -5.32998251       0.00000000       0.00000000       0.00000000
H       -5.98307675       2.18642393       5.21018542       0.30797374       0.17113636      -1.15658057
H       -3.33227701      -4.76797624       1.31391665       0.45373747       0.49979606      -0.53644288
H       -4.58273110       2.62220527       5.22426764      -0.26911318      -0.01563503      -1.13330746
H       -1.10442304       2.83776585      -0.64617212      -0.32526031      -0.14547531       0.18886864
O        0.83847820      -2.51819582      -0.13230816      -1.16263151       1.15058255      -0.16757253
O        0.71454898      -0.43254580      -1.13462130      -0.35807705      -1.65308857       2.62028337
O        4.30773657      -3.55854290       1.41291837       0.39249697      -0.04203006       0.75965565
N        0.36021059      -1.21760714       2.37569159       0.08923992      -0.04694054      -0.68021446
N        7.87962704      -1.39230341      -1.32073505      -0.58526057       0.08552103      -0.29647082
C        0.56678030      -0.58561613       1.27533778      -1.26684320       1.33683848       0.37965989
C        3.54626127      -1.97554596       3.14770946      -0.55437464       0.15912500       0.38942167
C        0.61881706      -1.13157567      -0.07444168       1.69901121      -0.62049991      -3.31169748
C        4.01447692      -2.81067444       2.26024348      -1.00804591      -0.19116342      -0.82516801
H        0.33685655       0.53999881       1.31558599       1.44779074      -1.58210504      -0.03938229
H        3.80065701      -0.92698257       3.00473026      -0.04230608      -0.29429376       0.23438084
H        2.62700482      -2.24515473       3.72975482       1.27371335       0.18995120      -0.67391199
H       -0.12699539       0.38422183      -3.19810567       0.39066127      -0.21385671       0.22641030
H       -5.79703420      21.57346627     -17.05038226       0.00000000       0.00000000       0.00000000
H        7.92769929      -0.38602760      -1.48386382       0.27364767       0.18983494       0.04656554
H        7.27446216      -1.69170610      -2.10523228       0.15830001      -0.15171733       0.34208104
H        0.04286188      -3.11200455      -0.15656341       0.98773509       1.23129988       0.20372289
O        1.91534706       3.44626600      -1.00128068      -0.27864608      -0.25413671      -0.62945503
H        1.22947508       2.77045141      -0.97603629       0.13869150      -0.10247999       0.32767212
H        2.25554058       3.30831032      -1.90168098       0.14782719       0.21005517       0.37477103
44
Properties=species:S:1:pos:R:3:forces:R:3 reactant=T mapped=T (centered)=T charge=0 spin=1 energy=-34176.195733314475 free_energy=-34176.195733314475 stress="2.774615373922023 10.336120483732687 0.5423758290756171 10.336120483732687 -2.113311388599282 -4.332934634530283 0.5423758290756171 -4.332934634530283 4.553434022917036" pbc="F F F"
O       -2.83807784      -0.28692574      -1.79999389      -0.21633258      -0.30483305      -0.01243614
O       -2.74672410       0.91715077       1.65029309      -0.27981678       0.09446614      -0.01176949
O       -1.74645957      -2.34983195      -0.16271557       0.44979084       0.46654651      -0.25461638
O       -4.08012339       3.09462549       0.57218785      -0.08014288       0.22424190       0.00347193
O       -0.39054115       1.28432142      -1.97967556       0.71222430       1.38570392      -0.18977481
O       -0.39002619       2.36757450       0.90954903       0.78103560      -0.17386568      -0.16915759
C       -2.94731070      -0.26672651      -0.39935081      -0.12832770       0.05841270       0.13912606
C       -2.82291322       1.09363551       0.22898184      -0.20615508       0.21315502      -0.13166280
C       -1.80402335      -0.97927953       0.18100058       0.17344011       0.24571869       0.32592440
C       -3.98493395       1.90609601      -0.19368821      -0.23597203       0.25700530      -0.03593156
C       -0.42709481      -0.11314884       0.10462227      -0.15387803      -0.34152135       0.28986442
C        0.17956874       1.04634558       0.89100188      -0.00222489       0.54517651       0.18887390
H       -3.85537778      -0.77198764      -0.05885274      -0.25426939       0.06439788       0.05458835
H       -1.90564142       1.55353272      -0.12661632      -0.11881745       0.10977449      -0.34185407
H       -1.89352379      -1.00840298       1.25930160      -0.28594476       0.21904212       0.23828441
H       -3.83527635       2.10257377      -1.25895964      -0.28037044       0.20509358      -0.03168328
H       -4.89069756       1.31619322      -0.04726416      -0.29568791       0.33813009       0.08941106
H       -3.61803596       0.10706247      -2.20288731       0.07362644      -0.01681179       0.03822235
H       -3.11457012       1.71257311       2.04813270      -0.25426370       0.16127762      -0.00352370
H        1.43488650       0.97679964       0.50762878      -4.06429052       1.01917899       1.97617877
H       -0.24833610       0.67371556       1.86197584       1.89000976      -0.19425800       0.05144791
H       -2.24040165      -2.55159838      -0.97171882       0.27507168       0.56373370      -0.05341677
H       -0.87177724       2.52592317       1.75681883       0.79368001      -0.63833320      -1.00802803
H       -3.33255302       3.65229257       0.32540290      -0.06807622       0.05529653      -0.01551323
O        2.95899784      -3.05546618      -1.03856968       0.50820285      -0.25130719      -0.15042064
O        0.87028309      -3.29479719      -0.48612534       0.37501088      -0.68842411      -0.04315453
O        4.77367885      -2.59246721       1.37153612       0.07213299       0.15210859      -0.09946807
N        0.42752048      -1.05743759       0.07493423       0.39810339      -0.16841124      -0.13484687
N        5.10939863      -0.79035212       0.03370041      -0.66639537      -0.10114196       0.22078957
C        1.87188973      -1.19220277       0.08968681       0.45576006      -0.20831728      -0.54676050
C        2.86403699      -1.15669491       1.33153871      -0.08978537       0.18458240      -0.45603302
C        1.85912053      -2.59731057      -0.50159707       0.44684219      -0.39267102      -0.20915759
C        4.33825268      -1.56417236       0.90243715       0.01838132       0.16425855      -0.34920913
H        2.19073202      -0.43330363      -0.61617004       0.73961204      -0.22791408      -0.43114546
H        2.87567034      -0.17406985       1.80844632      -0.06937101       0.12046704      -0.34057188
H        2.58069039      -1.86304870       2.12594712       0.11293551       0.02953715      -0.51725626
H        0.00780457      -1.91697128      -0.28421227       0.01837751      -0.42112294       0.49889833
H       -0.49288091       2.20808308      -2.39119997       0.15580824      -1.98227644       1.19171190
H        4.84876099       0.08057635      -0.40918442      -0.62424606      -0.15920623       0.36791298
H        5.95002586      -1.18422069      -0.38050360      -0.39440760      -0.26085508       0.62010878
H        2.64473513      -3.95196623      -1.25643922       0.75805253      -0.20561339      -0.34883523
O        2.54448407       1.95434626      -1.03580022      -0.20807421      -0.26903912       0.01354001
H        1.64694794       1.66465773      -1.32756366      -0.24965902       0.22170208      -0.47511643
H        2.49981481       2.91430391      -1.10603655       0.01841169      -0.09308495       0.05298804
44
Properties=species:S:1:pos:R:3:forces:R:3 reactant=T mapped=T (centered)=T charge=0 spin=1 energy=-34182.845614131016 free_energy=-34182.845614131016 stress="-0.8819270062328775 0.26574231355801625 0.3197048772928377 0.26574231355801625 -0.06509306513103053 -0.16292475090086608 0.3197048772928377 -0.16292475090086608 -0.18158765041093222" pbc="F F F"
O       -2.88053987       0.56041442      -1.80280657       0.00369365       0.01384175       0.00135042
O       -3.09407912       1.13103123       1.72197807      -0.02436895      -0.00073024       0.00032852
O       -1.72184479      -1.70800105      -0.97345747       0.00296861       0.01832820      -0.02009939
O       -4.96220593       3.00714892       0.93685133      -0.01865703       0.00138272      -0.00249945
O        0.07267579       0.37840245      -1.30238289       0.00377348      -0.00976671       0.04461344
O        0.89517426       2.09278363       0.42138136       0.03806652       0.00916739      -0.02040685
C       -2.93961913       0.16487704      -0.44203361       0.00038047       0.00505835       0.00274299
C       -3.25805223       1.41878158       0.34692222      -0.01316910       0.00460150       0.00231147
C       -1.71006945      -0.64983657      -0.00878184       0.00291837       0.00816938       0.00385852
C       -4.67258987       1.90110920       0.08558456      -0.01511203       0.00162868      -0.00322750
C       -0.29047095      -0.02612234       0.00272312      -0.00202003       0.01214518       0.00336273
C       -0.12739399       1.22426878       0.89685004      -0.01751707       0.00874861       0.02735460
H       -3.77433405      -0.53368567      -0.29622584       0.00199411      -0.00108786      -0.00458086
H       -2.57341208       2.21531932       0.02055820      -0.01264777       0.01118766       0.00902244
H       -1.91468021      -1.03053768       0.99700870      -0.00337633      -0.00118893       0.00429583
H       -4.80166515       2.14972337      -0.96855763      -0.01682686       0.00194030      -0.00364102
H       -5.37967439       1.11617980       0.35754118      -0.01462058      -0.00016313      -0.00394478
H       -2.90762685      -0.23967144      -2.33750534       0.02694426      -0.05288186       0.00089512
H       -3.56913740       1.81908520       2.20680301      -0.02404651      -0.00000489       0.00081749
H        0.18408357       0.89058143       1.87952646      -0.03352015      -0.01100218       0.08500960
H       -1.04669038       1.77950720       1.00446869      -0.04521035       0.04458005       0.01978304
H       -1.06337287      -2.38500214      -0.76336794       0.07828773       0.00222014       0.02503578
H        0.55266744       2.50101264      -0.38113607       0.02737570      -0.01954075      -0.11371360
H       -4.56661232       3.79967182       0.56050174      -0.01665432       0.00381547      -0.00187219
O        2.95274240      -3.06446968      -1.29252433      -0.00087731      -0.00380180      -0.00249991
O        0.90240028      -3.51795207      -0.52757484      -0.01118012       0.02044066      -0.05139164
O        4.94037492      -2.59850676       1.01359681       0.00659786      -0.00511190       0.00065299
N        0.57813755      -1.07799692       0.53965195       0.00621765       0.00584908       0.01331473
N        4.96348826      -0.65831601      -0.15196621      -0.00381512      -0.00949306      -0.00934492
C        1.87450184      -1.36513574      -0.02043643       0.00042169       0.00205684      -0.00963788
C        2.95882683      -1.25470688       1.07594850       0.00246599      -0.00793653      -0.01218930
C        1.83953260      -2.75865662      -0.63039640      -0.00623555       0.00730823      -0.02388519
C        4.38087874      -1.58096220       0.64634048       0.00147807      -0.00880689      -0.00572294
H        2.10121628      -0.67092497      -0.83193928       0.00292637       0.00469582      -0.00675118
H        2.90901998      -0.22943218       1.44782150       0.00581953      -0.00927034      -0.00716108
H        2.70473584      -1.92472856       1.89618287       0.00172224      -0.00889719      -0.01496492
H        0.09237549      -1.94000449       0.73612603       0.00691187       0.00391430       0.03392616
H       -0.41819350      -0.16925224      -1.92818019      -0.02897674      -0.04350150       0.01726791
H        4.47901444       0.18132675      -0.44662431      -0.00944885      -0.00844582      -0.00423422
H        5.88306887      -0.86004911      -0.50400202       0.00232913      -0.00566476       0.00318136
H        2.89535727      -3.99291897      -1.56424865      -0.00187942       0.00160652      -0.01919077
O        3.36047309       1.74513297      -0.81399286       0.01764745      -0.01506053       0.01522001
H        2.45681219       1.64483509      -0.46278755       0.02300438       0.03889020       0.05654000
H        3.69470658       2.51567747      -0.34343956       0.05621495      -0.00922004      -0.02992572
44
Properties=species:S:1:pos:R:3:forces:R:3 reactant=T mapped=T (centered)=T charge=0 spin=1 energy=-34183.213745206216 free_energy=-34183.213745206216 stress="-0.42819078120887943 -0.11962154821144892 -0.0020863112992490986 -0.11962154821144892 0.30086342522754694 -0.0020967909419716555 -0.0020863112992490986 -0.0020967909419716555 -0.19020908915401805" pbc="F F F"
O       -2.96253783       0.54993972      -1.70412281      -0.00194248       0.00040827       0.00352628
O       -3.08107293       1.08015641       1.83702558      -0.00306772      -0.00511909       0.00452932
O       -1.77973539      -1.83395815      -0.72378394       0.00435103      -0.00048398       0.00487510
O       -5.08397305       2.88526222       1.07900403      -0.01401730      -0.01203161       0.00814035
O        0.00728710      -0.08487091      -1.60131516      -0.00095625      -0.01216869      -0.00695374
O        1.04200430       2.02519601      -0.16484040       0.01493636      -0.01806600      -0.05353364
C       -2.96923939       0.12827321      -0.35070452      -0.00037426      -0.00111487       0.00297314
C       -3.32543495       1.35942788       0.47127060      -0.00655651      -0.00373064       0.00584771
C       -1.69801093      -0.63295711       0.04453819       0.00177453       0.00169060       0.00023278
C       -4.77444791       1.75975022       0.26034967      -0.00880672      -0.01008883       0.00792120
C       -0.30568003      -0.00540131      -0.22384483      -0.00338784       0.00453696      -0.00500145
C       -0.23580480       1.47179431       0.13004447       0.00052150       0.01374168      -0.02662112
H       -3.76843440      -0.60851676      -0.19151128       0.00294052      -0.00479071       0.00185543
H       -2.71486647       2.20638403       0.14241711      -0.01320156       0.00146217       0.00753162
H       -1.77617256      -0.84475032       1.11543330       0.00563764       0.00589178       0.00037953
H       -4.95868909       1.96140720      -0.79653794      -0.01074433      -0.01068623       0.00866134
H       -5.43202930       0.95423266       0.58972611      -0.00450733      -0.01304755       0.00811058
H       -2.83266888      -0.23106583      -2.25313063      -0.00220621       0.00184468       0.00168106
H       -3.55547200       1.75300091       2.34271108      -0.00630577      -0.00982783       0.00809056
H       -0.41400699       1.59534883       1.19670202       0.00781977       0.04074470      -0.02001972
H       -0.98291557       2.01190713      -0.44378690       0.00483639       0.02388520      -0.04114620
H       -1.04468121      -2.43027032      -0.49436644       0.00941545       0.00314265      -0.00050523
H        1.09315321       2.12518441      -1.12238596       0.01588677      -0.06698627      -0.02892287
H       -4.74206945       3.67861340       0.65440093      -0.01484603      -0.01052595       0.01178056
O        2.71303852      -2.85278835      -1.51898910      -0.00845320       0.01577467      -0.00900771
O        0.72158273      -3.23727247      -0.58801158      -0.00729451       0.01903404      -0.01095702
O        4.82045551      -2.85176065       0.71574338      -0.01010561      -0.01539394       0.00047151
N        0.66852807      -0.74170729       0.59930880       0.00244671       0.01807083       0.00425634
N        4.99625402      -0.76657300      -0.15228366      -0.00132667      -0.01294272       0.00502010
C        1.89583247      -1.19677651      -0.01468187       0.00066779       0.01052842       0.00448377
C        2.98576760      -1.34433272       1.06511676      -0.00193904      -0.00482316       0.00606496
C        1.69299539      -2.52598115      -0.73040271      -0.00568280       0.01596134      -0.00582122
C        4.35689225      -1.74066285       0.53511939      -0.00466576      -0.01175985       0.00366961
H        2.22466659      -0.47423675      -0.75918692       0.00810122       0.01381741       0.01199398
H        3.04567579      -0.37728190       1.56433927       0.00656995      -0.00856528       0.01376276
H        2.68815537      -2.09656715       1.79541731      -0.00553228      -0.00840234       0.00040299
H        0.23414784      -1.51051465       1.09343126       0.00471796       0.02268198       0.01617782
H       -0.45479630      -0.86387890      -1.94392790       0.00218057      -0.00025570      -0.00831294
H        4.64673117       0.18391069      -0.16630881       0.00605732      -0.00728613       0.01542822
H        5.91164570      -0.97242117      -0.51299118      -0.00199469      -0.01705395       0.00601827
H        2.57109622      -3.75657651      -1.84001735      -0.01265548       0.01876056      -0.01570062
O        3.74427779       1.86880326       0.11352904       0.01314464      -0.00551999       0.04338516
H        2.77171551       1.87481507       0.19390528       0.01288126       0.02583548       0.01637637
H        4.06083625       2.50771516       0.75759734       0.02568313       0.01285795      -0.00114544
44
Properties=species:S:1:pos:R:3:forces:R:3 reactant=T mapped=T (centered)=T charge=0 spin=1 energy=-34183.154093374826 free_energy=-34183.154093374826 stress="-0.01031591170301195 0.053903465826670806 0.05814031501496352 0.053903465826670806 0.1451799839993334 0.06323947613758536 0.05814031501496352 0.06323947613758536 -0.05537346080573487" pbc="F F F"
O       -2.96959004       0.34830858      -1.61454166       0.00108177      -0.00334525       0.00225699
O       -2.96238004       1.27970828       1.85540846      -0.00289990       0.00131044       0.00165732
O       -1.89495264      -1.99672405      -0.17194966       0.00272052      -0.00119440       0.01055888
O       -5.02203211       2.95755088       1.03084742      -0.00604786      -0.00428851      -0.00073858
O       -0.20184199      -0.60591792      -1.64675716      -0.00033955      -0.00512276       0.00098181
O        1.07820228       1.71529079      -0.76981571      -0.00508566       0.00143075      -0.02109874
C       -2.95509222       0.07861538      -0.22190986       0.00114724      -0.00117839       0.00256865
C       -3.26504391       1.39894020       0.47721878      -0.00192538      -0.00075985       0.00139554
C       -1.69099716      -0.65367097       0.23254684       0.00226376       0.00164777       0.00380700
C       -4.72634959       1.77053658       0.29707936      -0.00234810      -0.00383050       0.00012820
C       -0.33589695      -0.15126077      -0.30523960       0.00058870       0.00205639      -0.00080402
C       -0.23392725       1.36630618      -0.29654910      -0.00106441       0.00294643      -0.00842337
H       -3.76143581      -0.62190435       0.03377536       0.00268929      -0.00260751       0.00335214
H       -2.66429057       2.19963870       0.02804406      -0.00333353       0.00021103       0.00135883
H       -1.65066583      -0.57669955       1.32442325       0.00326999       0.00686361       0.00393102
H       -4.96469068       1.87493783      -0.76310765      -0.00160004      -0.00511758       0.00012131
H       -5.35331838       0.98743570       0.72559890      -0.00059217      -0.00520548      -0.00010509
H       -2.56980236      -0.41220573      -2.05637963       0.00731839      -0.00206189       0.00364872
H       -3.45883506       1.97615659       2.30506224      -0.00543250       0.00016321       0.00100176
H       -0.38956317       1.73865570       0.71788321       0.00531767       0.00848349      -0.00922599
H       -0.97923112       1.77293732      -0.97753129      -0.00517699       0.00052453      -0.00545343
H       -1.04937737      -2.46785842      -0.25215362       0.00514254       0.00187695       0.00542813
H        1.03116883       2.57109343      -1.20600363       0.00671785      -0.00339894       0.00234557
H       -4.72248838       3.71845069       0.52386461      -0.00659293      -0.00357652       0.00021325
O        2.48539507      -2.76927102      -1.77231500      -0.00580548       0.01059580      -0.00999908
O        0.74544755      -3.30355759      -0.47107139       0.00287853       0.00431687       0.00115729
O        4.83162706      -2.84742951       0.34252005      -0.00848055      -0.00802801      -0.00009548
N        0.70409770      -0.70678051       0.57426099       0.00340142       0.00748928       0.00013781
N        4.97026885      -0.62517501      -0.08390969       0.00262404      -0.00767207       0.00863752
C        1.89804971      -1.22199434      -0.06322769       0.00213909       0.00438441       0.00022505
C        2.98245308      -1.46295322       1.00281846      -0.00143980      -0.00152817       0.00183769
C        1.62050563      -2.53260072      -0.78574080      -0.00017170       0.00634929      -0.00290499
C        4.35335440      -1.73121609       0.40079554      -0.00302031      -0.00619373       0.00275392
H        2.27481347      -0.49905014      -0.78477600       0.00466661       0.00546280       0.00320386
H        3.01459746      -0.56580485       1.61994237       0.00349316      -0.00392088       0.00534942
H        2.71552490      -2.31571839       1.62694575      -0.00482939      -0.00203910      -0.00144304
H        0.31435030      -1.43349600       1.16405117       0.00473831       0.01051140       0.00435090
H        0.42386573      -0.01965611      -2.08974549       0.01656444       0.01823111      -0.00112433
H        4.60765909       0.30087397       0.10295420       0.00277816      -0.00667823       0.00371992
H        5.88735967      -0.73574539      -0.48052308       0.00033810      -0.01142788       0.00488818
H        2.32024658      -3.66598668      -2.10208753      -0.00656745       0.01178564      -0.01245284
O        3.51765484       1.89131295       0.64943638      -0.00648516      -0.00690306      -0.00541251
H        2.60798623       1.81235429       0.31178982      -0.00248907      -0.01259094       0.00429190
H        3.43717420       2.16357328       1.56806703      -0.00015164       0.00202899      -0.00602681
44
Properties=species:S:1:pos:R:3:forces:R:3 reactant=T mapped=T (centered)=T charge=0 spin=1 energy=-34183.198662423376 free_energy=-34183.198662423376 stress="0.29685229124694923 0.2664576733902555 0.08039777916288551 0.2664576733902555 0.346714727079135 0.03997689557899203 0.08039777916288551 0.03997689557899203 -0.165552107171223" pbc="F F F"
O       -2.99085336       0.29543930      -1.58279308      -0.00133085      -0.00621254       0.00460488
O       -2.92277460       1.33949242       1.86012305      -0.00172192       0.00432829       0.00256504
O       -1.81630413      -1.95690737      -0.06157325       0.01332153       0.00604176       0.01534199
O       -5.01052460       2.96842940       1.01904567      -0.00585184      -0.00444909      -0.00132125
O       -0.16148433      -0.64405765      -1.66394232       0.00720907      -0.00079153      -0.00145903
O        0.91226023       1.79245624      -1.28628811      -0.02246411       0.01462139      -0.06412329
C       -2.91452086       0.08923452      -0.18196988       0.00550556       0.00090661       0.00547212
C       -3.23610411       1.42500812       0.48014075       0.00027666       0.00151420       0.00215942
C       -1.61318449      -0.59033620       0.25382226       0.01111161       0.00953231       0.00354230
C       -4.70405468       1.77200373       0.30432745      -0.00034973      -0.00367773      -0.00015865
C       -0.29464090      -0.08444878      -0.37210929       0.00595191       0.01171020      -0.00769729
C       -0.23234833       1.43496047      -0.52320101      -0.00077124       0.01219807      -0.02720796
H       -3.69003294      -0.62090735       0.13528069       0.01066327      -0.00226692       0.01195816
H       -2.64886694       2.22329233       0.01186302      -0.00197259       0.00295712       0.00264115
H       -1.53396688      -0.45130285       1.33833044       0.01513341       0.01781532       0.00263809
H       -4.95224060       1.85453744      -0.75536758       0.00100223      -0.00531696      -0.00011063
H       -5.31771963       0.98891230       0.75198438       0.00207408      -0.00560725      -0.00083940
H       -2.59099368      -0.47419549      -2.00822713       0.00065802      -0.00629553       0.00624735
H       -3.42840537       2.03793720       2.29611724      -0.00517221       0.00292615       0.00110774
H       -0.24545566       1.90774530       0.46244365       0.01847959       0.02451596      -0.03080982
H       -1.09289565       1.75885307      -1.10040048      -0.01634744       0.00180624      -0.01301563
H       -0.97170732      -2.42786169      -0.14758950       0.01391251       0.00721474       0.01516215
H        1.63282105       2.06260093      -0.70323560       0.07208844      -0.06507433       0.05637629
H       -4.71449870       3.72279731       0.50010890      -0.00630779      -0.00364452      -0.00000886
O        2.40383012      -2.76494126      -1.81964375      -0.01111931       0.00780974      -0.01037120
O        0.73319251      -3.24492067      -0.40947303       0.00074334       0.01075328       0.00650641
O        4.93701930      -2.78180243       0.25767543       0.00352779      -0.00221825      -0.00299289
N        0.81856163      -0.53285550       0.52088097       0.01579842       0.02584722      -0.00623861
N        4.97629891      -0.53990549      -0.06921454       0.00426345      -0.00152091       0.00581153
C        1.95304483      -1.18111779      -0.11743140       0.00830042       0.00857188      -0.00579871
C        3.01759718      -1.51229116       0.95079614       0.00260282      -0.00465671      -0.00372818
C        1.59249662      -2.49152429      -0.79841866      -0.00219758       0.00976579      -0.00317500
C        4.40335432      -1.69645084       0.35362398       0.00298928      -0.00326346      -0.00133111
H        2.37691622      -0.50975800      -0.86293085       0.01565849       0.00285566      -0.00688990
H        3.04482409      -0.69366965       1.66929091       0.00714243      -0.01318081       0.00758232
H        2.75192626      -2.42496554       1.48315585      -0.00140154      -0.00939555      -0.01411495
H        0.44955000      -1.16326141       1.22655728       0.01861052       0.03934076       0.00965398
H        0.38355330      -0.02317357      -2.17085467      -0.00409051       0.00526281      -0.00915197
H        4.52547271       0.35075415       0.07055299      -0.00315782      -0.00362268      -0.00468311
H        5.88272536      -0.58525395      -0.50079126       0.00184013      -0.00044729       0.00055709
H        2.20173032      -3.66131912      -2.12931574      -0.01586513       0.00870669      -0.00987680
O        2.87898264       1.70451377       0.76609861      -0.07062810      -0.02557896       0.00417918
H        2.15142605       1.09668658       1.00043114      -0.05030596      -0.08429702       0.07978322
H        3.05599410       2.23157347       1.55211934      -0.03780948       0.01451611      -0.01878605
44
Properties=species:S:1:pos:R:3:forces:R:3 product=T mapped+aligned=T onto=T reactant=T charge=0 spin=1 energy=-34183.27674677127 free_energy=-34183.27674677127 stress="-0.1628143535729272 0.021808523606721242 -0.005508275679953656 0.021808523606721242 -0.28457523381270045 -0.039843835106814225 -0.005508275679953656 -0.039843835106814225 -0.08673663237611313" pbc="F F F"
O       -3.02263457       0.14001311      -1.52297835      -0.01353844      -0.00431241      -0.01016568
O       -2.66286620       1.63214058       1.72114265      -0.00020726       0.00258598       0.01270368
O       -1.80354780      -1.95188070       0.12903018       0.00506086      -0.01068108       0.02495424
O       -4.88044587       3.10609163       0.91042240      -0.00467866       0.00645569      -0.00417468
O       -0.21848959      -0.75810575      -1.64197166       0.02707716      -0.00151180      -0.00891216
O        1.04656824       1.66884174      -1.27364369       0.00150985       0.00611969      -0.00888473
C       -2.88129937       0.09758251      -0.11442301      -0.00433693      -0.00357598      -0.01246332
C       -3.14334863       1.51198673       0.39214474       0.00541980      -0.00171770       0.01694334
C       -1.57717633      -0.56431974       0.32971956      -0.00374359      -0.01635036      -0.00711017
C       -4.62955605       1.81785416       0.35330165      -0.00348204       0.01170100       0.00502547
C       -0.27684095      -0.13617373      -0.37077059       0.00334917      -0.01132641      -0.01397968
C       -0.15911913       1.36945294      -0.58814975       0.01017190       0.00269948      -0.01317776
H       -3.65325975      -0.55202417       0.32173861       0.00953787      -0.00370652      -0.00218484
H       -2.63474573       2.23267355      -0.25937071       0.00112209      -0.01334863       0.00363290
H       -1.45639249      -0.34509918       1.39672653       0.00646309       0.00090658      -0.00466758
H       -5.00855298       1.73081338      -0.66703148      -0.00232478      -0.00019060       0.00216123
H       -5.15900921       1.10801965       0.99046200      -0.00552126      -0.00789398      -0.00719525
H       -2.66548046      -0.68775784      -1.87024176      -0.00589094       0.00518953      -0.00165212
H       -3.13644759       2.37766891       2.11325576       0.00196086       0.00742503      -0.00214862
H       -0.23863695       1.89813576       0.36548948       0.01117839       0.00636798      -0.01421584
H       -0.97059802       1.67672652      -1.24377051      -0.00988942       0.00853370       0.01091468
H       -0.97787537      -2.42404258      -0.06499123       0.00546201       0.00599852       0.01192316
H        1.74216295       1.81415446      -0.61374676      -0.01622294       0.00320421       0.00538011
H       -4.66295014       3.77455019       0.25320980      -0.00637916       0.00360597       0.00188423
O        2.27213234      -2.73518127      -1.98786183      -0.00834031      -0.00882698      -0.00385330
O        0.74293564      -3.28778935      -0.44620081      -0.01381116      -0.02094723      -0.01149914
O        5.07918640      -2.50930870      -0.09819861       0.02184050      -0.01935256      -0.00646827
N        0.84024531      -0.60729434       0.50447240      -0.00012636      -0.00265860       0.00692264
N        4.90689596      -0.25641443       0.09023504       0.00906792       0.00840852      -0.00423006
C        1.96821766      -1.23353696      -0.17658496      -0.00740217      -0.01331982      -0.00212436
C        3.06310554      -1.60773069       0.84958491       0.00298323      -0.00274180      -0.00255532
C        1.56149831      -2.51503979      -0.88324078       0.00224325       0.01380454      -0.01144268
C        4.45252959      -1.52700259       0.23959948      -0.01249108       0.00819888       0.00904815
H        2.36997231      -0.53585697      -0.90994445      -0.00193195      -0.01411676       0.00363775
H        3.00202097      -0.91585832       1.68874106      -0.00975265      -0.00754629       0.00393107
H        2.91081976      -2.61914383       1.22283040       0.00207832      -0.00041483       0.00696113
H        0.47939586      -1.27181414       1.18291251      -0.01536951       0.00145788      -0.00603720
H        0.31965860      -0.18711429      -2.20909324       0.00520789       0.01940767       0.00564424
H        4.36567540       0.53214213       0.41106198       0.01323984      -0.00589861      -0.00104087
H        5.80345480      -0.11598434      -0.34152259       0.00067307       0.00079845      -0.00130928
H        2.02736417      -3.60827992      -2.33122836      -0.00763334      -0.00159219       0.00472783
O        2.55710305       1.51219602       1.10940138       0.01382915       0.02226160       0.00677428
H        1.84499002       0.83225257       1.19054985       0.01517909       0.02347058       0.00834838
H        2.46334031       2.11945707       1.84893175      -0.02158108       0.00343004       0.00997452
