44
Properties=species:S:1:pos:R:3 reactant=T mapped=T (centered)=T charge=0 spin=1 pbc="F F F"
O       -3.27147304      -2.04144894      -1.08815884
O       -2.52071646       0.56222366       1.31646446
O       -2.69934171      -4.26235816       0.76175064
O       -1.83321379       2.42881394      -0.16057802
O        0.82415313       0.14606886      -3.21416829
O       -5.28917547       2.44909298       4.55713084
C       -2.95731526      -1.32375980       0.04375536
C       -2.25253054       0.03544212       0.06604057
C       -2.46491629      -3.01699930       1.41562102
C       -2.40573089       1.35098727      -0.91893694
C       -1.24781808      -2.86699613       2.16074480
C       -0.06615660      -2.52885748       2.36065569
H       -3.78455640      -1.18077600       0.72828481
H       -1.18535789      -0.16006565      -0.11254112
H       -3.33090653      -2.68144280       1.97124746
H       -1.81422661       1.31678968      -1.83719653
H       -3.42795714       1.55915314      -1.25103512
H       -3.13029764      -1.50062068      -1.88521949
H       -2.13726153       1.47640399       1.32720249
H       15.66449488      -0.67830135      -5.32998251
H       -5.98307675       2.18642393       5.21018542
H       -3.33227701      -4.76797624       1.31391665
H       -4.58273110       2.62220527       5.22426764
H       -1.10442304       2.83776585      -0.64617212
O        0.83847820      -2.51819582      -0.13230816
O        0.71454898      -0.43254580      -1.13462130
O        4.30773657      -3.55854290       1.41291837
N        0.36021059      -1.21760714       2.37569159
N        7.87962704      -1.39230341      -1.32073505
C        0.56678030      -0.58561613       1.27533778
C        3.54626127      -1.97554596       3.14770946
C        0.61881706      -1.13157567      -0.07444168
C        4.01447692      -2.81067444       2.26024348
H        0.33685655       0.53999881       1.31558599
H        3.80065701      -0.92698257       3.00473026
H        2.62700482      -2.24515473       3.72975482
H       -0.12699539       0.38422183      -3.19810567
H       -5.79703420      21.57346627     -17.05038226
H        7.92769929      -0.38602760      -1.48386382
H        7.27446216      -1.69170610      -2.10523228
H        0.04286188      -3.11200455      -0.15656341
O        1.91534706       3.44626600      -1.00128068
H        1.22947508       2.77045141      -0.97603629
H        2.25554058       3.30831032      -1.90168098
