47
Properties=species:S:1:pos:R:3:energies:R:1:forces:R:3:charge:R:1 energy=-2292.0907177128265 free_energy=-2292.0907177128265 dipole="-0.3915906316978537 1.292411507938832 0.30684197398768204" pbc="F F F"
O       -2.62780436       0.34485710      -1.29541174    -113.34527987      -0.00409577      -0.00272643       0.00352892      -0.47228783
O       -2.80034313       1.14533609       2.17858497    -113.28226171      -0.00388965      -0.00242976       0.00411259      -0.46038663
O       -1.35740141      -2.03650722       0.59235839    -112.99447289       0.00237286       0.00151154       0.00613450      -0.44616304
O       -5.26338870       2.25603023       1.52908656    -113.05655690      -0.00293469      -0.00160265       0.00056421      -0.43839052
O       -0.10742471      -0.52015713      -1.40397886    -113.48637603      -0.00383022       0.00004223      -0.00024594      -0.49258872
O        1.16292379       2.01514977      -0.42266867    -113.44105733      -0.00030539       0.00142045      -0.00035566      -0.46760974
C       -2.68726095      -0.06957397       0.04960624     -59.11549022      -0.00108333      -0.00121351       0.00381634       0.08740419
C       -3.22654182       1.14416635       0.83802781     -59.09880563      -0.00177905      -0.00144233       0.00349274       0.09238549
C       -1.36255852      -0.63277783       0.62768635     -59.14789640       0.00049465       0.00165478       0.00261505       0.07849305
C       -4.75982065       1.17341468       0.78039427     -59.24908310      -0.00157630      -0.00122104       0.00080031       0.05980855
C       -0.07865467      -0.09956348      -0.05671118     -58.90319583      -0.00091223       0.00139007      -0.00040183       0.18465176
C       -0.02233032       1.43721204       0.06998357     -59.32391634      -0.00132921       0.00163468      -0.00251842       0.04819480
H       -3.40870517      -0.89701753       0.14951478     -13.02465491       0.00028286      -0.00220620       0.00591307       0.04358859
H       -2.84838087       2.05465619       0.34186587     -13.13901068      -0.00055620      -0.00134967       0.00461469       0.02941525
H       -1.33921186      -0.36230920       1.68834373     -12.87362361       0.00213863       0.00378339       0.00211196       0.06936307
H       -5.09091068       1.20554314      -0.26260610     -13.20959102       0.00025397      -0.00049908       0.00030695       0.04019534
H       -5.15769878       0.27514627       1.25847465     -12.99576360      -0.00247773      -0.00139335      -0.00047983       0.06249482
H       -2.02332794      -0.25506660      -1.76105201     -11.31225404       0.00065825       0.00161168       0.00415116       0.32537605
H       -3.52488445       1.52779545       2.69617616     -11.27778229      -0.00489256      -0.00349861       0.00333887       0.31973030
H       -0.18806177       1.70032598       1.11921843     -13.22238830      -0.00337236       0.00304846      -0.00312998       0.03782694
H       -0.83943936       1.84992904      -0.52469478     -12.98255439      -0.00009556       0.00080545      -0.00478234       0.06243508
H       -0.97855431      -2.34461259      -0.24654716     -11.40133996      -0.00333457       0.00022962       0.00394554       0.32357175
H        1.86747739       1.87729149       0.23502764     -11.25719894      -0.00144839       0.00127090       0.00078776       0.32811457
H       -5.03387111       3.07957899       1.08362585     -11.56632866      -0.00223761      -0.00151961       0.00155413       0.29310803
O        2.30389773      -1.92197422      -2.42254729    -112.46320115      -0.00511621       0.00275871      -0.00274639      -0.36472233
O        0.98822331      -3.05787602      -1.01680824    -112.38226445      -0.00144364      -0.00057248      -0.00075617      -0.42526613
O        5.41482196      -2.07582566      -0.46083006    -112.28856171      -0.00053410       0.00186145      -0.00095271      -0.42334762
N        1.05919965      -0.70675675       0.66219972     -81.25059506       0.00020130       0.00232532      -0.00197428      -0.30752161
N        4.93856052      -0.02472455       0.34453428     -80.94180162      -0.00018235       0.00043705       0.00153379      -0.27916829
C        2.16672020      -1.10571860      -0.20636367     -58.83713989      -0.00076250       0.00125207      -0.00261258       0.03143915
C        3.29053595      -1.73968538       0.63745521     -59.32327171      -0.00104413       0.00037291      -0.00274222      -0.10522193
C        1.72262605      -2.13136115      -1.24768164     -58.91276402      -0.00070553       0.00297766      -0.00275590       0.36591798
C        4.66067145      -1.32387972       0.11053306     -59.19272604      -0.00014836       0.00055102      -0.00108024       0.28585539
H        2.53484276      -0.22344969      -0.73835940     -12.91063137      -0.00017356       0.00094295      -0.00283190       0.07246323
H        3.19794231      -1.40943514       1.67245864     -12.97243081      -0.00188881      -0.00118118      -0.00223488       0.07066924
H        3.21343356      -2.82723547       0.61359403     -13.05141996      -0.00100234       0.00034265      -0.00428566       0.07273580
H        0.71226188      -1.55407806       1.11557291     -12.25512754       0.00068437       0.00261226      -0.00080088       0.18509181
H        0.20817579       0.19532733      -2.00831152     -11.15192590       0.00040295      -0.00278028      -0.00141175       0.34592257
H        4.30549879       0.57072774       0.85665116     -12.04832462      -0.00056630       0.00003573       0.00134144       0.21221077
H        5.81461930       0.35054320       0.02299626     -12.24481108       0.00033966       0.00045770       0.00305025       0.19105258
H        2.05842240      -2.60973796      -3.06104362     -10.98110726      -0.00577430       0.00311457      -0.00340543       0.33623493
O        2.63412999       1.24451451       1.82703308    -114.99535090      -0.00139380       0.00094481      -0.00042819      -0.60628827
H        2.02504117       0.49264272       1.66038987     -11.46780131      -0.00070668       0.00064541      -0.00147129       0.31564347
H        2.43079889       1.59281959       2.69655652     -11.82472352      -0.00118071      -0.00078405       0.00032509       0.28512542
O        0.38104682       1.58415811      -3.03778202    -114.63781494       0.01743394      -0.00670947      -0.00194915      -0.58122763
H       -0.48117185       1.99399430      -3.14144480     -11.75285571       0.02178300       0.00291875      -0.01484159       0.29297021
H        0.85068672       2.07157017      -2.34520455     -11.49718451       0.01572768      -0.00982458       0.00315584       0.32070010
47
Properties=species:S:1:pos:R:3:energies:R:1:forces:R:3:charge:R:1 energy=-2292.139079538618 free_energy=-2292.139079538618 dipole="-0.2583229264104546 1.1427409148744119 0.09978855272209569" pbc="F F F"
O       -2.78453902       0.34808771      -1.17353489    -113.30914723       0.00056486      -0.00002802      -0.00041313      -0.47304393
O       -2.90588049       1.02350457       2.35631843    -113.26023723       0.00046902       0.00043077      -0.00060081      -0.46037297
O       -1.35012775      -1.99132078       0.70783374    -112.96794286      -0.00008326      -0.00022722      -0.00047053      -0.44255182
O       -5.29294911       2.26926945       1.67230329    -113.05031168       0.00031717       0.00015351      -0.00044792      -0.43897664
O       -0.27522120      -0.51209875      -1.44707614    -113.53668185       0.00056713      -0.00021362       0.00011629      -0.49237394
O        1.16539870       2.03401434      -0.38474260    -113.46286181       0.00012215      -0.00030039      -0.00025436      -0.46627392
C       -2.74528999      -0.06631666       0.16999128     -59.14185358       0.00022354      -0.00000131      -0.00039970       0.08759310
C       -3.26371422       1.12794404       0.99924106     -59.09609480       0.00024908       0.00010889      -0.00054324       0.09194579
C       -1.37503694      -0.58826970       0.67291978     -59.16386425       0.00004895      -0.00022182      -0.00017940       0.07904005
C       -4.78862854       1.22972359       0.86505289     -59.24828885       0.00022966      -0.00000491      -0.00028515       0.06038990
C       -0.13899269      -0.07373440      -0.11208652     -58.91083197       0.00021899      -0.00021489       0.00014060       0.18207234
C       -0.07396793       1.47059008      -0.02302699     -59.30868890       0.00025736      -0.00024208       0.00018577       0.04708233
H       -3.43778662      -0.91206117       0.31735705     -13.00556095       0.00007311       0.00010956      -0.00052901       0.04490900
H       -2.81553238       2.04471802       0.58003733     -13.16510962       0.00008866       0.00005097      -0.00079790       0.02823047
H       -1.28180691      -0.27546602       1.71829276     -12.85622804      -0.00015009      -0.00040115      -0.00012163       0.07030843
H       -5.05708113       1.35719019      -0.18819751     -13.18442882       0.00003189      -0.00026728      -0.00024496       0.04329547
H       -5.24808746       0.31416370       1.24543292     -13.00673827       0.00035900       0.00008072       0.00001045       0.06120023
H       -2.10640455      -0.15197604      -1.65730987     -11.33608601       0.00026778      -0.00042934      -0.00035005       0.32655183
H       -3.65866851       1.35611169       2.86740614     -11.30108624       0.00058076       0.00063278      -0.00057677       0.31898182
H       -0.34656566       1.76828845       0.99401488     -13.22099485       0.00060780      -0.00028706       0.00026781       0.03744209
H       -0.81481643       1.87336796      -0.71816477     -12.95555915       0.00004237      -0.00020399       0.00048517       0.06724859
H       -1.11468310      -2.33835807      -0.16634778     -11.40018341       0.00031233      -0.00005879      -0.00038390       0.32209798
H        1.79323733       1.88229955       0.34552780     -11.19250458       0.00031160      -0.00017736      -0.00043024       0.33236399
H       -5.00263036       3.11466324       1.31150588     -11.57985473       0.00018027       0.00006844      -0.00070100       0.29284283
O        2.15476401      -2.09210133      -2.51694191    -112.39806904       0.00061870       0.00070303       0.00027175      -0.35902451
O        0.87214944      -3.09232940      -0.98699962    -112.36751126       0.00066734       0.00000158      -0.00016755      -0.42277866
O        5.44450703      -1.63574210      -0.65939446    -112.29229836      -0.00000409      -0.00125869       0.00082627      -0.42383902
N        1.03535789      -0.68091572       0.54542342     -81.24612330       0.00007123      -0.00021457       0.00037614      -0.30615399
N        4.73019266       0.26184854       0.32358044     -80.96648906       0.00065936      -0.00085211       0.00032125      -0.28097622
C        2.09953770      -1.10108299      -0.36695555     -58.87362312       0.00029191      -0.00003697       0.00056262       0.02731019
C        3.29496573      -1.66090574       0.43594548     -59.30174871       0.00004444      -0.00023344       0.00074393      -0.10438162
C        1.61512443      -2.20123150      -1.31090300     -58.91110504       0.00053114       0.00022063       0.00017661       0.36247301
C        4.60731507      -1.03417944      -0.02810924     -59.18920103       0.00021969      -0.00084302       0.00063002       0.28546619
H        2.41702089      -0.24845968      -0.97299396     -12.83855490       0.00043366       0.00010700       0.00086197       0.08164694
H        3.15328329      -1.44643139       1.49530139     -12.97526033       0.00013773       0.00010852       0.00065983       0.07116968
H        3.36471448      -2.74204712       0.31193070     -13.05883607      -0.00037429      -0.00024162       0.00104487       0.07122446
H        0.70263196      -1.52362659       1.02067250     -12.22088413       0.00002900      -0.00027768       0.00022155       0.18858766
H        0.31298731       0.01195635      -2.04073087     -11.18026552      -0.00046389       0.00047285       0.00002646       0.34435083
H        4.05477210       0.72307013       0.91426163     -12.02232517       0.00076062      -0.00047748       0.00006277       0.21530238
H        5.56763972       0.75438328       0.06265578     -12.25014167       0.00077599      -0.00118989       0.00019137       0.19047265
H        1.87617260      -2.82004266      -3.09457262     -10.97933289       0.00078761       0.00085596       0.00001895       0.33528022
O        2.43109477       1.20077688       1.94446134    -115.02660231       0.00048699       0.00005680      -0.00024783      -0.61052413
H        1.88230411       0.43455158       1.65524566     -11.48528874       0.00033258       0.00009457       0.00011976       0.31427461
H        2.14111304       1.44896864       2.82356144     -11.82423202       0.00069769       0.00038174      -0.00030623       0.28573729
O        1.35395933       1.08768276      -2.91918905    -114.73718032      -0.00386426       0.00171392      -0.00071927      -0.59527949
H        1.07864536       1.64261790      -3.65028678     -11.83282913      -0.00651141       0.00128599       0.00184005       0.28719085
H        1.46433307       1.66231116      -2.14080819     -11.50003775      -0.00221788       0.00126646      -0.00099166       0.32246767
47
Properties=species:S:1:pos:R:3:energies:R:1:forces:R:3:charge:R:1 energy=-2292.1451616100494 free_energy=-2292.1451616100494 dipole="-0.2909698172986215 1.1783167248089894 0.15539837825344782" pbc="F F F"
O       -3.00579748      -0.57247436      -0.99374654    -113.19693313      -0.00018502      -0.00338620       0.00116895      -0.46543641
O       -2.67515829       1.52244236       1.95821755    -113.35541562       0.00034563       0.00162730      -0.00203964      -0.46569598
O       -1.16756548      -2.04228383       0.94039745    -112.96468478       0.00079660       0.00005747       0.00118697      -0.43888179
O       -5.15839305       2.47291329       1.16459208    -113.06102500       0.00005640       0.00016664      -0.00255020      -0.43936382
O       -0.35648782      -0.35787452      -1.35563904    -113.53214918      -0.00034758       0.00106479       0.00063495      -0.49038283
O        1.20174809       2.03919072      -0.10627622    -113.45806638       0.00008830       0.00036671       0.00139402      -0.46704247
C       -2.76077241      -0.32345120       0.36448052     -59.21420832       0.00004364      -0.00092671       0.00077278       0.08869672
C       -3.20391663       1.11398504       0.71770288     -59.06606135      -0.00003650      -0.00036966      -0.00131639       0.08637646
C       -1.32829320      -0.65227951       0.83532025     -59.15288427       0.00022378      -0.00002900       0.00086550       0.08173261
C       -4.73634093       1.18995585       0.75885456     -59.23347902      -0.00003850      -0.00049814      -0.00079949       0.06026585
C       -0.14861130      -0.04940909       0.00504522     -58.92223568      -0.00001049       0.00038380       0.00073089       0.17899412
C       -0.05667096       1.48699525       0.20388734     -59.28794689       0.00009865       0.00031483       0.00136624       0.04689121
H       -3.40302786      -1.01332465       0.93135330     -12.90489177       0.00026315      -0.00020585       0.00200813       0.05703304
H       -2.84966350       1.79707803      -0.07336529     -13.25814454      -0.00042340      -0.00151150      -0.00258393       0.01956605
H       -1.24070609      -0.27518006       1.85974842     -12.91179075       0.00007866       0.00026558       0.00076757       0.06411530
H       -5.14752960       0.90682880      -0.21479549     -13.18784679      -0.00047653      -0.00205674      -0.00023152       0.04357936
H       -5.11297858       0.50304962       1.52030219     -13.00235820       0.00035469       0.00061504       0.00048965       0.06174990
H       -2.16153062      -0.49353015      -1.46950368     -11.37515268      -0.00046309      -0.00152133       0.00071539       0.32665881
H       -3.34408518       2.09440408       2.36514398     -11.28016474       0.00059283       0.00253168      -0.00283228       0.31964200
H       -0.34883973       1.73609928       1.22719135     -13.13855338       0.00023886      -0.00004806       0.00148579       0.04810553
H       -0.76444360       1.95720277      -0.48190645     -13.05376769       0.00004382       0.00066086       0.00166894       0.05439298
H       -1.12389952      -2.43242225       0.05340589     -11.34231005       0.00020724      -0.00017681       0.00123592       0.32671291
H        1.82026359       1.81716229       0.61347121     -11.19280962       0.00021650      -0.00001104       0.00117166       0.33278603
H       -4.96531963       3.10478966       0.46287791     -11.58322348      -0.00032744      -0.00085395      -0.00365714       0.29220228
O        1.95449592      -1.96058021      -2.65372821    -112.40686787      -0.00105537       0.00065955      -0.00040090      -0.35971989
O        0.75493416      -3.01049041      -1.09085374    -112.37082465      -0.00090870       0.00064840      -0.00029617      -0.42248689
O        5.40746182      -1.46245756      -0.91150230    -112.29993215      -0.00035371      -0.00032642      -0.00113594      -0.42521558
N        1.06856806      -0.69185697       0.54195760     -81.21456866       0.00016803       0.00020498       0.00014983      -0.30700983
N        4.69304679       0.26646570       0.34241188     -80.96900350       0.00013884      -0.00042840      -0.00068118      -0.28117568
C        2.06360613      -1.07576543      -0.45797613     -58.88100546      -0.00024454       0.00020100      -0.00025362       0.02773029
C        3.29979374      -1.69183744       0.23670670     -59.29588230      -0.00016248      -0.00021911      -0.00075597      -0.10385964
C        1.49540191      -2.11914604      -1.41986217     -58.90425937      -0.00076749       0.00053663      -0.00030750       0.36234652
C        4.58139138      -0.97269520      -0.17664086     -59.19164289      -0.00013746      -0.00032877      -0.00088037       0.28516761
H        2.35728254      -0.19903898      -1.04102505     -12.83647527      -0.00022699       0.00025786      -0.00016173       0.08252712
H        3.18148469      -1.62115266       1.31806461     -12.98709418       0.00013846      -0.00050457      -0.00069540       0.07049750
H        3.39987366      -2.74486289      -0.02823848     -13.05992956      -0.00041387      -0.00017060      -0.00107466       0.07077348
H        0.75867643      -1.55625413       0.99729251     -12.18487139       0.00025111       0.00018828       0.00018915       0.19293934
H        0.22554550       0.19712086      -1.92417797     -11.17689388      -0.00028938       0.00115794       0.00080870       0.34411200
H        4.03520060       0.63081044       1.01477570     -12.01255887       0.00036683      -0.00047701      -0.00042306       0.21678259
H        5.51423560       0.80522953       0.12423031     -12.25461767       0.00018619      -0.00051918      -0.00073718       0.19007818
H        1.61701713      -2.65139338      -3.24552078     -10.98206616      -0.00138674       0.00085924      -0.00044753       0.33504028
O        2.47248425       1.00078819       2.13925231    -115.02412908       0.00084950      -0.00066184       0.00044302      -0.61201868
H        1.92316459       0.27394391       1.75944483     -11.49607034       0.00065183      -0.00043551       0.00027201       0.31366458
H        2.16472345       1.16151753       3.03243288     -11.83110989       0.00108965      -0.00097498       0.00058500       0.28547380
O        1.27788067       1.33799099      -2.72807920    -114.74066121       0.00010602       0.00130072       0.00123274      -0.59690941
H        1.08442261       1.97809768      -3.41416058     -11.84514732       0.00063985       0.00166424       0.00141666       0.28617414
H        1.44213913       1.82910564      -1.90366053     -11.50344666       0.00002023       0.00090783       0.00150134       0.32239035
47
Properties=species:S:1:pos:R:3:energies:R:1:forces:R:3:charge:R:1 energy=-2292.2173593542952 free_energy=-2292.2173593542952 dipole="-0.048126142907137466 0.8502731498151321 0.303870312559022" pbc="F F F"
O       -3.03506828      -0.88599746      -0.74836600    -113.19539723      -0.00153543      -0.00399539       0.00275259      -0.46202005
O       -2.67879628       1.65133135       1.83732934    -113.35274060       0.00176591       0.00360991      -0.00401618      -0.46522369
O       -1.16834051      -2.07171693       1.08802454    -112.96708828       0.00250842       0.00195703       0.00186205      -0.43611850
O       -5.08458435       2.57198153       0.80300867    -113.06220264      -0.00224235      -0.00064515      -0.00173234      -0.43921533
O       -0.44954505      -0.36523755      -1.23171357    -113.55984171      -0.00052311      -0.00342825      -0.00368473      -0.49692366
O        1.25913265       1.92790047      -0.04812481    -113.43383769       0.00457271      -0.00141380      -0.00674623      -0.46751990
C       -2.77059789      -0.38689495       0.53374125     -59.21104486       0.00051089      -0.00006642       0.00110600       0.09074653
C       -3.17583056       1.09437963       0.64297809     -59.08714546      -0.00054281      -0.00004317      -0.00219223       0.08609499
C       -1.32811419      -0.67911684       0.99701686     -59.10959295       0.00198602       0.00191144      -0.00045895       0.08275910
C       -4.70444509       1.22911026       0.60371402     -59.23110864      -0.00156566      -0.00084958       0.00003716       0.06054578
C       -0.17518213      -0.08083896       0.12313506     -58.90852250       0.00107201       0.00052148      -0.00360151       0.17979408
C       -0.00976812       1.44640347       0.33243057     -59.29883369       0.00187776       0.00217755      -0.00716820       0.04788673
H       -3.41317281      -0.95801017       1.21793922     -12.91173239       0.00205195       0.00163671       0.00389710       0.05785323
H       -2.76522933       1.64319409      -0.22236164     -13.26611055      -0.00242419      -0.00252377      -0.00496849       0.01929499
H       -1.21460164      -0.29595756       2.01493938     -12.97700591       0.00339439       0.00415200      -0.00104684       0.05970877
H       -5.08928192       0.82491442      -0.33762932     -13.19054370      -0.00304297      -0.00297948       0.00095332       0.04315111
H       -5.14065512       0.67321417       1.43676730     -13.00238920      -0.00010188       0.00074615       0.00207410       0.06183623
H       -2.25880218      -0.69433733      -1.30381002     -11.37120759      -0.00253929      -0.00375044       0.00090016       0.32530508
H       -3.32597458       2.31606824       2.11954030     -11.26942870       0.00144976       0.00383743      -0.00421128       0.32017944
H       -0.23272365       1.69625458       1.37224168     -13.16420103      -0.00052826       0.00553815      -0.00588345       0.04557006
H       -0.72602671       1.96398037      -0.30685590     -13.01703361       0.00254848       0.00344619      -0.01125394       0.05839660
H       -1.37277378      -2.45621202       0.22234182     -11.33526299       0.00036273       0.00000037       0.00342320       0.32330324
H        1.87857209       1.74958622       0.68018801     -11.24118302       0.00348861      -0.00111476      -0.00376312       0.32806605
H       -4.83064218       3.08978508       0.03054713     -11.57418170      -0.00366919      -0.00221770      -0.00348910       0.29301350
O        1.82180457      -1.47942427      -2.75784464    -112.68738538      -0.00186385      -0.00311760      -0.00194232      -0.38160946
O        0.93615371      -2.94732017      -1.32142501    -112.22142717      -0.00014023      -0.00280025      -0.00066917      -0.40657401
O        5.29201768      -1.24059927      -1.15745281    -112.36009448       0.00341871      -0.00123805       0.00085054      -0.42912995
N        1.04862904      -0.75896053       0.59131296     -81.16523990       0.00129401       0.00082524      -0.00261263      -0.30432589
N        4.71556994       0.30967219       0.37232149     -80.97874515       0.00158416      -0.00212284       0.00158073      -0.28108097
C        2.05205460      -0.99003771      -0.44311145     -58.84903577       0.00094368      -0.00158204      -0.00276044       0.03148834
C        3.31613262      -1.63062180       0.17160515     -59.32215675       0.00094803      -0.00215504      -0.00220937      -0.10582046
C        1.51759481      -1.91828476      -1.53077035     -58.85864041      -0.00084938      -0.00305301      -0.00145801       0.36228092
C        4.55317512      -0.85976066      -0.27828183     -59.18705927       0.00209954      -0.00169974       0.00023015       0.28381098
H        2.31016912      -0.03012814      -0.89798623     -12.91993662       0.00155685      -0.00248500      -0.00406216       0.06993975
H        3.24506015      -1.60459008       1.25830786     -12.96946310      -0.00028405      -0.00346486      -0.00190958       0.07269268
H        3.40953027      -2.66921485      -0.14564603     -13.05227019       0.00138864      -0.00192665      -0.00382646       0.07248939
H        0.75769571      -1.67164841       0.95425062     -12.20015594       0.00101496       0.00150539      -0.00121554       0.19342004
H       -0.00651388       0.29320730      -1.82355860     -11.21099491      -0.00098125      -0.00492290      -0.00739637       0.34099877
H        4.10184069       0.59721350       1.12013955     -12.00086693       0.00044728      -0.00230952       0.00110449       0.21751567
H        5.50253342       0.89012328       0.13551775     -12.24794016       0.00228418      -0.00206953       0.00307571       0.19017295
H        1.50854222      -2.10639613      -3.42864759     -10.98975389      -0.00243283      -0.00408820      -0.00117081       0.33504820
O        2.49935452       0.87325157       2.24156097    -115.01903904       0.00074449       0.00018118      -0.00071510      -0.61152983
H        1.92529218       0.17457291       1.85011898     -11.49995943       0.00068920       0.00029131      -0.00180496       0.31374263
H        2.20298659       1.01919429       3.14109003     -11.84448545       0.00142760      -0.00124672       0.00049453       0.28442210
O        0.91812645       1.34895949      -2.81599225    -114.67579628      -0.00411251       0.00649626       0.02021409      -0.58339872
H        1.31248049       1.84580518      -2.08510577     -11.53541119      -0.01634156       0.01043647       0.01445664       0.31697559
H        1.60703260       0.80460951      -3.20952207     -11.68386533      -0.00171017       0.01403959       0.03895694       0.30198691
47
Properties=species:S:1:pos:R:3:energies:R:1:forces:R:3:charge:R:1 energy=-2292.00333787352 free_energy=-2292.00333787352 dipole="0.2571526435828604 0.7108898880465275 0.10693787522693322" pbc="F F F"
O       -2.80423566      -1.09670647      -0.69121554    -113.11907755       0.00259957      -0.00240375      -0.00145493      -0.45337168
O       -2.99672818       1.60416486       1.74937615    -113.31738373       0.00039781       0.00148345      -0.00462070      -0.46522056
O       -1.09382595      -2.03521058       1.32084559    -112.99965147       0.00340567       0.00273609       0.00262476      -0.43855771
O       -5.18632193       2.36245132       0.23713827    -113.05577545      -0.00031008      -0.00277209      -0.00578359      -0.43978791
O       -0.42138578       0.15552279      -0.87296839    -113.32418214       0.00162537       0.00212411      -0.00413342      -0.46698413
O        1.11170914       2.14428026       0.45663579    -113.25423490      -0.00023526       0.00372183      -0.00974094      -0.45840543
C       -2.74682202      -0.48721341       0.56826207     -59.18428444       0.00210726      -0.00033190      -0.00201247       0.09319241
C       -3.22541719       0.97254515       0.51035724     -59.09878839       0.00102767      -0.00067769      -0.00419728       0.08644090
C       -1.35943618      -0.66197933       1.22384729     -59.12424114       0.00229266       0.00245374      -0.00121153       0.08282168
C       -4.72131365       1.03289514       0.17155229     -59.22995251       0.00071659      -0.00249215      -0.00448417       0.06081169
C       -0.17517688       0.08333070       0.51390196     -58.87014449       0.00198881       0.00242506      -0.00299353       0.17832293
C        0.01029089       1.51639329       1.06482994     -59.30176272       0.00235755       0.00362253      -0.00377951       0.05011952
H       -3.44554949      -1.04984856       1.20033901     -12.91943663       0.00241566      -0.00015795      -0.00100660       0.05905655
H       -2.66704190       1.49759345      -0.28550492     -13.23198314       0.00103426      -0.00124316      -0.00512695       0.02387751
H       -1.41655719      -0.28899283       2.25033900     -12.99860729       0.00163109       0.00531949      -0.00184045       0.05754491
H       -4.90444410       0.57938000      -0.80741964     -13.20497772       0.00106629      -0.00372275      -0.00430379       0.04161754
H       -5.28723028       0.48662402       0.92977457     -13.00574116       0.00092239      -0.00224640      -0.00374269       0.06168863
H       -2.06409584      -0.75048550      -1.21457311     -11.40004975       0.00185827      -0.00177604      -0.00239895       0.32295890
H       -3.72008545       2.23779568       1.87417039     -11.29172192      -0.00044722       0.00072130      -0.00538224       0.31964856
H        0.10993582       1.47690898       2.15289377     -13.27159996       0.00677049       0.00363415      -0.00324293       0.03158206
H       -0.86748405       2.11518786       0.82811933     -12.96287914       0.00045695       0.00378384      -0.00016125       0.06723254
H       -1.19462662      -2.42517636       0.43535752     -11.27578615       0.00662048       0.00041630       0.00294073       0.33121217
H        1.91182717       1.88276714       0.94027589     -11.31828620       0.00211559       0.00471332      -0.01212256       0.32177015
H       -4.79716260       2.86843543      -0.48536817     -11.58354060      -0.00014019      -0.00300087      -0.00610420       0.29306439
O        1.60509526      -1.33617547      -2.63658189    -112.51457508      -0.00372581      -0.01891221      -0.00380310      -0.36704809
O        0.45289373      -2.59121071      -1.19409031    -112.35816970      -0.00957525      -0.00428074       0.00633074      -0.41900675
O        5.03652286      -1.47930545      -1.46152822    -112.35750841       0.00397033       0.00087726      -0.00030874      -0.42845715
N        1.06083656      -0.66998103       0.81804589     -81.19977569       0.00255519       0.00248165      -0.00361187      -0.31128188
N        4.76535351       0.16215162       0.05929567     -80.97771378       0.00001676      -0.00258782       0.00323293      -0.28141175
C        1.93338529      -0.88853550      -0.32880291     -58.84921224      -0.00086430      -0.00327965      -0.00558560       0.03411148
C        3.20297592      -1.65566697       0.10022952     -59.31351899      -0.00029674      -0.00322022      -0.00555071      -0.10480622
C        1.22727024      -1.69642067      -1.41361120     -58.88410621      -0.00423177      -0.00718991      -0.00034812       0.36285499
C        4.43623928      -1.00891313      -0.52249053     -59.18067983       0.00125673      -0.00094870      -0.00046533       0.28484209
H        2.21177894       0.08387706      -0.74732155     -12.91986587      -0.00112139      -0.00493990      -0.01095688       0.06985400
H        3.29343469      -1.62793255       1.18571258     -12.95441282      -0.00276335      -0.00698537      -0.00509604       0.07357208
H        3.14661140      -2.69717308      -0.21669970     -13.07737031       0.00170165      -0.00236894      -0.00937825       0.06975756
H        0.76652217      -1.58457429       1.17534973     -12.20075644       0.00274410       0.00390920       0.00094196       0.19402540
H        0.08597215       0.89205541      -1.25307709     -11.21109809       0.00082825       0.00453212      -0.00375639       0.33373751
H        4.27609522       0.50947018       0.87157042     -12.00064410      -0.00271178      -0.00345209       0.00221576       0.21791453
H        5.57013280       0.66258455      -0.27855327     -12.25746799       0.00121481      -0.00212099       0.00655535       0.18936625
H        1.16416157      -1.88443247      -3.30446682     -10.98371948      -0.00719429      -0.02251904       0.00061171       0.33403825
O        2.88055148       0.81007951       2.25460259    -114.99082203       0.00312826       0.00349390      -0.00739969      -0.61144247
H        2.19662678       0.17935233       1.93246213     -11.50732301       0.00248967       0.00417604      -0.00787251       0.31379437
H        2.78211295       0.87929614       3.20534669     -11.87597403       0.00600403      -0.00008631      -0.00672816       0.28232432
O        1.17020996       1.38911503      -3.38872906    -114.42230655      -0.00904647       0.03386092       0.05109302      -0.57414863
H        1.97064660       1.78008112      -3.03309421     -11.82720975       0.01094185       0.03210130       0.03090964       0.28666212
H        1.45055953       0.80500191      -4.09663204     -11.79501889      -0.03759817      -0.01887100       0.05324947       0.29011234
47
Properties=species:S:1:pos:R:3:energies:R:1:forces:R:3:charge:R:1 energy=-2291.9849038220136 free_energy=-2291.9849038220136 dipole="0.41857140758833555 0.9224240515275052 0.33960780326180323" pbc="F F F"
O       -2.70855669      -1.04114410      -0.68771232    -113.07910210       0.00374860       0.00057738      -0.00212535      -0.44893049
O       -3.16921042       1.47947779       1.90914304    -113.32024932      -0.00252261      -0.00233853      -0.00022589      -0.46489250
O       -1.13055342      -2.10301119       1.33385031    -113.02151616       0.00333744       0.00018104      -0.00252402      -0.43949581
O       -5.21367812       2.31268683       0.22943799    -113.05793657       0.00022802      -0.00257814      -0.00407953      -0.43982319
O       -0.41510664       0.43942152      -0.54331837    -113.36973961       0.00042630       0.00726494       0.00298948      -0.46897910
O        0.91494461       2.23575095       0.99622949    -113.29844821      -0.00710854       0.00633889       0.00364156      -0.45968265
C       -2.76473941      -0.52122799       0.61159818     -59.17334618       0.00198850      -0.00066829      -0.00168439       0.09358287
C       -3.26327712       0.93330420       0.61262229     -59.08984072       0.00073331      -0.00107072      -0.00107298       0.08670699
C       -1.42838966      -0.73442229       1.35674574     -59.13661881       0.00150840      -0.00024883      -0.00068017       0.08284123
C       -4.72114134       0.99478090       0.13615361     -59.23126184       0.00165389      -0.00205188      -0.00405289       0.06064569
C       -0.22356842       0.10973593       0.81536135     -58.84345223       0.00079675       0.00235683       0.00159195       0.17801506
C       -0.07639094       1.43688303       1.59623708     -59.29022961      -0.00041097      -0.00017036       0.00633137       0.04658316
H       -3.50315820      -1.13515768       1.14208679     -12.91886749       0.00193341      -0.00175482      -0.00300605       0.05960733
H       -2.64173243       1.52344330      -0.08405753     -13.21209984       0.00164587       0.00034163       0.00096052       0.02612980
H       -1.57059534      -0.46602945       2.40754753     -13.01168869       0.00023707      -0.00202414      -0.00036394       0.05616381
H       -4.80410214       0.59353007      -0.87853387     -13.20244547       0.00417306      -0.00136618      -0.00456088       0.04208655
H       -5.34536552       0.40000044       0.80725102     -13.00426938       0.00078911      -0.00319529      -0.00582606       0.06177677
H       -1.94965481      -0.63721843      -1.13484953     -11.41893418       0.00407505       0.00125133      -0.00091619       0.32046790
H       -3.91197094       2.09543155       2.00381366     -11.29007751      -0.00315526      -0.00295630      -0.00125520       0.31975591
H        0.14267069       1.22454999       2.64551052     -13.28905473       0.00668606      -0.00368745       0.00426158       0.03054145
H       -1.01238854       1.99236950       1.54810047     -12.92895968      -0.00326404      -0.00414357       0.01391307       0.07315171
H       -1.19285093      -2.40707996       0.41062975     -11.25155456       0.00461754       0.00158661      -0.00318011       0.33306648
H        1.78005944       1.95063930       1.33646615     -11.30904407      -0.00378030       0.00832780      -0.00306318       0.32251053
H       -4.77787835       2.86020989      -0.43356602     -11.58338318       0.00115471      -0.00167707      -0.00275236       0.29288236
O        1.54862000      -0.80509309      -2.49539458    -112.57806928      -0.00708898       0.01160200      -0.00338849      -0.37163116
O        0.37025675      -2.26505850      -1.27483068    -112.34930729      -0.00609326       0.00950417      -0.00545224      -0.41797973
O        4.87778022      -1.47587962      -1.49465570    -112.34245217       0.00326237       0.00303778      -0.00041867      -0.42653700
N        1.01690538      -0.66781944       1.01644363     -81.22140372       0.00176418       0.00280308      -0.00180317      -0.31334140
N        4.76837744       0.13827573       0.07521051     -80.94869359       0.00046461      -0.00391271       0.00613812      -0.27862832
C        1.88399662      -0.75040512      -0.15361639     -58.83140870      -0.00096728       0.00281081      -0.00407693       0.03432947
C        3.12743735      -1.60362732       0.16670707     -59.32619059      -0.00305053      -0.00181193      -0.00795110      -0.10485375
C        1.16421153      -1.36396506      -1.35337792     -58.90940854      -0.00590620       0.00731914      -0.00431204       0.36272239
C        4.35140654      -1.00070531      -0.51522206     -59.17729277       0.00048206      -0.00041813      -0.00108495       0.28559394
H        2.19600911       0.26213535      -0.43127506     -12.94922565       0.00145930       0.00257520      -0.00263384       0.06552029
H        3.29097317      -1.61439157       1.24428980     -12.95475199      -0.00542525      -0.01019424      -0.00762782       0.07288276
H        2.98728239      -2.62902520      -0.17556305     -13.06736032      -0.00429674       0.00089753      -0.01566048       0.07130244
H        0.73057296      -1.61607142       1.27806370     -12.20406258       0.00248256       0.00268425      -0.00097534       0.19375839
H        0.05562632       1.27753724      -0.68867476     -11.23949079      -0.00131145       0.00910866       0.00705280       0.32582431
H        4.32415647       0.50083574       0.90567051     -12.02848998      -0.00384066      -0.00491325       0.00441366       0.21393711
H        5.56175897       0.62368818      -0.30813049     -12.24296780       0.00207532      -0.00322386       0.01046451       0.19053458
H        1.11251454      -1.21335765      -3.26184003     -10.89333030      -0.00913352       0.01526723      -0.00433093       0.34423924
O        2.92300401       0.78633355       2.39644100    -114.98783616       0.00494105       0.00627179      -0.01161292      -0.60898503
H        2.23709739       0.14438267       2.10923605     -11.49348483       0.00458891       0.00559369      -0.00965167       0.31412758
H        2.89790096       0.82143423       3.35408477     -11.86461301       0.01331557       0.00058003      -0.01115951       0.28260980
O        1.73068975       0.62802803      -5.55647641    -114.35690726      -0.00211975      -0.02770446       0.02520524      -0.57276360
H        2.38210498       0.54659554      -4.85578665     -11.81211273       0.00316945      -0.01081566       0.02503323       0.28939287
H        2.18276278       0.99263550      -6.32014788     -11.87392364      -0.00826315      -0.01535602       0.02151221       0.28323296
47
Properties=species:S:1:pos:R:3:energies:R:1:forces:R:3:charge:R:1 energy=-2291.863719928166 free_energy=-2291.863719928166 dipole="0.39848480451960183 0.7446329065864444 0.18185920356917615" pbc="F F F"
O       -2.74975678      -1.02505482      -0.52913930    -113.09583083       0.00390224       0.00216444      -0.00481231      -0.44958561
O       -3.27681963       1.41766840       2.12866806    -113.31390222       0.00130107      -0.00012481      -0.00255596      -0.46423535
O       -1.20528891      -2.13604753       1.46851116    -113.01629019       0.00120243      -0.00227277      -0.00474458      -0.43858712
O       -5.28070997       2.29367654       0.40380489    -113.05512668       0.00083759      -0.00020434      -0.00124332      -0.43959854
O       -0.47430655       0.47562015      -0.30906904    -113.37560379       0.00599002       0.00401067       0.00447615      -0.46979523
O        0.89644040       2.17766348       1.36264345    -113.30135249      -0.01134945       0.01301699      -0.00774844      -0.46141023
C       -2.83016426      -0.53727739       0.78193463     -59.16620400       0.00143637      -0.00035641      -0.00347368       0.09372896
C       -3.33437357       0.91402330       0.81338967     -59.09416661       0.00145081      -0.00009727      -0.00262914       0.08697885
C       -1.50402170      -0.76865097       1.53773819     -59.13238667      -0.00000030      -0.00212373      -0.00081950       0.08282876
C       -4.77831126       0.98094103       0.29689326     -59.23250592       0.00141876       0.00001628      -0.00287725       0.06072126
C       -0.29363185       0.09478134       1.04022700     -58.83944012       0.00091780       0.00097808       0.00475410       0.17819552
C       -0.15326866       1.39172726       1.87045124     -59.28711305      -0.00501554      -0.00089149       0.00990395       0.04899266
H       -3.57476184      -1.16665212       1.28511433     -12.91851539       0.00019426      -0.00147160      -0.00591960       0.05950678
H       -2.69723652       1.52850063       0.15300875     -13.21551440       0.00127425       0.00013133      -0.00267657       0.02580573
H       -1.65933852      -0.53668363       2.59508238     -13.00965578      -0.00228311      -0.00519050       0.00030822       0.05641620
H       -4.82878258       0.60138918      -0.72844814     -13.20261742       0.00172901       0.00125241      -0.00345069       0.04182538
H       -5.41891245       0.36800332       0.93545663     -13.00404607       0.00158054      -0.00108755      -0.00372783       0.06176595
H       -1.98498066      -0.60639740      -0.95213741     -11.41377140       0.00544965       0.00253424      -0.00232125       0.32063619
H       -4.02353893       2.02835521       2.22431228     -11.29045376       0.00044823      -0.00115548      -0.00223791       0.31956968
H       -0.00849720       1.14131363       2.92422503     -13.29729134       0.01075279      -0.01092267       0.01385185       0.02933460
H       -1.06678820       1.97871496       1.78094052     -12.95351395      -0.02136766      -0.00444076       0.02460605       0.06975355
H       -1.29373449      -2.41110142       0.53891348     -11.25303831       0.00608936       0.00056959      -0.00767238       0.33163196
H        1.73053402       1.84472763       1.73785713     -11.30743388       0.00092919       0.01769241      -0.01550752       0.32331223
H       -4.82725720       2.85788698      -0.23281895     -11.58433066       0.00012819       0.00077596      -0.00091769       0.29272330
O        1.57184017      -0.58421421      -2.26859153    -112.54394312      -0.00920640      -0.00369831       0.00383287      -0.37035949
O        0.39059598      -2.15060435      -1.19311513    -112.34307508      -0.00817455       0.00022351       0.01121661      -0.41817938
O        4.82731270      -1.49544875      -1.27559035    -112.29449576       0.00235327       0.00323724       0.00336431      -0.42243831
N        0.94005573      -0.69188310       1.22531860     -81.19872738       0.00330184       0.00332908       0.00695116      -0.31196636
N        4.73478797       0.13355572       0.28081214     -80.91162843      -0.00021972      -0.00174550       0.00834659      -0.27490945
C        1.84183586      -0.69460735       0.08010595     -58.84505904      -0.00005828      -0.00046496       0.00357495       0.03423452
C        3.06687316      -1.57989906       0.37750402     -59.32971891      -0.00037268      -0.00239301       0.00011231      -0.10516505
C        1.16590747      -1.23038886      -1.17967244     -58.89651541      -0.00641089      -0.00095233       0.00666894       0.36260847
C        4.30177444      -1.00274951      -0.30533814     -59.17771849       0.00102151      -0.00009910       0.00358379       0.28633288
H        2.16606711       0.33231122      -0.11872506     -12.94399072       0.00132480      -0.00139591       0.00046989       0.06683550
H        3.23866478      -1.60629380       1.45339860     -12.93794704      -0.00073002      -0.00810916       0.00020002       0.07444150
H        2.89559108      -2.59689250       0.02372789     -13.06177294      -0.00017303      -0.00066542      -0.00501145       0.07172888
H        0.65034359      -1.65649634       1.41192136     -12.20771363       0.00389312       0.00352799       0.01042125       0.19326883
H        0.01690707       1.30506045      -0.42676616     -11.25650112       0.00340084       0.00885324       0.00993828       0.32444520
H        4.30157005       0.49780267       1.11437410     -12.06869601      -0.00063658      -0.00531117       0.01014998       0.20839626
H        5.53703476       0.60512457      -0.10124837     -12.22319029       0.00108336      -0.00126239       0.01174402       0.19243596
H        1.19672987      -0.97687843      -3.07292043     -10.96566310      -0.01408578      -0.00392613       0.00580103       0.33693961
O        2.82009141       0.66255633       2.78497676    -114.94620278       0.00739963       0.00413901      -0.02582545      -0.60545491
H        2.14231385       0.02377489       2.48215311     -11.51116879       0.00395608       0.00493876      -0.03846925       0.31278638
H        2.75143850       0.72384524       3.73940526     -11.85346590       0.00749260      -0.00851916      -0.01794772       0.28350347
O        2.61018114       0.84547931      -8.60902221    -114.24594920      -0.00144816       0.00227213       0.00402273      -0.56604489
H        3.45625881       0.66466491      -8.19453793     -11.86465520      -0.00170314      -0.00289119       0.00416999       0.28360121
H        2.74814279       0.81845975      -9.55782659     -11.87581663       0.00097567      -0.00189028       0.00012044       0.28244368
47
Properties=species:S:1:pos:R:3:energies:R:1:forces:R:3:charge:R:1 energy=-2291.3885003500786 free_energy=-2291.3885003500786 dipole="0.2672446945427221 0.7261882681198192 0.4697367314419482" pbc="F F F"
O       -2.95116204      -1.20074906      -0.02429577    -113.16964924      -0.01982392      -0.00742542       0.01849738      -0.45617150
O       -3.42910736       1.47544957       2.40780591    -113.26272300       0.01080688       0.03368822      -0.01305993      -0.46144263
O       -1.29162403      -1.99145654       2.05116602    -113.00909872       0.00998288       0.01648721      -0.02239444      -0.43784617
O       -5.46126801       2.18304250       0.59889595    -113.05049290      -0.00458019       0.01171402      -0.00059400      -0.43972826
O       -0.77181111       0.28419831      -0.28056024    -113.39579211      -0.01243104      -0.04240720      -0.06640166      -0.48266367
O        1.40011492       1.68284383       1.77107510    -113.23018355       0.00576564       0.08340649      -0.03714819      -0.46246335
C       -2.93483364      -0.53113450       1.20590409     -59.14614687       0.00200707       0.02091468       0.00564407       0.09538297
C       -3.47321338       0.90051460       1.12153033     -59.12752036       0.00538440       0.02136931      -0.00905477       0.08647545
C       -1.54617804      -0.62150319       1.86756815     -59.07180432       0.01393319       0.02521932      -0.01579832       0.08338844
C       -4.91408789       0.88467360       0.59524472     -59.23403907       0.00215374       0.01445763      -0.00241106       0.06137929
C       -0.37213428       0.08942845       1.08027361     -58.88344106       0.00365441       0.02535048      -0.03760209       0.17470792
C        0.01863771       1.50152159       1.64272926     -59.25724207      -0.00622244       0.08714271      -0.09084094       0.05769572
H       -3.61423464      -1.10162898       1.85342111     -12.90746122       0.00751875       0.03563466       0.02778370       0.05868770
H       -2.84273830       1.48989318       0.43520212     -13.25136395       0.00517062       0.01440115      -0.01677345       0.02394872
H       -1.60761601      -0.18449432       2.86696125     -12.96507375       0.03061346       0.02494345      -0.01017446       0.06101192
H       -4.94259925       0.42732183      -0.39931386     -13.20168423      -0.00045370       0.01286259      -0.00223179       0.04133117
H       -5.54027189       0.29705017       1.27113747     -13.00152571       0.00786467       0.01172235       0.00106605       0.06197859
H       -2.25201069      -0.81490655      -0.57570879     -11.38623808      -0.01335398      -0.02844749       0.00330082       0.32560850
H       -4.19326543       2.06642173       2.47514216     -11.31798512       0.00314663       0.02365617      -0.01032112       0.31733474
H       -0.49207950       1.66986627       2.59883269     -13.27269479      -0.05467739       0.08022217      -0.09034112       0.03140920
H       -0.27828577       2.28733835       0.91515967     -13.09948636      -0.15392761      -0.38927460       0.44122740       0.04609165
H       -1.59869855      -2.44836947       1.25078689     -11.29817682      -0.04241038       0.01463666      -0.01739633       0.32276010
H        1.75674319       1.11039785       2.47500100     -11.34513286      -0.03956252      -0.00722174      -0.02988599       0.32421866
H       -5.00226368       2.71611786      -0.05999155     -11.59800628      -0.00822399       0.01354006      -0.00205544       0.29162424
O        1.74470751      -0.54211275      -2.20241897    -112.63647597      -0.02021792       0.00699451      -0.01418853      -0.38104972
O        0.52992893      -2.20472190      -1.32819935    -112.19522426       0.02118185      -0.03038357       0.02142641      -0.40603963
O        4.82560270      -1.61989961      -0.94263852    -112.29274511       0.01844041       0.00430964      -0.00120530      -0.42381847
N        0.76843769      -0.78519966       1.20202030     -80.78795654       0.03288252       0.03060130       0.01115460      -0.28285306
N        4.63348253       0.07408362       0.53285298     -80.85717665       0.02451916       0.00462056       0.00160472      -0.27087794
C        1.76028083      -0.73226399       0.15478364     -58.93392425       0.02281546       0.01346504      -0.00361350       0.03094358
C        2.94901592      -1.61722239       0.57646119     -59.32209592       0.01883191       0.01090727       0.00192359      -0.10480024
C        1.25420422      -1.25735056      -1.18562220     -58.88903491       0.00813760      -0.00698179       0.00366195       0.35512664
C        4.23210340      -1.08298949      -0.03669878     -59.18402965       0.02040490       0.00657504       0.00097820       0.28699327
H        2.08514083       0.30439549       0.02617264     -12.93062083       0.02789023       0.01288104      -0.01857772       0.07095312
H        3.01949601      -1.58913533       1.66392480     -12.90617670       0.01710378       0.01531278       0.00282268       0.07862950
H        2.78430795      -2.64627417       0.25487110     -13.05533744       0.01486678       0.00961257       0.00595958       0.07195697
H        0.44172885      -1.74356831       1.30992783     -12.22714524       0.05535729      -0.00411745       0.06170857       0.18973307
H       -0.15442128       0.91233691      -0.67378059     -11.49983423      -0.01495799      -0.05549547      -0.09356640       0.30388168
H        4.10388680       0.50762405       1.26960333     -12.12198384       0.01882230       0.01281468      -0.00664866       0.20065589
H        5.44314125       0.54690785       0.16986252     -12.21812216       0.02329350       0.00545030      -0.00236845       0.19282893
H        1.51280846      -0.94302821      -3.05491128     -11.02025818      -0.02677311      -0.00545010      -0.00947855       0.33326475
O        2.58909907       0.50900232       3.98137024    -114.62175396       0.00753985      -0.05732989      -0.00217303      -0.56797065
H        1.99412006      -0.18632482       4.27128401     -11.60168572      -0.01821565      -0.05039585       0.02813104       0.30005680
H        2.60816587       1.18204405       4.66579645     -11.62493161      -0.00407380      -0.01974694      -0.01187249       0.29766610
O        3.69620531       1.57281529     -12.60635860    -114.22968168      -0.03950768       0.02751092      -0.00401136      -0.56534557
H        4.41745740       1.38475832     -12.00361336     -11.87432853       0.02486496      -0.01625967       0.00556792       0.28275458
H        3.82989836       1.03769276     -13.39075396     -11.87501451       0.01445851      -0.01148782      -0.00026960       0.28259099
47
Properties=species:S:1:pos:R:3:energies:R:1:forces:R:3:charge:R:1 energy=-2286.6809584487755 free_energy=-2286.6809584487755 dipole="-0.13805792006864465 -0.04853331016471732 2.293537633992721" pbc="F F F"
O       -2.75000117      -1.25334439       0.10147847    -113.13039815       0.00461021       0.00279426      -0.00097615      -0.44407791
O       -3.80545703       1.08331961       2.69857859    -113.22810965      -0.00743071      -0.00185933      -0.00147926      -0.45694641
O       -1.35115242      -1.91363176       2.83106479    -112.95344701       0.00495870       0.01216311       0.00625443      -0.42521758
O       -5.63016124       1.80419458       0.63581977    -113.06406216      -0.01369800      -0.01237006       0.00427138      -0.44063794
O       -0.92372257       0.82771533       0.49270739    -113.40334637      -0.00417443       0.00736278      -0.00561999      -0.48119820
O        1.69733046       0.11964209       2.70565390    -112.45594530       0.02689303      -0.03785745      -0.00558489      -0.34568251
C       -2.95837708      -0.75870320       1.39319312     -59.12676191       0.00192281       0.00175267      -0.00081979       0.09220722
C       -3.66395517       0.61113613       1.37738984     -59.12193567      -0.00487768      -0.00156643      -0.00130390       0.08287259
C       -1.66137298      -0.69117901       2.24239094     -59.01690996       0.00176080       0.00916441       0.00039659       0.08510657
C       -5.03600349       0.52668115       0.69843679     -59.24632347      -0.00482263      -0.00864507      -0.00093574       0.06012844
C       -0.42386329      -0.14877715       1.43083020     -58.97106080       0.00074431       0.00964304      -0.00133945       0.19412528
C        0.46267554       0.54322622       2.40576419     -57.10315162      -0.00040423       0.01784143      -0.00177858       0.04466884
H       -3.61258155      -1.48209806       1.89343981     -12.84747764       0.00517155      -0.00182264      -0.00064599       0.06877486
H       -3.03803721       1.31773499       0.80777650     -13.10569397      -0.00812448       0.00146318      -0.00137859       0.03819257
H       -1.87262483      -0.00852261       3.06955684     -12.74278871      -0.00064310       0.01210542      -0.00242893       0.08164252
H       -4.93856605       0.07397503      -0.29418027     -13.21907413      -0.00244764      -0.00422101      -0.00270716       0.03946721
H       -5.70875920      -0.08331638       1.30526876     -12.99921412      -0.00026672      -0.01559285      -0.00265755       0.06289816
H       -2.23410214      -0.59774011      -0.38969990     -11.39641556       0.00241040       0.00512722      -0.00051873       0.31375018
H       -4.56874789       1.67807868       2.70074447     -11.33245491      -0.01227507      -0.00789557      -0.00135418       0.31534833
H        0.02256620       1.33635940       2.98581287     -13.27098602      -0.02229130       0.06544833       0.00248562       0.04753404
H        2.81813520       7.06405017      -5.25402342     -12.65827067      -0.00313577      -0.00583264       0.00710656      -0.19864029
H       -1.14669046      -2.55231100       2.13526104     -11.29001421       0.01166256       0.01092168       0.00906500       0.31462227
H        2.00479139       0.54946003       3.53232397     -10.76651329       0.01829002      -0.02823106      -0.00195908       0.35751070
H       -5.11625226       2.35900205       0.03744512     -11.59852929      -0.01754785      -0.00632593       0.00651250       0.29124795
O        2.11388492      -0.57579225      -2.21318193    -112.53064376      -0.00135140       0.00539295      -0.00029483      -0.36571670
O        0.22370254      -1.74014277      -1.93693784    -112.23629233      -0.00098758       0.00458470       0.00100632      -0.40243208
O        4.62093003      -1.80677454      -0.83641959    -112.26535239      -0.00390970      -0.00445301      -0.00685592      -0.41581123
N        0.21860149      -1.25206678       0.78179101     -80.73697203       0.00153631       0.00736114       0.00227912      -0.26586545
N        4.21866408      -0.14469983       0.62935915     -80.92729806       0.00463537      -0.01089681       0.00344571      -0.27630570
C        1.40720400      -0.95026941       0.00854746     -58.90375426       0.00169015       0.00302109       0.00049531       0.03234793
C        2.56972332      -1.87401229       0.43547771     -59.31416251      -0.00191869      -0.00372465      -0.00321414      -0.10627342
C        1.16299913      -1.14484019      -1.48153237     -58.93118203      -0.00060955       0.00475957       0.00043398       0.35236961
C        3.90816103      -1.29991925      -0.00407681     -59.13413910      -0.00022123      -0.00678718      -0.00213030       0.28882881
H        1.71648383       0.08879155       0.16011586     -13.02909399       0.00762888       0.00126482       0.00167459       0.05449860
H        2.53929745      -1.95004448       1.52210079     -12.80594057      -0.00185762      -0.00725190      -0.00340368       0.08860838
H        2.44114447      -2.86618316       0.00454710     -13.03273394      -0.00628001      -0.00168083      -0.00677176       0.07320947
H       -0.44166739      -1.76797847       0.20095490     -12.21229674       0.00121054       0.00474995       0.00389134       0.18911366
H       -0.19642527       1.38644078       0.19660092     -11.53103630       0.01287190       0.00754543      -0.02452774       0.29455461
H        3.64114793       0.21280098       1.37034265     -12.18365484       0.00982181      -0.01637509       0.01068793       0.19213448
H        5.08019819       0.32230661       0.40296002     -12.19309399       0.00775301      -0.01412252       0.00731221       0.19345562
H        2.01253906      -0.78529996      -3.15575850     -10.86102206      -0.00156945       0.00420426      -0.00019643       0.34203272
O        2.44148076       1.30043469       5.03390217    -114.86334026      -0.00202875      -0.00299617       0.00479216      -0.57432181
H        2.35113294       0.73425017       5.80405173     -11.47034308      -0.00721673       0.00372347       0.00982206       0.30476314
H        2.98098258       2.05263678       5.28700761     -11.48435384       0.00386886      -0.00256484      -0.00109140       0.30311247
O        4.72349141       1.76385874     -14.10340840    -114.20400956       0.00277697      -0.00219669      -0.00086844      -0.56487204
H        4.31291492       1.94385707     -13.25535408     -11.88744438       0.00172547       0.00295276      -0.00081273       0.28289682
H        4.12314880       1.20110079     -14.59622064     -11.89391384      -0.00385335      -0.00007795       0.00172254       0.28197522
47
Properties=species:S:1:pos:R:3:energies:R:1:forces:R:3:charge:R:1 energy=-2286.7046936289794 free_energy=-2286.7046936289794 dipole="-0.9380508370401043 -1.4284281251535038 3.9082265656211375" pbc="F F F"
O       -2.72425661      -1.38172439       0.12074849    -113.14222929      -0.00002891      -0.00113479       0.00232026      -0.44291680
O       -3.81825322       0.86382154       2.77074948    -113.25471192      -0.00231405      -0.00039745       0.00119279      -0.45607572
O       -1.69442323      -2.46059460       2.85822381    -113.02737367       0.00764192       0.00947974       0.00061095      -0.42990318
O       -5.47930351       1.75980685       0.62113810    -113.08725088      -0.00993112      -0.00658283       0.00926157      -0.44015410
O       -0.72307809       0.63062229       1.16051055    -113.44055739      -0.01023707       0.00114022      -0.01164486      -0.47652294
O        0.75767181       0.86504952       3.30522561    -112.63353370       0.00808856      -0.04799960       0.01581336      -0.36556958
C       -3.03855711      -0.99920136       1.43249041     -59.10642597       0.00146128       0.00154949       0.00134457       0.09056833
C       -3.63913282       0.41877892       1.44658126     -59.09069717      -0.00267688      -0.00034555       0.00110272       0.08633350
C       -1.85255493      -1.14478519       2.42517870     -58.99392581       0.00328976       0.00713625      -0.00166269       0.08008480
C       -4.97391550       0.44557855       0.68896370     -59.24497315      -0.00365531      -0.00434477       0.00337222       0.05933728
C       -0.49919323      -0.59933392       1.83287355     -59.03945057       0.00061170       0.00895183      -0.00504325       0.19667140
C        0.46624521      -0.40403853       2.95233281     -57.01805229      -0.00608762       0.02678170      -0.00806715       0.03804128
H       -3.80101903      -1.70892556       1.77519748     -12.85837337       0.00475807       0.00073692       0.00468334       0.06738521
H       -2.93677673       1.09582247       0.92845374     -13.13646288      -0.00565082       0.00154181       0.00009703       0.03318255
H       -2.11098762      -0.56043297       3.31335329     -12.82441319       0.00294518       0.00844381      -0.00306217       0.07624882
H       -4.84934022       0.00458576      -0.30609853     -13.21676116      -0.00300539      -0.00004106       0.00158602       0.03972964
H       -5.71868301      -0.13043060       1.24303169     -13.00084249       0.00003941      -0.00978133       0.00229432       0.06246465
H       -2.16447384      -0.70017039      -0.27690636     -11.38193932      -0.00105955      -0.00182071       0.00020032       0.31195454
H       -4.55202005       1.49422938       2.75708826     -11.31482022      -0.00584483      -0.00456283       0.00240355       0.31551331
H        0.78357439      -1.24644235       3.54175305     -13.28524579      -0.02863351       0.09491557      -0.02075801       0.05210834
H        6.70632593      16.08217125     -14.41670055     -12.45277846      -0.00057881      -0.00038450       0.00092108      -0.17779143
H       -1.46375396      -3.00814859       2.09601202     -11.29427951       0.00687145       0.00790421       0.00194874       0.31419576
H        1.42174488       0.89946226       4.02580941     -10.86416479      -0.00387639      -0.03138152       0.01614115       0.35239580
H       -4.91988513       2.28270931       0.03541054     -11.57660680      -0.01264984      -0.00141048       0.01140219       0.29149489
O        2.01351241      -0.67413117      -1.95821673    -112.54431522       0.00198372      -0.00003706      -0.00187667      -0.36573014
O        0.02648930      -1.68195682      -1.79905355    -112.24630721       0.00091901       0.00392925       0.00444397      -0.40180177
O        4.47135562      -1.91938345      -0.70586278    -112.24805991       0.00233758      -0.00738786      -0.00388987      -0.41260749
N        0.04728725      -1.59268922       0.93586642     -80.90713701       0.00619389       0.00823268       0.00292694      -0.28526691
N        4.04412410      -0.14512422       0.60539045     -80.88593488       0.00835170      -0.00806957      -0.00129646      -0.27167845
C        1.22513728      -1.13620821       0.22044118     -58.93076402       0.00593510       0.00379238       0.00072351       0.03002155
C        2.46075432      -1.96400851       0.62260699     -59.34524227       0.00296656      -0.00215492      -0.00259321      -0.10509098
C        1.00541315      -1.21418447      -1.28232282     -58.90649719       0.00265342       0.00321699       0.00130964       0.35583352
C        3.75158312      -1.36143941       0.08618832     -59.10833296       0.00463849      -0.00627928      -0.00253379       0.29049102
H        1.41094570      -0.07742312       0.44364674     -12.92333373       0.01130918       0.00221306       0.00099340       0.06293571
H        2.49948076      -1.99759359       1.71204271     -12.97593712       0.00384576      -0.00428543      -0.00288940       0.07064638
H        2.36114442      -2.98130021       0.24570268     -12.96623179      -0.00140774      -0.00085622      -0.00469425       0.07821191
H       -0.64665727      -1.92910144       0.26893008     -12.14000879       0.00787398       0.00148847       0.00589020       0.19666451
H       -0.54898926       1.33892501       1.79476329     -11.26659843      -0.00657643      -0.00967855      -0.04233972       0.32119691
H        3.42942744       0.33155949       1.23990221     -12.27209900       0.01103791      -0.01010654       0.00203369       0.18232115
H        4.84922936       0.34630461       0.25585471     -12.14711608       0.01039023      -0.01100537       0.00058176       0.19611641
H        1.89600246      -0.78605403      -2.91538970     -10.83497164       0.00052960      -0.00225310      -0.00120328       0.34206500
O        2.71378486       1.07652254       5.18039097    -114.84816867      -0.01682670      -0.00392047       0.00948085      -0.56985851
H        2.81546480       0.52678585       5.96101163     -11.46500079      -0.00164047      -0.00451181       0.00586848       0.30378058
H        2.92055417       1.97927548       5.43424495     -11.47354904       0.00589650      -0.01066305       0.00301484       0.30297319
O        4.64508990       1.47933220     -13.64680072    -114.22214453      -0.00354850      -0.00707616       0.00475995      -0.56462081
H        4.17889606       1.93793230     -12.94508765     -11.88191016       0.00093899       0.00402179      -0.00292857       0.28215038
H        3.98882662       1.19895728     -14.28776721     -11.87916338       0.00272096       0.00299664      -0.00224010       0.28247043
47
Properties=species:S:1:pos:R:3:energies:R:1:forces:R:3:charge:R:1 energy=-2290.582197634196 free_energy=-2290.582197634196 dipole="0.10674339802734203 0.7834159599111459 0.531459171581979" pbc="F F F"
O       -2.90534764      -1.85960575       0.16460223    -113.25103604      -0.00338383      -0.00674387       0.00095726      -0.45627501
O       -3.31123426       0.79325962       2.62703189    -113.17847370       0.00789299       0.00166668      -0.00170838      -0.45425302
O       -1.57777850      -3.00311799       2.28748143    -113.03652484      -0.00069808      -0.00870783      -0.00507602      -0.44718580
O       -4.72006823       1.94747646       0.45062099    -113.05468611       0.00130314       0.00081492       0.00804100      -0.44019029
O        2.26688013       6.59244123      -3.23786224    -114.27816978       0.26493487       0.19786376      -0.49548523      -0.56527126
O        1.05555698       0.91803184       1.97360458    -113.19500067       0.02342456      -0.01302070      -0.01490743      -0.43728473
C       -2.99703051      -1.26062821       1.43173261     -59.13818576       0.00123365      -0.00126408       0.00292532       0.08766374
C       -3.22621099       0.25355245       1.33066347     -59.12384139       0.00520739      -0.00005617       0.00011057       0.08877918
C       -1.74660385      -1.60405870       2.27651826     -59.26435764       0.00140682      -0.00464661      -0.00031937       0.08937383
C       -4.50748413       0.55726938       0.54160533     -59.22630427       0.00311741       0.00117110       0.00320562       0.06135698
C       -0.51476946      -0.90802541       1.72414606     -58.47953895      -0.00155289      -0.00890340       0.00617779       0.01148167
C       -0.00352574       0.13060955       2.38551012     -58.44079833      -0.00107724       0.00929754      -0.00232109       0.04681628
H       -3.86978315      -1.71486100       1.91418682     -12.96237391      -0.00064741       0.00153339       0.00424005       0.05887707
H       -2.36780753       0.70655195       0.79988277     -13.28895774       0.00569583      -0.00154019      -0.00211413       0.01823235
H       -1.91609354      -1.27632122       3.30506629     -12.99958666       0.00196070      -0.00798130       0.00033351       0.05845411
H       -4.45984175       0.08525309      -0.44588320     -13.21884503       0.00181534       0.00421848       0.00225158       0.03903560
H       -5.36975733       0.16119391       1.08282523     -13.00106676       0.00390628      -0.00261527       0.00294722       0.06252363
H       -2.07511669      -1.56543911      -0.24737933     -11.40067339      -0.00102861      -0.00680778      -0.00156809       0.31108299
H       -3.84464762       1.59862279       2.56065266     -11.33301937       0.00255868      -0.00067485       0.00014216       0.31587982
H       -0.47602762       0.43281790       3.30822935     -13.44146286      -0.02405748       0.03428192       0.01380683       0.02688866
H        2.72219328       6.87966136      -4.05513417     -11.82337364      -0.35148621      -0.46217597       0.72176883       0.28304467
H       -1.99420461      -3.34659705       1.48311609     -11.43802175      -0.01277518      -0.00579760      -0.00719488       0.31012706
H        1.50404442       1.23914495       2.77172202     -11.34477504       0.01379924      -0.00334619      -0.01140614       0.32486766
H       -4.03050230       2.33494714      -0.10062179     -11.59862758      -0.00344569       0.00495230       0.00473321       0.29124608
O        1.86382567      -0.75999626      -2.37579116    -112.55973579      -0.01729612      -0.02153149       0.00129178      -0.37145165
O        0.54591863      -2.50967930      -1.94059658    -112.15237440      -0.09411845      -0.17385680      -0.06896943      -0.39877294
O        4.39456878      -1.47068564      -0.79186382    -112.36714215       0.00548067       0.00158086      -0.00422999      -0.43083274
N       -0.12326863      -1.42459230       0.48050205     -80.50603002      -0.00656433       0.01156056      -0.00524514      -0.21254186
N        3.72550526       0.46321889       0.15265764     -80.88141832      -0.00329271      -0.00051721       0.01127081      -0.27259968
C        1.08662271      -0.97700943      -0.15756471     -59.06020030       0.00387259      -0.00637243      -0.02372232       0.02152025
C        2.37958170      -1.48071516       0.53295460     -59.18358112      -0.00326721      -0.00113972      -0.00364780      -0.10040694
C        1.11121280      -1.51745703      -1.57772345     -58.95500224       0.10767437       0.18816938       0.06416416       0.35547030
C        3.60545953      -0.85514693      -0.11159820     -59.20098741      -0.00723666       0.00818805       0.00747853       0.28621218
H        1.08525373       0.11450391      -0.18536147     -12.78280555       0.00314095       0.00572325      -0.00591832       0.08547867
H        2.33400164      -1.20140981       1.58492562     -12.98869285      -0.00217072      -0.00740613       0.00197514       0.07323901
H        2.44124392      -2.56684267       0.44861528     -13.13193120       0.00001672      -0.00352251      -0.00872764       0.06439885
H       -0.20224543      -2.43744410       0.45416413     -12.23400470       0.00199117      -0.00699177       0.00067995       0.18450089
H        2.39479777       5.64685097      -3.10396490     -11.86457682       0.08815351       0.26027815      -0.22683894       0.28222659
H        3.02648205       0.95157710       0.68672747     -12.12185659      -0.00355747      -0.00395855       0.01676214       0.20284439
H        4.46817652       0.98279167      -0.28345786     -12.23490170      -0.00243630       0.00412262       0.01811403       0.19092017
H        1.97128101      -1.17758255      -3.24545018     -10.91079289       0.00275067       0.00222473      -0.00363292       0.33873091
O        2.50053301       1.00981392       4.38095021    -114.59089095      -0.00436438       0.00632005      -0.00143402      -0.57270670
H        2.59630657       0.08238532       4.61000743     -11.66833628      -0.00087592       0.00585512       0.00452823       0.29547696
H        2.74588982       1.52120792       5.15444426     -11.69481129      -0.00470465       0.00983639      -0.00241700       0.29302206
O        3.40191497       0.93687300      -9.89632748    -114.24665634      -0.00598064       0.01926470      -0.11020487      -0.56460981
H        3.17210527       0.89222638      -8.96990586     -11.87103367       0.01642052      -0.01664990       0.19633282       0.28180465
H        2.57480434       0.93833945     -10.38075777     -11.85673387      -0.01173993      -0.00269565      -0.08714938       0.28280516
47
Properties=species:S:1:pos:R:3:energies:R:1:forces:R:3:charge:R:1 energy=-2284.6082828503304 free_energy=-2284.6082828503304 dipole="-0.5844511963346077 0.5379576161467359 3.865182415584745" pbc="F F F"
O       -2.97569360      -1.55808330       0.09274622    -113.28894937      -0.00013792       0.00134156      -0.00132815      -0.44334389
O       -2.99307232       0.93165709       2.75222047    -113.36596915       0.00079291      -0.00158690       0.00115670      -0.45662524
O       -1.65646448      -2.95667115       1.99103154    -113.12771237      -0.00070548      -0.00144190      -0.00268197      -0.44090990
O       -4.60307436       2.32416694       0.95436933    -113.10438088       0.00198274       0.00104564       0.00253682      -0.43494263
O        3.88222671       3.03189629      -7.34278837    -114.27223532      -0.00072917      -0.00298848      -0.00094280      -0.56843075
O        1.14508217       0.81801403       2.27895155    -113.00756046       0.00012503      -0.00228554       0.00034705      -0.39873351
C       -3.00095515      -1.05338513       1.40230621     -59.10533669       0.00000611      -0.00038448      -0.00077019       0.08556394
C       -3.11507710       0.47601697       1.42856628     -59.11687377       0.00009545      -0.00063156       0.00108332       0.08875931
C       -1.77165667      -1.57106775       2.19504169     -59.24342014      -0.00012134      -0.00163738      -0.00133958       0.08884825
C       -4.45998134       0.92929115       0.83775632     -59.24231847       0.00105281       0.00113672       0.00105595       0.06033500
C       -0.49926574      -0.86278453       1.76480816     -58.41420020       0.00002778      -0.00187351      -0.00111028       0.02896381
C        0.01869330       0.10117325       2.55555765     -58.27013102       0.00054882      -0.00199248      -0.00008221       0.06531529
H       -3.89615703      -1.48573902       1.86268041     -12.86603228      -0.00000866      -0.00081529      -0.00134951       0.06703985
H       -2.29473624       0.90227189       0.81887533     -13.30199590       0.00229176       0.00159486       0.00073651       0.01584297
H       -1.93959981      -1.38701976       3.25959155     -12.88983513       0.00007213      -0.00261690      -0.00115577       0.06605814
H       -4.55327257       0.58829040      -0.19862288     -13.21262877       0.00134707       0.00228310       0.00086089       0.03986445
H       -5.27326175       0.49900446       1.42722612     -12.94976761       0.00057165       0.00125932       0.00002680       0.06604200
H       -2.21394901      -1.19167352      -0.37907700     -11.31572924       0.00030639       0.00106291      -0.00067698       0.30706943
H       -3.52725590       1.73815719       2.82054059     -11.16543542       0.00138481      -0.00117041       0.00176645       0.32354557
H       -0.50347975       0.34997385       3.46677597     -13.18258070       0.00024855      -0.00284396       0.00008148       0.05290151
H       -4.82017211       5.07108641       7.36246612     -11.35710122       0.00259708      -0.00124430      -0.00130016      -0.06121242
H       -2.17095231      -3.18149068       1.20007926     -11.25635343      -0.00042540      -0.00046729      -0.00305782       0.31699253
H        1.45163562       1.23726148       3.10404539     -10.96154616      -0.00070606      -0.00104467       0.00025971       0.34463830
H       -4.01659311       2.76266753       0.32766414     -11.49788167       0.00209052       0.00126423       0.00285555       0.29453675
O        2.14027548      -0.57480571      -2.17177568    -112.49637353       0.00033516       0.00066304      -0.00046281      -0.35547151
O        0.53060961      -2.11574612      -1.95307633    -112.28901766       0.00000715       0.00089353      -0.00177101      -0.40025545
O        4.54328651      -1.53134122      -0.48866252    -112.28537268       0.00042691       0.00011965      -0.00015953      -0.41337907
N       -0.02972401      -1.27460802       0.54183279     -79.98714027      -0.00012032      -0.00069511      -0.00105114      -0.15370324
N        3.93325864       0.31778160       0.64845999     -80.95393032      -0.00035921      -0.00148223       0.00200075      -0.27127499
C        1.22783221      -0.86581613      -0.01820702     -59.09909565       0.00011843      -0.00077086      -0.00079921       0.01481860
C        2.43099807      -1.55292347       0.66958688     -59.21035277      -0.00012751      -0.00166629      -0.00122847      -0.10027541
C        1.24358995      -1.26759237      -1.48904659     -58.88119590       0.00010277       0.00033170      -0.00114163       0.35711079
C        3.74677852      -0.94163400       0.20079013     -59.11148265       0.00004960      -0.00089356       0.00018885       0.28797567
H        1.32383002       0.21926337       0.06081820     -12.66781024       0.00042218      -0.00084175       0.00003312       0.09321248
H        2.33269389      -1.42249140       1.74738319     -12.95484624      -0.00059511      -0.00316412      -0.00110006       0.07451223
H        2.43024242      -2.61860960       0.43649356     -13.03219107       0.00004486      -0.00134157      -0.00269655       0.07280804
H       -0.29719455      -2.21961929       0.28302596     -11.94406885      -0.00012513      -0.00070904      -0.00172101       0.20542382
H        4.49475660       3.74364774      -7.53935005     -11.88731105      -0.00073998      -0.00310899      -0.00353973       0.28277448
H        3.23048717       0.79093135       1.19018253     -12.08758841      -0.00068736      -0.00235348       0.00229478       0.19942640
H        4.74490404       0.82721740       0.34215791     -12.12371989      -0.00024747      -0.00094596       0.00310654       0.19768567
H        2.22228811      -0.88875748      -3.08740857     -10.71514719       0.00033957       0.00138224      -0.00073865       0.34950988
O        2.06157377       1.45545996       4.79665698    -114.83483119      -0.00237176       0.00665166      -0.00078605      -0.57460504
H        2.04022134       0.71996742       5.41329764     -11.53228005       0.00149860       0.00891396       0.00210247       0.29977264
H        2.55129759       2.16607654       5.21570839     -11.54679372      -0.00653626       0.01114837      -0.00344875       0.29894488
O        4.19527601       0.85769250     -15.09891729    -111.27191024      -0.00882713       0.00088860       0.01332511      -0.52400441
H        3.77288239       2.52846419      -8.15258289     -11.86486570      -0.00308667      -0.00174169       0.00229803       0.28565628
H        3.65167973       0.38783521     -15.73227656     -12.31498220       0.00777106       0.00275860      -0.00167686       0.26521849
47
Properties=species:S:1:pos:R:3:energies:R:1:forces:R:3:charge:R:1 energy=-2285.752901154832 free_energy=-2285.752901154832 dipole="-1.8453764741547587 0.6793554305914772 4.660382718186045" pbc="F F F"
O       -2.91247326      -1.29853331       0.05021720    -113.32554042      -0.00361966      -0.00551390       0.00146784      -0.44985638
O       -3.30955100       0.83033842       2.94592217    -112.38642913       0.00225505      -0.00593548       0.00147980      -0.32763131
O       -1.67702648      -2.93418792       2.06850088    -113.09379007       0.00276677      -0.00481856       0.00153269      -0.43720386
O       -4.58374241       2.38099888       1.21978181    -113.24521037       0.00419723      -0.00417347       0.01177356      -0.43280828
O        3.18724382       2.23516190      -8.50152700    -113.58325129      -0.00240295      -0.00658870      -0.01733405      -0.59390227
O        1.08679784       0.89811465       2.25195184    -113.25046269      -0.00659570       0.00160863      -0.00064235      -0.42925665
C       -3.04803889      -1.07145545       1.42633862     -59.27747097      -0.00325258      -0.00827207       0.00231277       0.09185569
C       -3.47218690       0.32970219       1.72193065     -57.14982559      -0.00549233      -0.00978012       0.00541119       0.09306400
C       -1.79493001      -1.54170162       2.21523003     -59.23003317      -0.00112226      -0.00517988       0.00101745       0.09099443
C       -4.43789829       1.03860606       0.81862990     -59.38793208       0.00581156      -0.00073495      -0.00010320       0.05903823
C       -0.54059260      -0.81560914       1.75887275     -58.48814440      -0.00378871      -0.00135172      -0.00029822       0.00696785
C       -0.01633068       0.12969384       2.54399564     -58.47973734      -0.00487318      -0.00095417      -0.00018782       0.05019844
H       -3.87530656      -1.73333528       1.74601617     -12.48881599      -0.00120045      -0.01164244       0.00188182       0.08803634
H       -1.72471702       1.72027433       0.92507194     -13.39973556       0.03423927       0.02930006       0.00029924       0.00191580
H       -1.95757233      -1.34841060       3.27881027     -12.93046239      -0.00064767      -0.00553448       0.00114592       0.06312284
H       -4.15161929       0.92490391      -0.23100150     -12.84753844       0.01825978       0.00946524       0.00132562       0.07424431
H       -5.43120309       0.57609961       0.93455171     -12.52972700       0.00301501      -0.00150390      -0.01725347       0.09360190
H       -2.02199079      -1.01582783      -0.23138315     -11.13287187      -0.00402144      -0.00300206       0.00170741       0.32339008
H       -3.78756452       1.68605190       2.97502585     -10.54825488       0.00491807      -0.00381620      -0.00029592       0.35428223
H       -0.50612292       0.35370641       3.48102471     -13.45459581      -0.00395085      -0.00310537       0.00083842       0.02442156
H       -1.51187410       2.47462029       0.84166540     -13.27783191       0.02899424       0.00650976      -0.05396271       0.00410541
H       -1.94099385      -3.17144747       1.16844680     -11.29198141       0.00523967      -0.00591259       0.00076757       0.31135068
H        1.41170651       1.27292891       3.08832597     -11.19623507      -0.00634465       0.00123304      -0.00057863       0.33091107
H       -3.93590936       2.92916445       0.76305399     -11.29106064       0.00669930       0.00027667       0.02023120       0.30648927
O        2.10854205      -0.51765487      -2.18476023    -112.48846955      -0.00357167       0.00313414       0.00017586      -0.36084536
O        0.60142436      -2.15598796      -1.95334670    -112.23748288      -0.00089930       0.00048743      -0.00068918      -0.40297593
O        4.48694252      -1.50808971      -0.41813335    -112.29160098      -0.00380427       0.00207469       0.00310201      -0.42033628
N       -0.12630641      -1.20041574       0.47426283     -80.60482118      -0.00477552       0.00102269      -0.00168389      -0.21437470
N        3.86871531       0.37063557       0.66468295     -80.93340486      -0.00512285       0.00092701       0.00441675      -0.27464077
C        1.16351673      -0.80364979      -0.04256553     -59.02654625      -0.00419849       0.00137395      -0.00034414       0.02002714
C        2.34645093      -1.48207297       0.68934620     -59.19808452      -0.00507127       0.00093333       0.00065870      -0.09985031
C        1.23868460      -1.24433509      -1.49869745     -58.95926793      -0.00270537       0.00164756      -0.00030526       0.35589257
C        3.67658635      -0.89676210       0.23695562     -59.17291259      -0.00460260       0.00136071       0.00278452       0.28658507
H        1.25347205       0.28242394       0.01644047     -12.80179893      -0.00427887       0.00136774       0.00004769       0.08373613
H        2.22636876      -1.32621364       1.76140400     -12.99921775      -0.00647817       0.00006556       0.00064153       0.07106413
H        2.34115403      -2.55327868       0.47974563     -13.10768778      -0.00480618       0.00108210      -0.00016927       0.06598307
H       -0.26455161      -2.19523384       0.31237722     -12.15575708      -0.00327105       0.00073842      -0.00213848       0.18606365
H        3.72745741       2.97819800      -8.22770361     -12.28502322       0.00034761      -0.00898928      -0.01274425       0.26618125
H        3.13866398       0.86958348       1.14429967     -12.13706293      -0.00619656       0.00063975       0.00316004       0.19859298
H        4.67739546       0.87325280       0.33942301     -12.19158105      -0.00503728       0.00143055       0.00538286       0.19402581
H        2.23077431      -0.85884264      -3.08632581     -10.80639590      -0.00263677       0.00336309       0.00019330       0.34783045
O        2.00380377       1.49465795       4.82336912    -114.74793691      -0.00139413       0.00340312      -0.00231757      -0.57216088
H        2.07058184       0.70842740       5.37039583     -11.57138300       0.00447198       0.00392579      -0.00217620       0.29799725
H        2.65165328       2.12377488       5.14755717     -11.59233572      -0.00033139       0.00511346      -0.00717994       0.29644974
O        3.71378109       2.00844671     -10.82915740    -112.74405651      -0.00260100       0.01056197       0.03095028      -0.61257584
H        3.41195507       2.11601797      -9.51517918     -11.87602096      -0.00077767      -0.00268912      -0.01987819       0.33761911
H        3.13964130       1.32066776     -11.16594042     -12.53711418      -0.00134271       0.00645197       0.03557671       0.25238032
47
Properties=species:S:1:pos:R:3:energies:R:1:forces:R:3:charge:R:1 energy=-2290.8334484603697 free_energy=-2290.8334484603697 dipole="0.031872593826834356 0.7372665755437262 0.5459411474410175" pbc="F F F"
O       -2.90489806      -1.42560286       0.04456151    -113.25104120      -0.00068303      -0.00046898      -0.00043749      -0.45626003
O       -3.19550630       0.91598989       2.82189836    -113.19048223       0.00233985      -0.00018009       0.00046468      -0.45543028
O       -1.68432010      -2.89799818       2.02477159    -113.02859814      -0.00071425      -0.00053111      -0.00314208      -0.44661662
O       -4.58510371       2.39136911       0.87948849    -113.05945019       0.00095114       0.00163189       0.00076752      -0.44003605
O        2.78177268       1.29029923      -8.38379092    -114.44287857      -0.00201859      -0.01247363      -0.00443463      -0.56584417
O        1.12776307       0.92582770       2.18847462    -113.21185656      -0.00001341      -0.00039657      -0.00153663      -0.43736956
C       -2.99198474      -0.98875011       1.37682035     -59.13828698       0.00080373       0.00149459      -0.00061968       0.08744037
C       -3.14347587       0.53600041       1.46814938     -59.12449286       0.00590391       0.00339315      -0.00202285       0.08840635
C       -1.77621253      -1.50090674       2.18438691     -59.26369390       0.00031666      -0.00062026      -0.00139835       0.08969000
C       -4.41340252       0.99920187       0.74067289     -59.22236685       0.00163202       0.00129825       0.00099161       0.06155435
C       -0.50154754      -0.80967740       1.72990736     -58.48191781       0.00058542      -0.00085074      -0.00099653       0.01038364
C        0.01630877       0.15757581       2.48856944     -58.44888644       0.00064435      -0.00077526      -0.00165858       0.04507435
H       -3.89505095      -1.45553289       1.78651681     -12.97126170      -0.00044716       0.00459401       0.00066071       0.05782194
H       -2.26569565       1.00899452       0.98846615     -13.28282262      -0.00725166      -0.01081058       0.00384823       0.01902027
H       -1.94335915      -1.29322404       3.24406160     -13.00319055       0.00083052      -0.00141013      -0.00116830       0.05804507
H       -4.37646298       0.69326752      -0.31022377     -13.22291513      -0.00138372       0.00130008       0.00013573       0.03889577
H       -5.28833495       0.54562117       1.21191650     -13.00242490       0.00318248      -0.00004749       0.00455715       0.06225163
H       -2.04282113      -1.14625065      -0.30789794     -11.39631824      -0.00112748      -0.00059329      -0.00158960       0.31154672
H       -3.71564191       1.73235134       2.86151643     -11.32782397       0.00095762      -0.00127102       0.00160732       0.31638464
H       -0.49230506       0.41687927       3.40512069     -13.43194903       0.00023292      -0.00075785      -0.00153622       0.02885609
H        2.41745667       3.34184280      -5.94459367     -12.07497425       0.05755952       0.00903393      -0.09621366       0.27006442
H       -2.11206649      -3.11895481       1.18403052     -11.44109407      -0.00389345       0.00081293      -0.00217638       0.31007396
H        1.44446643       1.30637521       3.02311448     -11.33776510      -0.00057646       0.00078665      -0.00173148       0.32668628
H       -3.88993466       2.84406871       0.38839223     -11.59272907       0.00222113       0.00165131       0.00233705       0.29165354
O        2.14029559      -0.52260089      -2.19994301    -112.51219711      -0.00021105       0.00050406      -0.00108335      -0.36828217
O        0.68879570      -2.20789833      -1.98872375    -112.18287195       0.00224740      -0.00176197      -0.00158092      -0.40281637
O        4.54012943      -1.39206054      -0.41430742    -112.34844019       0.00125786       0.00305701       0.00096489      -0.43040320
N       -0.08582586      -1.24066923       0.46141937     -80.52079879       0.00043268      -0.00127595      -0.00153886      -0.21357104
N        3.82996769       0.40553310       0.74958833     -80.91355585      -0.00194402      -0.00027109       0.00451990      -0.27706778
C        1.19563784      -0.84360698      -0.06303188     -59.05467708       0.00039535      -0.00131334      -0.00113361       0.02187671
C        2.39004793      -1.50206447       0.67377907     -59.16519312       0.00025571      -0.00152133      -0.00099692      -0.09937762
C        1.28720406      -1.28027055      -1.51468917     -58.97177487       0.00092882      -0.00079536      -0.00112345       0.35542169
C        3.69927710      -0.84777931       0.26468183     -59.21040520      -0.00012407       0.00079187       0.00167558       0.28616188
H        1.27778143       0.24383367      -0.00774403     -12.79460921       0.00051111      -0.00133532      -0.00094792       0.08467494
H        2.23671608      -1.37722979       1.74572508     -12.99820578      -0.00116999      -0.00347049      -0.00095382       0.07261148
H        2.42613669      -2.56674479       0.43738197     -13.13991478       0.00151692      -0.00110570      -0.00275367       0.06381222
H       -0.23316799      -2.24000209       0.34352723     -12.23039744      -0.00018724      -0.00105376      -0.00118364       0.18526327
H        1.83774466       1.15757560      -8.26939634     -11.67634956      -0.02684303      -0.03540021      -0.03283098       0.29588598
H        3.07046182       0.84274980       1.24660713     -12.10650247      -0.00326891      -0.00224714       0.00447280       0.20625608
H        4.62130440       0.95838258       0.46680934     -12.25813157      -0.00239115       0.00146678       0.00644438       0.18964570
H        2.28690400      -0.88032617      -3.09044460     -10.91121260       0.00009913       0.00082040      -0.00118355       0.33965690
O        2.05650255       1.44156069       4.78923518    -114.59603398       0.00055465       0.00398957      -0.00236378      -0.57222719
H        1.89876582       0.66101214       5.32539970     -11.64931649      -0.00107686       0.00515682      -0.00042092       0.29676026
H        2.69239377       1.98719442       5.25579527     -11.68237609       0.00012018       0.00484068      -0.00226631       0.29353182
O        2.53106808       3.62003153      -6.85667125    -114.46366595      -0.03083709       0.01909614       0.07030938      -0.59693790
H        2.92493352       1.52029660      -9.30445908     -11.70965834       0.01970806      -0.00009819       0.00239846       0.29467064
H        2.85209330       2.84772269      -7.34696625     -11.78793970      -0.02002650       0.01711676       0.06686874       0.30216103
47
Properties=species:S:1:pos:R:3:energies:R:1:forces:R:3:charge:R:1 energy=-2290.994196782878 free_energy=-2290.994196782878 dipole="0.7116540198998722 1.0464253903830394 0.4104824506503137" pbc="F F F"
O       -2.68500986      -1.34933451      -0.49959250    -113.22651917       0.00004403       0.00100854      -0.00324803      -0.45458672
O       -3.08447819       1.08899231       2.17878113    -113.17069229       0.00217768      -0.00140574      -0.00070665      -0.45542534
O       -1.47391403      -2.71669726       1.53919821    -113.03756838      -0.00061562      -0.00213002      -0.00571352      -0.44891441
O       -4.46129251       2.45636867       0.12122530    -113.05212225       0.00410679       0.00234257       0.00037595      -0.44142421
O       -0.03881178       0.81293027      -3.83739567    -114.53900360      -0.01461406      -0.00156825       0.01454599      -0.60176624
O        1.25220787       1.14515212       1.81581885    -113.21095553      -0.00024028      -0.00307044       0.00127793      -0.43874956
C       -2.81810683      -0.86409637       0.81168635     -59.14681790       0.00037912      -0.00018110      -0.00272489       0.08781982
C       -3.00563525       0.65744994       0.84115788     -59.14228187       0.00187455      -0.00001751      -0.00113831       0.08753988
C       -1.61632292      -1.32026393       1.67276965     -59.25151969      -0.00006456      -0.00228786      -0.00319459       0.08965509
C       -4.27715144       1.05951969       0.08070048     -59.23197543       0.00241804       0.00215974      -0.00091536       0.06101557
C       -0.34300100      -0.60085661       1.26255155     -58.51688899       0.00020124      -0.00184716      -0.00144758       0.01293368
C        0.13662708       0.35772757       2.05742283     -58.42234401       0.00065228      -0.00275832      -0.00037873       0.04205437
H       -3.72049416      -1.33926399       1.21350212     -12.97876092      -0.00007180       0.00025549      -0.00330289       0.05707926
H       -2.13311723       1.12927553       0.35248958     -13.24794196       0.00240640      -0.00038427      -0.00054957       0.02353247
H       -1.83226241      -1.10108263       2.72149952     -13.01964755      -0.00006879      -0.00396960      -0.00290381       0.05602954
H       -4.23468423       0.68223161      -0.94642147     -13.20897522       0.00206156       0.00305529      -0.00126925       0.04081786
H       -5.14843030       0.63110192       0.58210250     -13.01803633       0.00186385       0.00273923      -0.00137387       0.06070765
H       -1.87400398      -0.97664315      -0.88265285     -11.38133171       0.00043258       0.00071647      -0.00278979       0.31490966
H       -3.59457628       1.91217392       2.17451361     -11.34913597       0.00319294      -0.00070974       0.00006708       0.31575546
H       -0.40920155       0.59980228       2.95724364     -13.44987318      -0.00010384      -0.00442277      -0.00017149       0.02707553
H        1.95679741       2.84457845      -4.94146552     -11.68108230      -0.00293049      -0.00754829      -0.01540775       0.29669856
H       -1.87920570      -2.96180469       0.69365142     -11.45058158      -0.00102379      -0.00038536      -0.00598180       0.31051471
H        1.57480119       1.44966391       2.67925450     -11.35930705      -0.00109098      -0.00232220       0.00147025       0.32419756
H       -3.77673481       2.87578314      -0.41251418     -11.59587009       0.00457023       0.00201936       0.00062555       0.29337441
O        2.52206055      -0.24825420      -2.50178402    -112.46364299      -0.00023111       0.00612094      -0.00128170      -0.36429690
O        0.92798579      -1.80929146      -2.48398443    -112.26863605      -0.00130705       0.00709033      -0.00515096      -0.41129157
O        4.82317806      -1.15356662      -0.53982543    -112.38068289       0.00083763       0.00405323      -0.00340571      -0.43334733
N        0.12560577      -1.00691652       0.00945390     -80.40595827       0.00058113      -0.00033175      -0.00265984      -0.20438234
N        3.98929449       0.55588695       0.67482980     -80.95979795      -0.00079882       0.00120152      -0.00044717      -0.28223667
C        1.43433592      -0.61741738      -0.44450654     -59.09093309       0.00021021       0.00126964      -0.00197035       0.02000980
C        2.57560128      -1.33749935       0.32005445     -59.17313614       0.00088598       0.00047355      -0.00385154      -0.09946591
C        1.57181060      -0.96805149      -1.91443031     -58.95361422      -0.00040749       0.00501662      -0.00292625       0.36160215
C        3.91320893      -0.65706593       0.08558325     -59.20712699       0.00030978       0.00211431      -0.00261192       0.28623684
H        1.53196104       0.46447336      -0.33514891     -12.72474861      -0.00044527       0.00112184       0.00034020       0.09181880
H        2.33521003      -1.30526253       1.38359395     -13.02380843       0.00108876      -0.00208256      -0.00367624       0.06943046
H        2.63657669      -2.37899159       0.00025741     -13.15763432       0.00166960       0.00117890      -0.00614747       0.06205390
H       -0.04809494      -1.99333820      -0.15876775     -12.25920154       0.00097617      -0.00024720      -0.00335009       0.18325048
H       -0.19277350      -0.11250608      -4.03998443     -12.00927305      -0.00766282      -0.00767376       0.02013479       0.28105420
H        3.16907750       0.96714396       1.09443948     -12.06994931      -0.00124910      -0.00033673       0.00019475       0.21095001
H        4.79809203       1.12937448       0.50525425     -12.29696946      -0.00136961       0.00231076       0.00039817       0.18606556
H        2.62852452      -0.51348777      -3.42968658     -10.90210549      -0.00128068       0.00927409      -0.00240362       0.34037528
O        2.30384483       1.17042301       4.41158040    -114.57717301      -0.00200847       0.00554317       0.00193040      -0.57166825
H        1.97819948       0.33303322       4.75051234     -11.65916789      -0.00229810       0.00773182       0.00757153       0.29666321
H        3.16142128       1.32635313       4.81166853     -11.69852466       0.00212873       0.00402069      -0.00491909       0.29276219
O        2.21214295       1.95423478      -5.19490553    -114.52616237       0.00599549      -0.01616736       0.00552879      -0.57227531
H        0.67156857       1.11008830      -4.42210890     -11.78689465      -0.00790572      -0.00533965       0.01877320       0.30278114
H        3.15198002       1.87133632      -5.01971916     -11.70982244       0.00672367      -0.00563049       0.02478527       0.29306567
47
Properties=species:S:1:pos:R:3:energies:R:1:forces:R:3:charge:R:1 energy=-2291.0708102887265 free_energy=-2291.0708102887265 dipole="0.4723898216618355 1.4019256371761457 0.636294581679684" pbc="F F F"
O       -2.74024777      -0.79715788      -1.14743436    -113.28006725       0.00294588      -0.01535142       0.01037702      -0.47096148
O       -2.80339552       1.35924969       1.79184327    -113.28664695      -0.00257951       0.00313411      -0.00181738      -0.46519122
O       -1.46803117      -2.38600261       0.70476780    -113.05301429       0.00008805      -0.00259749       0.02322624      -0.44526432
O       -5.01468290       2.50849252       0.67240104    -113.07041467       0.00504609       0.00134746      -0.01885579      -0.44098033
O       -0.59586090       0.15544770      -2.58081677    -114.71156177      -0.01518043       0.01165632       0.00281939      -0.60488584
O        1.20337449       1.63328249       0.22522528    -113.58850740       0.00176635      -0.00504938      -0.00090972      -0.47915990
C       -2.77016168      -0.47844885       0.21200267     -59.20801143       0.00195694      -0.00537888       0.00843943       0.09075568
C       -3.13799214       0.99297447       0.46960503     -59.12673644       0.00377587      -0.00307570      -0.00191641       0.08330754
C       -1.49537310      -0.99596487       0.92868505     -59.23517973       0.00205855      -0.00087007       0.01223195       0.08777830
C       -4.64468716       1.21082329       0.26053309     -59.22435575       0.00497110      -0.00127555      -0.01046733       0.06052946
C       -0.16142921      -0.36232942       0.51557160     -58.73497599       0.00115695      -0.00492743       0.00198733       0.02307987
C        0.01482206       0.96299158       0.57691318     -58.33242771       0.00330509      -0.00291033       0.01233480       0.00175128
H       -3.58236310      -1.09343699       0.62639034     -12.95882408       0.00137478      -0.00214952       0.01269917       0.05168236
H       -2.58933586       1.63036109      -0.24499538     -13.14099125       0.00963580      -0.00811944      -0.00230743       0.03470508
H       -1.62999192      -0.84781561       2.00525672     -12.97905548       0.00322836       0.00881376       0.01097375       0.05848092
H       -4.91497043       1.01624399      -0.78143732     -13.22009503       0.00944089      -0.00617511      -0.01075793       0.04084357
H       -5.20392525       0.53146479       0.90892285     -13.03109270       0.00072614       0.00289234      -0.00951259       0.05880746
H       -1.98683282      -0.35930018      -1.60369554     -11.35182920      -0.00425135      -0.00742564       0.00560813       0.33277613
H       -3.49158858       1.97655041       2.08572960     -11.34625201      -0.00328341       0.00572062      -0.00863552       0.31656350
H       -0.76204213       1.61598912       0.92941619     -13.37828008       0.00788559      -0.00452336       0.03151231       0.03962974
H        0.52672126       2.51300119      -1.24010270     -11.50477704       0.00438597       0.00043527       0.00893910       0.32571037
H       -1.77486962      -2.52008765      -0.20713288     -11.37400375      -0.00472467      -0.00946590       0.02550118       0.31811762
H        1.75510308       1.69502019       1.02120611     -11.50368853       0.00162266       0.01144058      -0.00155625       0.30814735
H       -4.64119970       3.15137768       0.05882672     -11.57371994       0.00869456      -0.00228853      -0.02059829       0.29453252
O        3.05465403      -1.41262738      -2.44575798    -112.54900954       0.00566674       0.00118272      -0.01018305      -0.37070131
O        1.92974952      -3.13560244      -1.57149465    -112.09274992       0.01125483      -0.00237136      -0.01223711      -0.39446138
O        5.24389925      -1.82713803      -0.41126806    -112.35580805      -0.00412801       0.00152079      -0.00037171      -0.42815763
N        0.77672529      -1.30057646       0.18469451     -79.94780073      -0.00797823      -0.00554084      -0.02453501      -0.17337591
N        4.91558953       0.17876080       0.55414475     -80.87106198      -0.00536899      -0.00055987       0.00311053      -0.27141346
C        2.10648833      -1.09382065      -0.29904595     -59.13578027      -0.00252263      -0.00212349      -0.01184449       0.01614458
C        3.17377945      -1.46106978       0.76756224     -59.27741956      -0.00727092      -0.00006632      -0.00512297      -0.10876587
C        2.34514120      -2.01309078      -1.49258796     -58.93990781       0.00590932      -0.00259081      -0.01197141       0.35485493
C        4.55147414      -1.08750981       0.24953225     -59.17196362      -0.00508717       0.00016717      -0.00045660       0.28590948
H        2.24129024      -0.05475130      -0.60675755     -12.78088805      -0.00293852      -0.00141564      -0.00987239       0.08893264
H        2.95632455      -0.92366972       1.68905192     -12.99624604      -0.01200384       0.00091274      -0.00643101       0.07319905
H        3.13355082      -2.53542853       0.94992314     -13.02937660      -0.00694506      -0.00003196      -0.00417699       0.07437774
H        0.46303495      -2.26169268       0.24524094     -12.21666583      -0.00433853      -0.00613406      -0.01751248       0.19769628
H        0.24339442      -0.28341573      -2.43227035     -11.97136504      -0.01700870       0.00896607       0.00220453       0.28128379
H        4.35216009       0.76384952       1.14498896     -12.18663337      -0.00616111      -0.00164300       0.00359238       0.19345267
H        5.80944611       0.51766250       0.23984150     -12.20962460      -0.00432292      -0.00044678       0.00563453       0.19266907
H        3.29145161      -2.03981398      -3.14784227     -10.91305605       0.00895991       0.00240742      -0.01056610       0.34054473
O        2.12745153       1.04114483       2.81991645    -114.73313997       0.00150024       0.00635612       0.00330917      -0.57941548
H        1.34855335       0.47404626       2.80157053     -11.57762281      -0.00323019       0.01197325       0.00095224       0.30417962
H        2.03681026       1.60956772       3.58770815     -11.69907826       0.00747102       0.00243068       0.00772697       0.29266556
O        0.13512699       2.75320686      -2.09523449    -114.71330729       0.00413221       0.00856812       0.00548955      -0.59566063
H       -0.43209660       1.11321540      -2.48971137     -11.59375980      -0.00932288       0.01510737       0.00708994       0.32228923
H        0.83977200       3.11943380      -2.63198356     -11.89403663       0.00968718      -0.00052504       0.00685629       0.28299665
