47
Properties=species:S:1:pos:R:3 pbc="F F F"
O       -2.97569360      -1.55808330       0.09274622
O       -2.99307232       0.93165709       2.75222047
O       -1.65646448      -2.95667115       1.99103154
O       -4.60307436       2.32416694       0.95436933
O        3.88222671       3.03189629      -7.34278837
O        1.14508217       0.81801403       2.27895155
C       -3.00095515      -1.05338513       1.40230621
C       -3.11507710       0.47601697       1.42856628
C       -1.77165667      -1.57106775       2.19504169
C       -4.45998134       0.92929115       0.83775632
C       -0.49926574      -0.86278453       1.76480816
C        0.01869330       0.10117325       2.55555765
H       -3.89615703      -1.48573902       1.86268041
H       -2.29473624       0.90227189       0.81887533
H       -1.93959981      -1.38701976       3.25959155
H       -4.55327257       0.58829040      -0.19862288
H       -5.27326175       0.49900446       1.42722612
H       -2.21394901      -1.19167352      -0.37907700
H       -3.52725590       1.73815719       2.82054059
H       -0.50347975       0.34997385       3.46677597
H       -4.82017211       5.07108641       7.36246612
H       -2.17095231      -3.18149068       1.20007926
H        1.45163562       1.23726148       3.10404539
H       -4.01659311       2.76266753       0.32766414
O        2.14027548      -0.57480571      -2.17177568
O        0.53060961      -2.11574612      -1.95307633
O        4.54328651      -1.53134122      -0.48866252
N       -0.02972401      -1.27460802       0.54183279
N        3.93325864       0.31778160       0.64845999
C        1.22783221      -0.86581613      -0.01820702
C        2.43099807      -1.55292347       0.66958688
C        1.24358995      -1.26759237      -1.48904659
C        3.74677852      -0.94163400       0.20079013
H        1.32383002       0.21926337       0.06081820
H        2.33269389      -1.42249140       1.74738319
H        2.43024242      -2.61860960       0.43649356
H       -0.29719455      -2.21961929       0.28302596
H        4.49475660       3.74364774      -7.53935005
H        3.23048717       0.79093135       1.19018253
H        4.74490404       0.82721740       0.34215791
H        2.22228811      -0.88875748      -3.08740857
O        2.06157377       1.45545996       4.79665698
H        2.04022134       0.71996742       5.41329764
H        2.55129759       2.16607654       5.21570839
O        4.19527601       0.85769250     -15.09891729
H        3.77288239       2.52846419      -8.15258289
H        3.65167973       0.38783521     -15.73227656
