47
Properties=species:S:1:pos:R:3:energies:R:1:forces:R:3:charge:R:1 energy=-2291.070810266665 free_energy=-2291.070810266665 dipole="0.5564790314623184 1.4169727548710789 0.5253936939651187" pbc="F F F"
O       -2.85139669      -0.77744221      -0.85378331    -113.28015972       0.00352622      -0.01490731       0.01083712      -0.47096905
O       -2.60968553       1.51158489       1.97382432    -113.28667951      -0.00268074       0.00311435      -0.00173750      -0.46519397
O       -1.45571704      -2.31220343       0.95458663    -113.05305861       0.00207272      -0.00148896       0.02322047      -0.44526747
O       -4.88562166       2.66472531       0.99705222    -113.07047996       0.00341766       0.00039740      -0.01930045      -0.44098663
O       -0.82133039       0.05376478      -2.51160215    -114.71172473      -0.01457585       0.01216293       0.00358176      -0.60489915
O        1.24885375       1.61150274       0.05411524    -113.58855695       0.00152528      -0.00513691      -0.00083568      -0.47916089
C       -2.75487370      -0.39645086       0.48639139     -59.20792543       0.00258795      -0.00505656       0.00847590       0.09076310
C       -3.06697602       1.09409830       0.70456597     -59.12668017       0.00353224      -0.00326326      -0.00208577       0.08331230
C       -1.43343419      -0.91316097       1.11356814     -59.23510058       0.00311105      -0.00038609       0.01200926       0.08778572
C       -4.58119135       1.34060732       0.61690589     -59.22437283       0.00400848      -0.00189961      -0.01078181       0.06052730
C       -0.12766727      -0.33329069       0.55653483     -58.73493458       0.00123881      -0.00486335       0.00209406       0.02308393
C        0.08169700       0.98851396       0.53915263     -58.33230365       0.00436072      -0.00245097       0.01210773       0.00176201
H       -3.54052540      -0.97096817       0.99852415     -12.95888260       0.00242083      -0.00161858       0.01262631       0.05167697
H       -2.56969219       1.68403371      -0.08449941     -13.14102474       0.00922304      -0.00844546      -0.00275779       0.03470203
H       -1.46970698      -0.71271297       2.18947793     -12.97912373       0.00436764       0.00921699       0.01024224       0.05847458
H       -4.94611589       1.10571203      -0.38722098     -13.22010150       0.00831840      -0.00689470      -0.01124738       0.04084314
H       -5.09573334       0.70601023       1.34300339     -13.03108664      -0.00005954       0.00242943      -0.00965387       0.05880815
H       -2.13177211      -0.38022016      -1.39404512     -11.35175719      -0.00389679      -0.00705468       0.00628639       0.33278149
H       -3.25597958       2.15901447       2.29659044     -11.34623585      -0.00389579       0.00539747      -0.00857984       0.31656518
H       -0.64698692       1.67652788       0.92624269     -13.37837726       0.01051750      -0.00325736       0.03089643       0.03962017
H        0.46507604       2.44052473      -1.38719171     -11.50468519       0.00515935       0.00072657       0.00849557       0.32571715
H       -1.84431734      -2.47982568       0.08018165     -11.37396231      -0.00266895      -0.00817866       0.02623820       0.31812060
H        1.86959963       1.69533839       0.79536257     -11.50368736       0.00173063       0.01131773      -0.00222483       0.30814634
H       -4.55379592       3.26923027       0.32345745     -11.57367400       0.00677732      -0.00346067      -0.02110575       0.29453709
O        2.79243000      -1.59925949      -2.61933435    -112.54905276       0.00466932       0.00049901      -0.01051447      -0.37070252
O        1.71199338      -3.25130538      -1.56967217    -112.09313761       0.01006573      -0.00326580      -0.01306190      -0.39449113
O        5.14260241      -1.97640670      -0.76509257    -112.35614823      -0.00406065       0.00153881      -0.00015071      -0.42818489
N        0.75742399      -1.30929888       0.19055328     -79.94779516      -0.01022333      -0.00643734      -0.02345160      -0.17337471
N        4.94353580       0.07913557       0.12852801     -80.87103016      -0.00511328      -0.00037742       0.00357225      -0.27140843
C        2.04365824      -1.15883716      -0.41606462     -59.13578285      -0.00361589      -0.00261567      -0.01150150       0.01614479
C        3.19242944      -1.50423833       0.57016966     -59.27738463      -0.00767118      -0.00010741      -0.00448537      -0.10876175
C        2.15670835      -2.13734102      -1.58066977     -58.93953057       0.00488734      -0.00311539      -0.01237785       0.35488349
C        4.52696530      -1.18998724      -0.08267418     -59.17164613      -0.00514411       0.00043636       0.00006591       0.28593288
H        2.17316524      -0.13865333      -0.78345540     -12.78089085      -0.00382973      -0.00177892      -0.00950048       0.08893195
H        3.06838520      -0.92002273       1.48040801     -12.99629524      -0.01250395       0.00094170      -0.00537904       0.07319424
H        3.14533408      -2.56779166       0.80629867     -13.02939860      -0.00728328      -0.00006872      -0.00355245       0.07437577
H        0.42971310      -2.25833069       0.32380522     -12.21666782      -0.00598148      -0.00682075      -0.01676684       0.19769613
H        0.01811934      -0.39916686      -2.41571824     -11.97127006      -0.01658663       0.00949744       0.00323744       0.28129130
H        4.44690050       0.70474351       0.73749970     -12.18663361      -0.00585886      -0.00131714       0.00419185       0.19345194
H        5.81337822       0.38041887      -0.27794833     -12.20963833      -0.00381636      -0.00007852       0.00599961       0.19266762
H        2.95309297      -2.26363415      -3.30864718     -10.91296797       0.00805029       0.00166524      -0.01143020       0.34054989
O        2.38446682       1.11481742       2.58406669    -114.73327180       0.00188389       0.00645047       0.00288337      -0.57942613
H        1.59497889       0.56755270       2.66042031     -11.57755593      -0.00284360       0.01209845       0.00064941       0.30418504
H        2.37387429       1.71976981       3.32887869     -11.69901456       0.00817614       0.00258168       0.00691608       0.29267047
O        0.00508983       2.65143410      -2.21557878    -114.71344311       0.00481575       0.00870000       0.00469303      -0.59567162
H       -0.62967472       1.01019343      -2.48077616     -11.59368868      -0.00834799       0.01564238       0.00714299       0.32229498
H        0.66753341       2.97470088      -2.82828867     -11.89399052       0.01021366      -0.00046819       0.00601970       0.28300060
