47
Properties=species:S:1:pos:R:3 pbc="F F F"
O       -2.99928350       0.15268938      -1.45889703
O       -2.70268294       1.18351058       1.97219810
O       -1.63483773      -2.09392822      -0.10344669
O       -5.10898531       2.52923982       1.42645842
O       -0.05587819      -1.13930030      -3.51683347
O        0.89089364       1.93997827      -1.00003052
C       -2.88014556      -0.11007565      -0.08455951
C       -3.23456155       1.18450226       0.66789706
C       -1.51492446      -0.74135609       0.27053569
C       -4.76051672       1.36467908       0.71160193
C       -0.25371408      -0.12070247      -0.38421166
C       -0.26044639       1.42130267      -0.38122229
H       -3.60874366      -0.88390555       0.21220808
H       -2.82001792       2.03626143       0.10655695
H       -1.40237429      -0.65650907       1.36336808
H       -5.14464180       1.38020842      -0.31273838
H       -5.21961295       0.53766320       1.25807852
H       -2.63743846      -0.61893286      -1.91632732
H       -3.30387863       1.71803109       2.51332437
H       -0.38878651       1.78416175       0.64237057
H       -1.10005385       1.74697894      -0.99802810
H       -0.78166293      -2.45867439      -0.39749093
H        1.61838956       1.95396945      -0.35615865
H       -4.89084199       3.30442623       0.89691614
O        2.24088977      -2.14770227      -2.51151172
O        0.78431234      -3.01042405      -1.04987357
O        5.09378105      -1.97492491      -0.67049452
N        0.74850381      -0.52959638       0.29899042
N        4.72756972       0.18245618      -0.12309941
C        1.90051799      -0.95279021      -0.49276723
C        3.03217840      -1.40585006       0.45141239
C        1.55405026      -2.14245765      -1.38133569
C        4.39309399      -1.12303966      -0.17743342
H        2.23595737      -0.12520593      -1.12383950
H        2.96111175      -0.85901091       1.39105468
H        2.94023056      -2.47262879       0.65974688
H        0.46189597      -1.33538257       0.85197036
H        0.35276663      -0.43278737      -4.02225299
H        4.11452826       0.86998660       0.28701969
H        5.60138276       0.47906062      -0.52376693
H        2.07626486      -2.95352896      -3.02746328
O        2.47957228       1.55992017       1.31121934
H        1.84644129       0.81776830       1.24698881
H        2.30259484       2.01658940       2.13537159
O       -0.11479522       2.10778733      -2.58391490
H       -0.12321808      -1.67040545      -4.31369774
H       -0.08857970       3.38951367      -2.99902320
