47
Properties=species:S:1:pos:R:3:energies:R:1:forces:R:3:charge:R:1 energy=-2289.056539705578 free_energy=-2289.056539705578 dipole="-0.19939441947195224 1.024139544003002 -0.21723031859262146" pbc="F F F"
O       -2.79015885       0.66435009      -1.48054170    -113.32046484       0.01769933       0.03990628      -0.00763524      -0.46649229
O       -2.85757141       1.40104755       1.99755974    -113.16642928       0.00227290       0.00085406      -0.00132512      -0.45397102
O       -1.65919831      -1.61439614      -0.48729141    -113.11904973      -0.00377841       0.01748571      -0.02061387      -0.47702392
O       -5.38729920       2.57844569       1.50111444    -113.03890697      -0.00386526      -0.00013131       0.00719181      -0.43959499
O       -0.17670173      -1.23326631      -3.45960209    -114.34669787      -0.02664446       0.00594488      -0.00517301      -0.57870078
O        0.87128181       2.41897516       0.07484458    -112.75437049       0.00319938       0.00575683       0.00328352      -0.39474690
C       -2.91594672       0.25706376      -0.13697286     -59.07057043       0.00459401       0.02271134      -0.01391121       0.09981051
C       -3.40229750       1.44352713       0.70203888     -59.14446046       0.00198118       0.01304299      -0.00091993       0.09488723
C       -1.62008952      -0.44595475       0.31073558     -59.13863510      -0.00271483       0.01110121      -0.01127084       0.10203131
C       -4.93626710       1.45494945       0.77932210     -59.23669315       0.00178848       0.00676248       0.00013452       0.05940525
C       -0.31921220       0.32911194       0.18599940     -58.46876008       0.00077620       0.00703791       0.00113054      -0.01276002
C       -0.24617955       1.65236586       0.05519877     -58.50449091       0.00430288       0.00577919      -0.00303970       0.07681087
H       -3.67765268      -0.53842013      -0.06867296     -13.04339285       0.00068303       0.02524341      -0.03201413       0.03791801
H       -3.09330815       2.37408944       0.19459577     -13.14703037      -0.00026256       0.01941586       0.00961012       0.02819898
H       -1.73329594      -0.72279325       1.37521605     -13.14808332      -0.01048914       0.00374205      -0.01417333       0.03180522
H       -5.35937119       1.42411753      -0.23094257     -13.24870858       0.00113988       0.01081123       0.00034712       0.03538517
H       -5.28170740       0.58413803       1.34147356     -13.01704576       0.00659115       0.00142653      -0.00512567       0.06117398
H       -2.40868323      -0.10743500      -1.93040349     -11.26952982       0.01726468       0.04417923      -0.01539145       0.33046683
H       -3.46725177       1.88956954       2.56976077     -11.34646865       0.00339841      -0.00312073       0.00318761       0.31470803
H       -1.12382611       2.25143769      -0.09098610     -13.12063364       0.00520310       0.00497969      -0.01386003       0.06039399
H       -1.03205828       1.99778523      -2.31846625     -11.94931288      -0.00324078      -0.00381308      -0.01225828       0.28963531
H       -0.79006536      -2.04134510      -0.58121070     -11.53099287      -0.00684383       0.01033891      -0.01132485       0.32317987
H        1.64999344       1.86656732       0.23879797     -11.31665724       0.00200018       0.00875579       0.01922899       0.31735312
H       -5.17645896       3.37404626       0.99883430     -11.59293614      -0.01410707       0.00381412       0.00935829       0.29183464
O        2.35019195      -1.96958821      -2.42762223    -112.29054137      -0.01209434       0.02263570      -0.00556879      -0.34723590
O        0.77489688      -2.80576489      -1.08420188    -112.42635893       0.00180928       0.00925693       0.00322390      -0.42543836
O        5.08306428      -1.83115349      -0.91799607    -112.30380771      -0.01323411       0.02279338      -0.01031226      -0.42440402
N        0.83139043      -0.46116270       0.51202564     -80.86585463      -0.00150866       0.00386816       0.00663133      -0.25628476
N        4.77141527       0.27994773      -0.17805039     -80.93031758       0.00294573       0.01268079       0.00303601      -0.27644148
C        1.89322144      -0.77869017      -0.43329714     -58.92448284      -0.00118868       0.01062318       0.00467386       0.02494615
C        3.10261908      -1.33402034       0.37142039     -59.25483311       0.00142523       0.01156216       0.00094355      -0.10949715
C        1.57020003      -1.94138966      -1.36567875     -58.87236047      -0.00115871       0.01482882       0.00096332       0.36380878
C        4.42530257      -1.01759873      -0.31173819     -59.18684940       0.00387438       0.00487267      -0.01058973       0.28721032
H        2.16952886       0.09871902      -1.02036369     -12.96290427      -0.00478597       0.01385085       0.00775173       0.07415086
H        3.10838229      -0.89182049       1.36531292     -12.80617003       0.00447362       0.01159496       0.00052604       0.08833476
H        3.00905419      -2.41654256       0.47780185     -13.10081005       0.00267345       0.01147970       0.00069316       0.06579683
H        0.46189597      -1.33538257       0.85197036     -12.42043598       0.12295761      -0.43627672       0.33909456       0.16752504
H       -0.03598643      -0.29044108      -3.58944252     -11.77941451       0.00588806       0.00082504      -0.00338063       0.29877718
H        4.26338920       0.88103834       0.45143641     -12.05305041       0.00491614       0.00993033       0.00462687       0.21049899
H        5.65326455       0.59009048      -0.54964830     -12.24472149      -0.00070988       0.01244604      -0.00313354       0.19083232
H        2.20170840      -2.77885889      -2.94267255     -10.89012932      -0.01148608       0.02326164      -0.00714199       0.34237275
O        2.71326351       1.32035230       1.89830491    -114.85058704      -0.00552864       0.00540341       0.00875945      -0.59599827
H        1.91694731       0.76810286       1.86193144     -11.52350816      -0.00427337       0.00317525       0.01232578       0.31094660
H        2.48143517       2.11717737       2.38006199     -11.76219314      -0.00174819      -0.00085518       0.02092193       0.29100549
O       -0.11479522       2.10778733      -2.58391490    -113.78519985       0.07512132       4.88479786      -1.99709744      -0.54289618
H       -0.12321808      -1.67040545      -4.31369774     -11.91454527      -0.02407043       0.17388917       0.05413709       0.28156528
H       -0.08857970       3.38951367      -2.99902320     -10.86714269      -0.14524624      -5.08866870       1.68347992       0.24871639
