47
Properties=species:S:1:pos:R:3:energies:R:1:forces:R:3:charge:R:1 energy=-2292.0907177128265 free_energy=-2292.0907177128265 dipole="-0.3915906316978537 1.292411507938832 0.30684197398768204" pbc="F F F"
O       -2.62780436       0.34485710      -1.29541174    -113.34527987      -0.00409577      -0.00272643       0.00352892      -0.47228783
O       -2.80034313       1.14533609       2.17858497    -113.28226171      -0.00388965      -0.00242976       0.00411259      -0.46038663
O       -1.35740141      -2.03650722       0.59235839    -112.99447289       0.00237286       0.00151154       0.00613450      -0.44616304
O       -5.26338870       2.25603023       1.52908656    -113.05655690      -0.00293469      -0.00160265       0.00056421      -0.43839052
O       -0.10742471      -0.52015713      -1.40397886    -113.48637603      -0.00383022       0.00004223      -0.00024594      -0.49258872
O        1.16292379       2.01514977      -0.42266867    -113.44105733      -0.00030539       0.00142045      -0.00035566      -0.46760974
C       -2.68726095      -0.06957397       0.04960624     -59.11549022      -0.00108333      -0.00121351       0.00381634       0.08740419
C       -3.22654182       1.14416635       0.83802781     -59.09880563      -0.00177905      -0.00144233       0.00349274       0.09238549
C       -1.36255852      -0.63277783       0.62768635     -59.14789640       0.00049465       0.00165478       0.00261505       0.07849305
C       -4.75982065       1.17341468       0.78039427     -59.24908310      -0.00157630      -0.00122104       0.00080031       0.05980855
C       -0.07865467      -0.09956348      -0.05671118     -58.90319583      -0.00091223       0.00139007      -0.00040183       0.18465176
C       -0.02233032       1.43721204       0.06998357     -59.32391634      -0.00132921       0.00163468      -0.00251842       0.04819480
H       -3.40870517      -0.89701753       0.14951478     -13.02465491       0.00028286      -0.00220620       0.00591307       0.04358859
H       -2.84838087       2.05465619       0.34186587     -13.13901068      -0.00055620      -0.00134967       0.00461469       0.02941525
H       -1.33921186      -0.36230920       1.68834373     -12.87362361       0.00213863       0.00378339       0.00211196       0.06936307
H       -5.09091068       1.20554314      -0.26260610     -13.20959102       0.00025397      -0.00049908       0.00030695       0.04019534
H       -5.15769878       0.27514627       1.25847465     -12.99576360      -0.00247773      -0.00139335      -0.00047983       0.06249482
H       -2.02332794      -0.25506660      -1.76105201     -11.31225404       0.00065825       0.00161168       0.00415116       0.32537605
H       -3.52488445       1.52779545       2.69617616     -11.27778229      -0.00489256      -0.00349861       0.00333887       0.31973030
H       -0.18806177       1.70032598       1.11921843     -13.22238830      -0.00337236       0.00304846      -0.00312998       0.03782694
H       -0.83943936       1.84992904      -0.52469478     -12.98255439      -0.00009556       0.00080545      -0.00478234       0.06243508
H       -0.97855431      -2.34461259      -0.24654716     -11.40133996      -0.00333457       0.00022962       0.00394554       0.32357175
H        1.86747739       1.87729149       0.23502764     -11.25719894      -0.00144839       0.00127090       0.00078776       0.32811457
H       -5.03387111       3.07957899       1.08362585     -11.56632866      -0.00223761      -0.00151961       0.00155413       0.29310803
O        2.30389773      -1.92197422      -2.42254729    -112.46320115      -0.00511621       0.00275871      -0.00274639      -0.36472233
O        0.98822331      -3.05787602      -1.01680824    -112.38226445      -0.00144364      -0.00057248      -0.00075617      -0.42526613
O        5.41482196      -2.07582566      -0.46083006    -112.28856171      -0.00053410       0.00186145      -0.00095271      -0.42334762
N        1.05919965      -0.70675675       0.66219972     -81.25059506       0.00020130       0.00232532      -0.00197428      -0.30752161
N        4.93856052      -0.02472455       0.34453428     -80.94180162      -0.00018235       0.00043705       0.00153379      -0.27916829
C        2.16672020      -1.10571860      -0.20636367     -58.83713989      -0.00076250       0.00125207      -0.00261258       0.03143915
C        3.29053595      -1.73968538       0.63745521     -59.32327171      -0.00104413       0.00037291      -0.00274222      -0.10522193
C        1.72262605      -2.13136115      -1.24768164     -58.91276402      -0.00070553       0.00297766      -0.00275590       0.36591798
C        4.66067145      -1.32387972       0.11053306     -59.19272604      -0.00014836       0.00055102      -0.00108024       0.28585539
H        2.53484276      -0.22344969      -0.73835940     -12.91063137      -0.00017356       0.00094295      -0.00283190       0.07246323
H        3.19794231      -1.40943514       1.67245864     -12.97243081      -0.00188881      -0.00118118      -0.00223488       0.07066924
H        3.21343356      -2.82723547       0.61359403     -13.05141996      -0.00100234       0.00034265      -0.00428566       0.07273580
H        0.71226188      -1.55407806       1.11557291     -12.25512754       0.00068437       0.00261226      -0.00080088       0.18509181
H        0.20817579       0.19532733      -2.00831152     -11.15192590       0.00040295      -0.00278028      -0.00141175       0.34592257
H        4.30549879       0.57072774       0.85665116     -12.04832462      -0.00056630       0.00003573       0.00134144       0.21221077
H        5.81461930       0.35054320       0.02299626     -12.24481108       0.00033966       0.00045770       0.00305025       0.19105258
H        2.05842240      -2.60973796      -3.06104362     -10.98110726      -0.00577430       0.00311457      -0.00340543       0.33623493
O        2.63412999       1.24451451       1.82703308    -114.99535090      -0.00139380       0.00094481      -0.00042819      -0.60628827
H        2.02504117       0.49264272       1.66038987     -11.46780131      -0.00070668       0.00064541      -0.00147129       0.31564347
H        2.43079889       1.59281959       2.69655652     -11.82472352      -0.00118071      -0.00078405       0.00032509       0.28512542
O        0.38104682       1.58415811      -3.03778202    -114.63781494       0.01743394      -0.00670947      -0.00194915      -0.58122763
H       -0.48117185       1.99399430      -3.14144480     -11.75285571       0.02178300       0.00291875      -0.01484159       0.29297021
H        0.85068672       2.07157017      -2.34520455     -11.49718451       0.01572768      -0.00982458       0.00315584       0.32070010
