47
Properties=species:S:1:pos:R:3 pbc="F F F"
O       -2.99928350       0.15268938      -1.45889703
O       -2.70268294       1.18351058       1.97219810
O       -1.63483773      -2.09392822      -0.10344669
O       -5.10898531       2.52923982       1.42645842
O       -0.16926801      -0.55549003      -1.72136844
O        0.89089364       1.93997827      -1.00003052
C       -2.88014556      -0.11007565      -0.08455951
C       -3.23456155       1.18450226       0.66789706
C       -1.51492446      -0.74135609       0.27053569
C       -4.76051672       1.36467908       0.71160193
C       -0.25371408      -0.12070247      -0.38421166
C       -0.26044639       1.42130267      -0.38122229
H       -3.60874366      -0.88390555       0.21220808
H       -2.82001792       2.03626143       0.10655695
H       -1.40237429      -0.65650907       1.36336808
H       -5.14464180       1.38020842      -0.31273838
H       -5.21961295       0.53766320       1.25807852
H       -2.63743846      -0.61893286      -1.91632732
H       -3.30387863       1.71803109       2.51332437
H       -0.38878651       1.78416175       0.64237057
H       -1.10005385       1.74697894      -0.99802810
H       -0.78166293      -2.45867439      -0.39749093
H        1.61838956       1.95396945      -0.35615865
H       -4.89084199       3.30442623       0.89691614
O        2.40152867      -2.21324118      -2.40200576
O        0.94495124      -3.07596296      -0.94036761
O        5.25441995      -2.04046382      -0.56098856
N        0.90914271      -0.59513529       0.40849638
N        4.88820862       0.11691727      -0.01359345
C        2.06115689      -1.01832912      -0.38326127
C        3.19281730      -1.47138897       0.56091835
C        1.71468916      -2.20799656      -1.27182973
C        4.55373289      -1.18857857      -0.06792746
H        2.39659627      -0.19074484      -1.01433354
H        3.12175065      -0.92454982       1.50056064
H        3.10086946      -2.53816770       0.76925284
H        0.62253487      -1.40092148       0.96147632
H        0.24303837       0.15735342      -2.23131664
H        4.27516716       0.80444769       0.39652565
H        5.76202166       0.41352171      -0.41426097
H        2.23690376      -3.01906787      -2.91795732
O        2.47957228       1.55992017       1.31121934
H        1.84644129       0.81776830       1.24698881
H        2.30259484       2.01658940       2.13537159
O       -0.11479522       2.10778733      -2.58391490
H       -0.13347161       1.19466367      -2.28818469
H       -0.08857970       3.38951367      -2.99902320
