47
Properties=species:S:1:pos:R:3:energies:R:1:forces:R:3:charge:R:1 energy=-2288.078440527094 free_energy=-2288.078440527094 dipole="0.086921891545309 0.9242689965463687 0.36719007316060537" pbc="F F F"
O       -2.73378810       0.21385006      -1.39376315    -113.01699236       0.02148396       0.00308322       0.00398643      -0.44504198
O       -2.67583283       1.18196353       2.04129634    -113.30830950       0.00454982      -0.00238414       0.00482845      -0.46308709
O       -1.52531629      -2.14234853       0.15507854    -113.02727621       0.01804552      -0.00544251       0.03223903      -0.45900989
O       -5.07219479       2.47426058       1.42060831    -113.05815168       0.00519240      -0.00568245      -0.00078451      -0.43974906
O       -0.00536785      -0.43757677      -1.42790685    -113.30781831       0.01339023      -0.00015932       0.01470045      -0.46370842
O        1.24219700       1.84289546      -0.20235218    -113.14667690       0.01662928      -0.00670987       0.01876266      -0.45836151
C       -2.74434370      -0.11257260      -0.03033353     -59.14039524       0.01290390      -0.00157078       0.00305893       0.09431281
C       -3.15853677       1.16759328       0.71753314     -59.13748249       0.00864958      -0.00259794       0.00345515       0.08928608
C       -1.43504234      -0.77021377       0.47289990     -59.08964412       0.00975708       0.00030744       0.01420707       0.08930218
C       -4.68824451       1.30923522       0.72471333     -59.24673494       0.00852068      -0.00452117      -0.00072184       0.05911452
C       -0.10853103      -0.17383034      -0.03866748     -58.84501716       0.01145598      -0.00288045       0.01561196       0.18236403
C       -0.01100637       1.34864268       0.19690008     -59.32947557       0.01405419      -0.00280280       0.01470894       0.04357486
H       -3.50697661      -0.88639182       0.16478514     -12.98175519       0.01152912      -0.00185087      -0.00414923       0.04472094
H       -2.74298550       2.02595396       0.16545389     -13.05784312       0.00964715      -0.00208217       0.00505754       0.03999099
H       -1.43678701      -0.66604886       1.56769728     -12.97961271       0.00350151       0.00927817       0.01284424       0.05266026
H       -5.06600881       1.30331518      -0.30242477     -13.19370090       0.01125187      -0.00419890      -0.00172828       0.04234292
H       -5.13124417       0.47764127       1.27821311     -13.00854439       0.00828446      -0.00559200      -0.00247775       0.06121255
H       -2.33380571      -0.52090498      -1.87495824     -11.37172836       0.02294171       0.00500112       0.00255525       0.31961259
H       -3.32275228       1.68681510       2.55730728     -11.28908409       0.00185184      -0.00430929       0.00329860       0.31890192
H       -0.24152220       1.56792418       1.24304847     -13.30820148       0.01075265      -0.00058494       0.01357195       0.03144415
H       -0.73801826       1.84189846      -0.45202437     -12.71466650       0.01715445      -0.00221599       0.01146969       0.09373407
H       -0.74031291      -2.45145810      -0.32530990     -11.44426216      -0.00418409       0.00574704      -0.00557799       0.32436088
H        1.88509071       1.70982911       0.51442354     -11.42000089       0.01220418      -0.00587921       0.02319585       0.31404707
H       -4.81364682       3.24553881       0.90321702     -11.56838273       0.00557552      -0.00483360       0.00063984       0.29407662
O        2.44827676      -2.09443784      -2.29809771    -112.50871949       0.00591091       0.00906834       0.01075524      -0.36277162
O        1.00430244      -3.11832488      -0.93472152    -112.44716585      -0.01095540      -0.01816190       0.00314727      -0.42463355
O        5.32259148      -2.07979038      -0.60544079    -112.27906209       0.00622725      -0.00782057       0.00684899      -0.41924727
N        0.99509023      -0.82551416       0.70379276     -81.21906646       0.00785761      -0.00726469       0.01596468      -0.30978683
N        4.88638671       0.03714613       0.04081699     -80.91700533       0.00679634      -0.01004169       0.01591725      -0.27341110
C        2.14327552      -1.14811474      -0.13785145     -58.83272629       0.00819436      -0.00754791       0.01443061       0.03056876
C        3.33022079      -1.66022106       0.69620661     -59.33747875       0.00755039      -0.01194861       0.01178556      -0.10693694
C        1.78769564      -2.22898792      -1.15784061     -58.85142606       0.02618233       0.02282534       0.00082399       0.35954156
C        4.62623238      -1.28616714      -0.01894089     -59.16448609       0.00655847      -0.00950264       0.01165366       0.28600462
H        2.45648081      -0.24302917      -0.66812871     -12.85589081       0.01012398      -0.00348519       0.01971586       0.07550734
H        3.31467138      -1.18720244       1.67646507     -12.86814522       0.00964573      -0.01683869       0.01431953       0.08223061
H        3.27683251      -2.74187225       0.81922916     -13.08060377       0.00652761      -0.01284420       0.00669131       0.06990402
H        0.65684411      -1.69140060       1.11977304     -12.38810997       0.00461016      -0.00897807       0.00974278       0.17176361
H        0.77989811       0.03255110      -1.75200152     -11.17134521       0.00830271       0.01120276       0.01737292       0.33071139
H        4.32891501       0.65946101       0.60253296     -12.05924409       0.00756544      -0.01205655       0.01904201       0.20733233
H        5.71226037       0.39428100      -0.40914688     -12.19020094       0.00486770      -0.00770782       0.01414317       0.19496098
H        2.26315994      -2.83120131      -2.90292371     -10.88483958       0.00723226       0.01606580       0.00235824       0.34156781
O        2.60799571       1.13986391       2.08305980    -114.90013528      -0.00159073      -0.01919748       0.02694418      -0.59324479
H        1.93554738       0.44303746       1.98565569     -11.44564918       0.00222583      -0.02149385       0.01530178       0.31536750
H        2.29995739       1.75535407       2.75115228     -11.73589940      -0.00457855      -0.03262623       0.03753703       0.29106965
O       -0.11479522       2.10778733      -2.58391490    -114.32128689       0.15706963       4.68352864      -1.62292128      -0.74944269
H       -0.13347161       1.19466367      -2.28818469     -10.81443583      -0.41383726       1.24453968      -0.60649879       0.38157819
H       -0.08857970       3.38951367      -2.99902320      -9.81376094      -0.11762977      -5.73683304       1.77217158       0.33526491
