47
Properties=species:S:1:pos:R:3 pbc="F F F"
O       -2.62780436       0.34485710      -1.29541174
O       -2.80034313       1.14533609       2.17858497
O       -1.35740141      -2.03650722       0.59235839
O       -5.26338870       2.25603023       1.52908656
O       -0.10742471      -0.52015713      -1.40397886
O        1.16292379       2.01514977      -0.42266867
C       -2.68726095      -0.06957397       0.04960624
C       -3.22654182       1.14416635       0.83802781
C       -1.36255852      -0.63277783       0.62768635
C       -4.75982065       1.17341468       0.78039427
C       -0.07865467      -0.09956348      -0.05671118
C       -0.02233032       1.43721204       0.06998357
H       -3.40870517      -0.89701753       0.14951478
H       -2.84838087       2.05465619       0.34186587
H       -1.33921186      -0.36230920       1.68834373
H       -5.09091068       1.20554314      -0.26260610
H       -5.15769878       0.27514627       1.25847465
H       -2.02332794      -0.25506660      -1.76105201
H       -3.52488445       1.52779545       2.69617616
H       -0.18806177       1.70032598       1.11921843
H       -0.83943936       1.84992904      -0.52469478
H       -0.97855431      -2.34461259      -0.24654716
H        1.86747739       1.87729149       0.23502764
H       -5.03387111       3.07957899       1.08362585
O        2.30389773      -1.92197422      -2.42254729
O        0.98822331      -3.05787602      -1.01680824
O        5.41482196      -2.07582566      -0.46083006
N        1.05919965      -0.70675675       0.66219972
N        4.93856052      -0.02472455       0.34453428
C        2.16672020      -1.10571860      -0.20636367
C        3.29053595      -1.73968538       0.63745521
C        1.72262605      -2.13136115      -1.24768164
C        4.66067145      -1.32387972       0.11053306
H        2.53484276      -0.22344969      -0.73835940
H        3.19794231      -1.40943514       1.67245864
H        3.21343356      -2.82723547       0.61359403
H        0.71226188      -1.55407806       1.11557291
H        0.20817579       0.19532733      -2.00831152
H        4.30549879       0.57072774       0.85665116
H        5.81461930       0.35054320       0.02299626
H        2.05842240      -2.60973796      -3.06104362
O        2.63412999       1.24451451       1.82703308
H        2.02504117       0.49264272       1.66038987
H        2.43079889       1.59281959       2.69655652
O        0.38104682       1.58415811      -3.03778202
H       -0.48117185       1.99399430      -3.14144480
H        0.85068672       2.07157017      -2.34520455
47
Properties=species:S:1:pos:R:3 pbc="F F F"
O       -2.64271052       0.27003715      -1.26596984
O       -2.78763262       1.16975268       2.16493426
O       -1.36395579      -2.05488697       0.61650694
O       -5.23820423       2.28327657       1.49361760
O       -0.15597736      -0.48670702      -1.49700009
O        1.16865245       1.98823997      -0.39088308
C       -2.69176847      -0.09136576       0.07872525
C       -3.21590410       1.14082848       0.82913035
C       -1.36728356      -0.65147004       0.66007847
C       -4.74791203       1.18456086       0.76949504
C       -0.08192218      -0.11514529      -0.01582811
C       -0.01539517       1.40729883       0.10126151
H       -3.41749319      -0.90194757       0.20611540
H       -2.82980162       2.02994802       0.31344152
H       -1.34791153      -0.38566945       1.72175268
H       -5.08125769       1.19888773      -0.27091376
H       -5.15356775       0.30387053       1.26410990
H       -2.04173978      -0.32640727      -1.72890962
H       -3.50911586       1.55059778       2.68034084
H       -0.21865678       1.69873944       1.10635338
H       -0.75247167       1.88930209      -0.58219458
H       -0.98732492      -2.36118994      -0.21749107
H        1.86695749       1.85160433       0.26098024
H       -5.00845475       3.10765740       1.04770682
O        2.33646655      -1.90045990      -2.43566643
O        1.03647465      -3.07077131      -1.05366584
O        5.39667399      -2.06919773      -0.48111423
N        1.03908127      -0.74692623       0.63075662
N        4.93889221      -0.01780054       0.33013386
C        2.15851607      -1.10925984      -0.22034373
C        3.28399552      -1.72398891       0.63296951
C        1.75156487      -2.13175981      -1.26988085
C        4.65175771      -1.31495355       0.09765258
H        2.51073093      -0.21779660      -0.74136580
H        3.18930517      -1.37680765       1.65965526
H        3.20889359      -2.80993922       0.62644101
H        0.69272004      -1.59283947       1.08337641
H        0.15218216       0.21190831      -2.08708427
H        4.31492557       0.57966212       0.84870773
H        5.81453656       0.35253491       0.00293329
H        2.09226365      -2.58465860      -3.07085309
O        2.61748578       1.23586804       1.87750199
H        2.01886253       0.49691516       1.71372210
H        2.41277678       1.58653346       2.75291788
O        0.38104682       1.58415811      -3.03778202
H        0.18364327       0.82293331      -2.47140935
H        0.84903855       2.06985963      -2.34763510
47
Properties=species:S:1:pos:R:3 pbc="F F F"
O       -2.65761667       0.19521719      -1.23652795
O       -2.77492212       1.19416926       2.15128355
O       -1.37051016      -2.07326671       0.64065549
O       -5.21301976       2.31052291       1.45814865
O       -0.20510993      -0.45029033      -1.58520171
O        1.17438112       1.96133017      -0.35909748
C       -2.69627598      -0.11315756       0.10784426
C       -3.20526638       1.13749061       0.82023290
C       -1.37200861      -0.67016225       0.69247059
C       -4.73600341       1.19570703       0.75859582
C       -0.08518968      -0.13072711       0.02505495
C       -0.00846001       1.37738563       0.13253944
H       -3.42628120      -0.90687762       0.26271603
H       -2.81122238       2.00523986       0.28501717
H       -1.35661121      -0.40902970       1.75516162
H       -5.07160471       1.19223233      -0.27922142
H       -5.14943672       0.33259480       1.26974515
H       -2.05664594      -0.40122723      -1.69946772
H       -3.49640535       1.57501437       2.66669013
H       -0.24925179       1.69715290       1.09348833
H       -0.66550397       1.92867513      -0.63969437
H       -0.99387929      -2.37956969      -0.19334252
H        1.87268615       1.82469453       0.29276583
H       -4.98327028       3.13490374       1.01223787
O        2.36903537      -1.87894559      -2.44878556
O        1.08472599      -3.08366660      -1.09052343
O        5.37852602      -2.06256980      -0.50139839
N        1.01896290      -0.78709570       0.59931353
N        4.93922389      -0.01087653       0.31573344
C        2.15031194      -1.11280107      -0.23432380
C        3.27745508      -1.70829244       0.62848380
C        1.78050369      -2.13215847      -1.29208006
C        4.64284396      -1.30602739       0.08477209
H        2.48661909      -0.21214351      -0.74437220
H        3.18066803      -1.34418015       1.64685189
H        3.20435363      -2.79264296       0.63928798
H        0.67260166      -1.63300895       1.05193331
H        0.10304959       0.24832499      -2.17528589
H        4.32435235       0.58859651       0.84076430
H        5.81445382       0.35452662      -0.01712969
H        2.12483247      -2.56314428      -3.08397223
O        2.60084157       1.22722156       1.92797089
H        2.00221832       0.48826869       1.76419100
H        2.39613256       1.57788699       2.80338679
O        0.38104682       1.58415811      -3.03778202
H        0.15470441       0.79856287      -2.47687315
H        0.84903855       2.06985963      -2.34763510
47
Properties=species:S:1:pos:R:3 pbc="F F F"
O       -2.67252283       0.12039724      -1.20708605
O       -2.76221161       1.21858585       2.13763284
O       -1.37706454      -2.09164646       0.66480404
O       -5.18783529       2.33776925       1.42267969
O       -0.25438552      -0.41206710      -1.66921133
O        1.18010978       1.93442036      -0.32731189
C       -2.70078350      -0.13494935       0.13696327
C       -3.19462866       1.13415274       0.81133544
C       -1.37673365      -0.68885446       0.72486271
C       -4.72409479       1.20685321       0.74769659
C       -0.08845719      -0.14630892       0.06593802
C       -0.00152486       1.34747242       0.16381738
H       -3.43506922      -0.91180766       0.31931665
H       -2.79264313       1.98053169       0.25659281
H       -1.36531088      -0.43238995       1.78857057
H       -5.06195172       1.18557692      -0.28752908
H       -5.14530569       0.36131906       1.27538040
H       -2.07155209      -0.47604718      -1.67002582
H       -3.48369485       1.59943096       2.65303942
H       -0.27984680       1.69556636       1.08062328
H       -0.57853628       1.96804818      -0.69719417
H       -1.00043367      -2.39794944      -0.16919397
H        1.87841482       1.79778473       0.32455143
H       -4.95808581       3.16215008       0.97676891
O        2.40160418      -1.85743127      -2.46190470
O        1.13297732      -3.09656189      -1.12738103
O        5.36037805      -2.05594187      -0.52168256
N        0.99884452      -0.82726518       0.56787043
N        4.93955558      -0.00395253       0.30133303
C        2.14210781      -1.11634231      -0.24830386
C        3.27091465      -1.69259597       0.62399810
C        1.80944251      -2.13255712      -1.31427927
C        4.63393022      -1.29710122       0.07189161
H        2.46250726      -0.20649042      -0.74737860
H        3.17203089      -1.31155266       1.63404851
H        3.19981366      -2.77534671       0.65213496
H        0.65248328      -1.67317843       1.02049022
H        0.05377399       0.28654822      -2.25929551
H        4.33377913       0.59753089       0.83282087
H        5.81437108       0.35651833      -0.03719266
H        2.15740128      -2.54162997      -3.09709136
O        2.58419736       1.21857509       1.97843980
H        1.98557411       0.47962222       1.81465991
H        2.37948835       1.56924051       2.85385570
O        0.38104682       1.58415811      -3.03778202
H        0.12188934       0.77000896      -2.47961821
H        0.84903855       2.06985963      -2.34763510
47
Properties=species:S:1:pos:R:3 pbc="F F F"
O       -2.68742898       0.04557728      -1.17764416
O       -2.74950110       1.24300244       2.12398213
O       -1.38361891      -2.11002621       0.68895259
O       -5.16265082       2.36501558       1.38721074
O       -0.30353890      -0.37282683      -1.74964814
O        1.18583845       1.90751056      -0.29552629
C       -2.70529102      -0.15674114       0.16608228
C       -3.18399094       1.13081487       0.80243799
C       -1.38145870      -0.70754667       0.75725483
C       -4.71218617       1.21799938       0.73679737
C       -0.09172470      -0.16189074       0.10682109
C        0.00541030       1.31755922       0.19509532
H       -3.44385723      -0.91673770       0.37591728
H       -2.77406389       1.95582353       0.22816846
H       -1.37401056      -0.45575021       1.82197952
H       -5.05229874       1.17892151      -0.29583673
H       -5.14117466       0.39004333       1.28101565
H       -2.08645825      -0.55086713      -1.64058393
H       -3.47098434       1.62384754       2.63938871
H       -0.31044181       1.69397982       1.06775823
H       -0.49156859       2.00742122      -0.75469396
H       -1.00698804      -2.41632918      -0.14504542
H        1.88414348       1.77087492       0.35633702
H       -4.93290134       3.18939641       0.94129996
O        2.43417300      -1.83591696      -2.47502384
O        1.18122866      -3.10945718      -1.16423862
O        5.34223008      -2.04931394      -0.54196673
N        0.97872614      -0.86743465       0.53642734
N        4.93988726       0.00297148       0.28693261
C        2.13390368      -1.11988355      -0.26228392
C        3.26437421      -1.67689950       0.61951240
C        1.83838133      -2.13295578      -1.33647847
C        4.62501648      -1.28817506       0.05901113
H        2.43839542      -0.20083733      -0.75038500
H        3.16339375      -1.27892516       1.62124514
H        3.19527370      -2.75805045       0.66498193
H        0.63236490      -1.71334790       0.98904712
H        0.00462062       0.32578849      -2.33973232
H        4.34320591       0.60646528       0.82487744
H        5.81428835       0.35851005      -0.05725563
H        2.18997010      -2.52011565      -3.11021050
O        2.56755314       1.20992862       2.02890871
H        1.96892989       0.47097574       1.86512882
H        2.36284414       1.56059404       2.90432460
O        0.38104682       1.58415811      -3.03778202
H        0.08617121       0.74121455      -2.48293659
H        0.84903855       2.06985963      -2.34763510
47
Properties=species:S:1:pos:R:3 pbc="F F F"
O       -2.70233514      -0.02924267      -1.14820226
O       -2.73679060       1.26741902       2.11033142
O       -1.39017329      -2.12840596       0.71310114
O       -5.13746635       2.39226192       1.35174178
O       -0.35241771      -0.33309638      -1.82707293
O        1.19156711       1.88060076      -0.26374070
C       -2.70979853      -0.17853293       0.19520129
C       -3.17335322       1.12747700       0.79354053
C       -1.38618374      -0.72623888       0.78964695
C       -4.70027755       1.22914556       0.72589814
C       -0.09499220      -0.17747255       0.14770416
C        0.01234545       1.28764601       0.22637326
H       -3.45264525      -0.92166774       0.43251790
H       -2.75548464       1.93111536       0.19974411
H       -1.38271023      -0.47911046       1.85538846
H       -5.04264575       1.17226610      -0.30414439
H       -5.13704363       0.41876759       1.28665090
H       -2.10136440      -0.62568709      -1.61114203
H       -3.45827383       1.64826413       2.62573800
H       -0.34103682       1.69239328       1.05489318
H       -0.40460089       2.04679427      -0.81219376
H       -1.01354242      -2.43470893      -0.12089687
H        1.88987214       1.74396512       0.38812261
H       -4.90771687       3.21664275       0.90583100
O        2.46674182      -1.81440264      -2.48814298
O        1.22948000      -3.12235247      -1.20109622
O        5.32408211      -2.04268601      -0.56225090
N        0.95860776      -0.90760413       0.50498424
N        4.94021895       0.00989549       0.27253219
C        2.12569955      -1.12342479      -0.27626399
C        3.25783378      -1.66120303       0.61502669
C        1.86732015      -2.13335444      -1.35867768
C        4.61610273      -1.27924889       0.04613065
H        2.41428359      -0.19518424      -0.75339140
H        3.15475661      -1.24629767       1.60844176
H        3.19073373      -2.74075420       0.67782891
H        0.61224653      -1.75351738       0.95760402
H       -0.04425820       0.36551895      -2.41715711
H        4.35263269       0.61539966       0.81693401
H        5.81420561       0.36050176      -0.07731860
H        2.22253892      -2.49860133      -3.12332964
O        2.55090893       1.20128215       2.07937762
H        1.95228568       0.46232927       1.91559773
H        2.34619993       1.55194757       2.95479351
O        0.38104682       1.58415811      -3.03778202
H        0.04863384       0.71524046      -2.48907735
H        0.84903855       2.06985963      -2.34763510
47
Properties=species:S:1:pos:R:3 pbc="F F F"
O       -2.71724129      -0.10406262      -1.11876037
O       -2.72408009       1.29183561       2.09668071
O       -1.39672766      -2.14678570       0.73724969
O       -5.11228188       2.41950826       1.31627282
O       -0.40094194      -0.29322090      -1.90197127
O        1.19729577       1.85369096      -0.23195511
C       -2.71430605      -0.20032473       0.22432030
C       -3.16271550       1.12413913       0.78464307
C       -1.39090879      -0.74493109       0.82203907
C       -4.68836893       1.24029174       0.71499892
C       -0.09825971      -0.19305436       0.18858722
C        0.01928061       1.25773281       0.25765119
H       -3.46143326      -0.92659779       0.48911853
H       -2.73690540       1.90640720       0.17131976
H       -1.39140991      -0.50247071       1.88879741
H       -5.03299276       1.16561070      -0.31245205
H       -5.13291260       0.44749185       1.29228615
H       -2.11627056      -0.70050704      -1.58170014
H       -3.44556333       1.67268072       2.61208729
H       -0.37163183       1.69080674       1.04202813
H       -0.31763320       2.08616732      -0.86969355
H       -1.02009679      -2.45308868      -0.09674832
H        1.89560081       1.71705532       0.41990821
H       -4.88253240       3.24388909       0.87036204
O        2.49931064      -1.79288833      -2.50126211
O        1.27773134      -3.13524776      -1.23795381
O        5.30593414      -2.03605808      -0.58253506
N        0.93848939      -0.94777360       0.47354114
N        4.94055063       0.01681950       0.25813177
C        2.11749542      -1.12696602      -0.29024405
C        3.25129335      -1.64550656       0.61054099
C        1.89625897      -2.13375310      -1.38087689
C        4.60718899      -1.27032273       0.03325016
H        2.39017175      -0.18953115      -0.75639780
H        3.14611947      -1.21367018       1.59563839
H        3.18619377      -2.72345795       0.69067589
H        0.59212815      -1.79368685       0.92616093
H       -0.09278242       0.40539443      -2.49205545
H        4.36205947       0.62433405       0.80899058
H        5.81412287       0.36249347      -0.09738158
H        2.25510774      -2.47708702      -3.13644877
O        2.53426472       1.19263567       2.12984652
H        1.93564147       0.45368280       1.96606663
H        2.32955572       1.54330109       3.00526242
O        0.38104682       1.58415811      -3.03778202
H        0.01039332       0.69430248      -2.49942105
H        0.84903855       2.06985963      -2.34763510
47
Properties=species:S:1:pos:R:3 pbc="F F F"
O       -2.73214745      -0.17888258      -1.08931847
O       -2.71136958       1.31625220       2.08303000
O       -1.40328204      -2.16516545       0.76139824
O       -5.08709741       2.44675460       1.28080387
O       -0.44907674      -0.25342171      -1.97475322
O        1.20302444       1.82678116      -0.20016951
C       -2.71881357      -0.22211652       0.25343931
C       -3.15207778       1.12080126       0.77574562
C       -1.39563383      -0.76362330       0.85443119
C       -4.67646031       1.25143791       0.70409969
C       -0.10152722      -0.20863618       0.22947029
C        0.02621576       1.22781960       0.28892913
H       -3.47022128      -0.93152783       0.54571915
H       -2.71832615       1.88169903       0.14289541
H       -1.40010958      -0.52583096       1.92220636
H       -5.02333978       1.15895529      -0.32075971
H       -5.12878157       0.47621612       1.29792140
H       -2.13117671      -0.77532700      -1.55225824
H       -3.43285282       1.69709730       2.59843658
H       -0.40222684       1.68922020       1.02916308
H       -0.23066551       2.12554036      -0.92719335
H       -1.02665117      -2.47146843      -0.07259977
H        1.90132947       1.69014552       0.45169380
H       -4.85734793       3.27113543       0.83489309
O        2.53187946      -1.77137401      -2.51438125
O        1.32598268      -3.14814305      -1.27481141
O        5.28778617      -2.02943015      -0.60281923
N        0.91837101      -0.98794308       0.44209805
N        4.94088232       0.02374351       0.24373135
C        2.10929129      -1.13050726      -0.30422411
C        3.24475291      -1.62981009       0.60605529
C        1.92519779      -2.13415176      -1.40307610
C        4.59827525      -1.26139656       0.02036968
H        2.36605992      -0.18387806      -0.75940420
H        3.13748233      -1.18104268       1.58283501
H        3.18165380      -2.70616169       0.70352286
H        0.57200977      -1.83385633       0.89471783
H       -0.14091722       0.44519361      -2.56483739
H        4.37148625       0.63326843       0.80104715
H        5.81404013       0.36448518      -0.11744455
H        2.28767656      -2.45557270      -3.14956791
O        2.51762051       1.18398920       2.18031543
H        1.91899726       0.44503633       2.01653554
H        2.31291151       1.53465462       3.05573132
O        0.38104682       1.58415811      -3.03778202
H       -0.02747967       0.67983485      -2.51463649
H        0.84903855       2.06985963      -2.34763510
47
Properties=species:S:1:pos:R:3 pbc="F F F"
O       -2.74705360      -0.25370253      -1.05987658
O       -2.69865908       1.34066878       2.06937929
O       -1.40983641      -2.18354520       0.78554678
O       -5.06191295       2.47400094       1.24533491
O       -0.49681485      -0.21383663      -2.04576034
O        1.20875310       1.79987135      -0.16838392
C       -2.72332108      -0.24390831       0.28255832
C       -3.14144006       1.11746339       0.76684816
C       -1.40035888      -0.78231550       0.88682330
C       -4.66455169       1.26258409       0.69320047
C       -0.10479472      -0.22421799       0.27035336
C        0.03315092       1.19790640       0.32020707
H       -3.47900929      -0.93645787       0.60231978
H       -2.69974691       1.85699087       0.11447105
H       -1.40880926      -0.54919121       1.95561530
H       -5.01368679       1.15229988      -0.32906737
H       -5.12465055       0.50494038       1.30355664
H       -2.14608287      -0.85014695      -1.52281635
H       -3.42014231       1.72151389       2.58478587
H       -0.43282185       1.68763366       1.01629804
H       -0.14369781       2.16491341      -0.98469314
H       -1.03320554      -2.48984817      -0.04845122
H        1.90705814       1.66323572       0.48347940
H       -4.83216346       3.29838177       0.79942413
O        2.56444827      -1.74985970      -2.52750039
O        1.37423401      -3.16103835      -1.31166900
O        5.26963820      -2.02280221      -0.62310340
N        0.89825263      -1.02811255       0.41065495
N        4.94121400       0.03066751       0.22933094
C        2.10108715      -1.13404850      -0.31820418
C        3.23821248      -1.61411362       0.60156958
C        1.95413661      -2.13455041      -1.42527531
C        4.58936150      -1.25247040       0.00748920
H        2.34194808      -0.17822496      -0.76241060
H        3.12884518      -1.14841519       1.57003164
H        3.17711384      -2.68886544       0.71636984
H        0.55189140      -1.87402580       0.86327474
H       -0.18865534       0.48477870      -2.63584452
H        4.38091304       0.64220282       0.79310371
H        5.81395739       0.36647689      -0.13750752
H        2.32024537      -2.43405839      -3.16268705
O        2.50097630       1.17534273       2.23078434
H        1.90235305       0.43638985       2.06700445
H        2.29626730       1.52600815       3.10620023
O        0.38104682       1.58415811      -3.03778202
H       -0.06403210       0.67256852      -2.53482358
H        0.84903855       2.06985963      -2.34763510
47
Properties=species:S:1:pos:R:3 pbc="F F F"
O       -2.76195976      -0.32852249      -1.03043468
O       -2.68594857       1.36508537       2.05572858
O       -1.41639079      -2.20192495       0.80969533
O       -5.03672848       2.50124728       1.20986596
O       -0.54416526      -0.17454756      -2.11527518
O        1.21448177       1.77296155      -0.13659832
C       -2.72782860      -0.26570010       0.31167733
C       -3.13080234       1.11412552       0.75795071
C       -1.40508392      -0.80100771       0.91921542
C       -4.65264307       1.27373026       0.68230124
C       -0.10806223      -0.23979981       0.31123643
C        0.04008607       1.16799319       0.35148501
H       -3.48779731      -0.94138791       0.65892040
H       -2.68116766       1.83228270       0.08604670
H       -1.41750893      -0.57255146       1.98902425
H       -5.00403381       1.14564447      -0.33737503
H       -5.12051952       0.53366465       1.30919189
H       -2.16098902      -0.92496690      -1.49337445
H       -3.40743181       1.74593048       2.57113516
H       -0.46341686       1.68604712       1.00343299
H       -0.05673012       2.20428645      -1.04219294
H       -1.03975992      -2.50822792      -0.02430267
H        1.91278680       1.63632591       0.51526499
H       -4.80697899       3.32562811       0.76395518
O        2.59701709      -1.72834538      -2.54061953
O        1.42248535      -3.17393364      -1.34852660
O        5.25149023      -2.01617428      -0.64338757
N        0.87813425      -1.06828203       0.37921186
N        4.94154569       0.03759152       0.21493052
C        2.09288302      -1.13758974      -0.33218424
C        3.23167204      -1.59841715       0.59708388
C        1.98307543      -2.13494907      -1.44747452
C        4.58044776      -1.24354423      -0.00539128
H        2.31783625      -0.17257187      -0.76541700
H        3.12020804      -1.11578769       1.55722826
H        3.17257387      -2.67156918       0.72921681
H        0.53177302      -1.91419528       0.83183164
H       -0.23600574       0.52406777      -2.70535936
H        4.39033982       0.65113720       0.78516028
H        5.81387465       0.36846860      -0.15757049
H        2.35281419      -2.41254407      -3.17580619
O        2.48433209       1.16669626       2.28125325
H        1.88570884       0.42774338       2.11747336
H        2.27962308       1.51736168       3.15666914
O        0.38104682       1.58415811      -3.03778202
H       -0.09849097       0.67262025      -2.55964635
H        0.84903855       2.06985963      -2.34763510
47
Properties=species:S:1:pos:R:3 pbc="F F F"
O       -2.77686591      -0.40334244      -1.00099279
O       -2.67323806       1.38950196       2.04207787
O       -1.42294516      -2.22030469       0.83384388
O       -5.01154401       2.52849362       1.17439700
O       -0.59114600      -0.13559927      -2.18353081
O        1.22021043       1.74605175      -0.10481273
C       -2.73233612      -0.28749190       0.34079634
C       -3.12016462       1.11078765       0.74905325
C       -1.40980897      -0.81969992       0.95160754
C       -4.64073445       1.28487644       0.67140202
C       -0.11132974      -0.25538162       0.35211949
C        0.04702123       1.13807999       0.38276294
H       -3.49658532      -0.94631796       0.71552103
H       -2.66258842       1.80757454       0.05762235
H       -1.42620861      -0.59591171       2.02243320
H       -4.99438082       1.13898907      -0.34568269
H       -5.11638849       0.56238891       1.31482714
H       -2.17589518      -0.99978686      -1.46393256
H       -3.39472130       1.77034706       2.55748445
H       -0.49401187       1.68446058       0.99056794
H        0.03023757       2.24365950      -1.09969273
H       -1.04631429      -2.52660767      -0.00015412
H        1.91851546       1.60941611       0.54705058
H       -4.78179452       3.35287445       0.72848622
O        2.62958591      -1.70683107      -2.55373866
O        1.47073669      -3.18682893      -1.38538419
O        5.23334226      -2.00954635      -0.66367173
N        0.85801588      -1.10845150       0.34776876
N        4.94187737       0.04451553       0.20053010
C        2.08467889      -1.14113097      -0.34616430
C        3.22513161      -1.58272068       0.59259818
C        2.01201425      -2.13534773      -1.46967373
C        4.57153402      -1.23461807      -0.01827177
H        2.29372441      -0.16691878      -0.76842340
H        3.11157090      -1.08316020       1.54442489
H        3.16803391      -2.65427293       0.74206379
H        0.51165464      -1.95436475       0.80038854
H       -0.28298648       0.56301606      -2.77361498
H        4.39976660       0.66007159       0.77721685
H        5.81379191       0.37046031      -0.17763347
H        2.38538301      -2.39102976      -3.18892532
O        2.46768788       1.15804978       2.33172215
H        1.86906463       0.41909691       2.16794226
H        2.26297887       1.50871520       3.20713805
O        0.38104682       1.58415811      -3.03778202
H       -0.13031214       0.67959132      -2.58845859
H        0.84903855       2.06985963      -2.34763510
47
Properties=species:S:1:pos:R:3 pbc="F F F"
O       -2.79177207      -0.47816239      -0.97155089
O       -2.66052756       1.41391854       2.02842716
O       -1.42949954      -2.23868444       0.85799243
O       -4.98635954       2.55573996       1.13892804
O       -0.63777970      -0.09701212      -2.25071946
O        1.22593909       1.71914195      -0.07302714
C       -2.73684363      -0.30928369       0.36991535
C       -3.10952690       1.10744978       0.74015579
C       -1.41453401      -0.83839213       0.98399966
C       -4.62882583       1.29602262       0.66050279
C       -0.11459724      -0.27096343       0.39300256
C        0.05395638       1.10816678       0.41404088
H       -3.50537334      -0.95124800       0.77212165
H       -2.64400917       1.78286637       0.02919800
H       -1.43490828      -0.61927196       2.05584214
H       -4.98472783       1.13233366      -0.35399035
H       -5.11225746       0.59111317       1.32046239
H       -2.19080133      -1.07460681      -1.43449066
H       -3.38201079       1.79476365       2.54383374
H       -0.52460688       1.68287404       0.97770289
H        0.11720527       2.28303255      -1.15719253
H       -1.05286867      -2.54498741       0.02399443
H        1.92424413       1.58250631       0.57883618
H       -4.75661006       3.38012078       0.69301726
O        2.66215473      -1.68531675      -2.56685780
O        1.51898803      -3.19972422      -1.42224179
O        5.21519429      -2.00291842      -0.68395590
N        0.83789750      -1.14862098       0.31632566
N        4.94220906       0.05143954       0.18612968
C        2.07647476      -1.14467221      -0.36014437
C        3.21859118      -1.56702421       0.58811247
C        2.04095307      -2.13574639      -1.49187294
C        4.56262027      -1.22569190      -0.03115225
H        2.26961258      -0.16126569      -0.77142980
H        3.10293376      -1.05053271       1.53162151
H        3.16349394      -2.63697668       0.75491077
H        0.49153626      -1.99453423       0.76894545
H       -0.32962018       0.60160321      -2.84080363
H        4.40919338       0.66900597       0.76927342
H        5.81370917       0.37245202      -0.19769644
H        2.41795183      -2.36951544      -3.20204446
O        2.45104367       1.14940331       2.38219106
H        1.85242041       0.41045044       2.21841117
H        2.24633466       1.50006873       3.25760695
O        0.38104682       1.58415811      -3.03778202
H       -0.15921135       0.69267567      -2.62042247
H        0.84903855       2.06985963      -2.34763510
47
Properties=species:S:1:pos:R:3 pbc="F F F"
O       -2.80667822      -0.55298235      -0.94210900
O       -2.64781705       1.43833513       2.01477645
O       -1.43605391      -2.25706419       0.88214098
O       -4.96117507       2.58298629       1.10345909
O       -0.68409082      -0.05879060      -2.31699997
O        1.23166776       1.69223215      -0.04124154
C       -2.74135115      -0.33107548       0.39903436
C       -3.09888918       1.10411191       0.73125834
C       -1.41925906      -0.85708434       1.01639178
C       -4.61691721       1.30716879       0.64960357
C       -0.11786475      -0.28654525       0.43388563
C        0.06089154       1.07825358       0.44531882
H       -3.51416135      -0.95617804       0.82872228
H       -2.62542993       1.75815821       0.00077365
H       -1.44360796      -0.64263222       2.08925109
H       -4.97507485       1.12567825      -0.36229800
H       -5.10812643       0.61983744       1.32609764
H       -2.20570749      -1.14942677      -1.40504877
H       -3.36930029       1.81918024       2.53018303
H       -0.55520189       1.68128750       0.96483784
H        0.20417296       2.32240559      -1.21469232
H       -1.05942304      -2.56336716       0.04814297
H        1.92997279       1.55559651       0.61062177
H       -4.73142559       3.40736712       0.65754831
O        2.69472355      -1.66380244      -2.57997694
O        1.56723937      -3.21261951      -1.45909938
O        5.19704632      -1.99629049      -0.70424007
N        0.81777912      -1.18879045       0.28488257
N        4.94254074       0.05836355       0.17172926
C        2.06827063      -1.14821345      -0.37412443
C        3.21205074      -1.55132774       0.58362677
C        2.06989189      -2.13614505      -1.51407214
C        4.55370653      -1.21676574      -0.04403273
H        2.24550074      -0.15561260      -0.77443620
H        3.09429662      -1.01790521       1.51881814
H        3.15895398      -2.61968042       0.76775774
H        0.47141789      -2.03470370       0.73750235
H       -0.37593130       0.63982472      -2.90708415
H        4.41862016       0.67794036       0.76132999
H        5.81362644       0.37444374      -0.21775941
H        2.45052065      -2.34800113      -3.21516360
O        2.43439945       1.14075684       2.43265997
H        1.83577620       0.40180396       2.26888008
H        2.22969045       1.49142226       3.30807586
O        0.38104682       1.58415811      -3.03778202
H       -0.18517366       0.71077689      -2.65461881
H        0.84903855       2.06985963      -2.34763510
47
Properties=species:S:1:pos:R:3 pbc="F F F"
O       -2.82158438      -0.62780230      -0.91266710
O       -2.63510654       1.46275172       2.00112574
O       -1.44260829      -2.27544394       0.90628953
O       -4.93599060       2.61023263       1.06799013
O       -0.73010398      -0.02092911      -2.38250397
O        1.23739642       1.66532234      -0.00945595
C       -2.74585867      -0.35286727       0.42815337
C       -3.08825146       1.10077404       0.72236088
C       -1.42398410      -0.87577655       1.04878390
C       -4.60500859       1.31831497       0.63870434
C       -0.12113226      -0.30212706       0.47476870
C        0.06782669       1.04834037       0.47659676
H       -3.52294937      -0.96110808       0.88532290
H       -2.60685068       1.73345004      -0.02765071
H       -1.45230763      -0.66599247       2.12266004
H       -4.96542186       1.11902284      -0.37060566
H       -5.10399540       0.64856170       1.33173289
H       -2.22061364      -1.22424672      -1.37560687
H       -3.35658978       1.84359682       2.51653232
H       -0.58579690       1.67970096       0.95197279
H        0.29114065       2.36177864      -1.27219212
H       -1.06597742      -2.58174691       0.07229152
H        1.93570146       1.52868671       0.64240737
H       -4.70624112       3.43461346       0.62207935
O        2.72729236      -1.64228812      -2.59309608
O        1.61549070      -3.22551480      -1.49595698
O        5.17889835      -1.98966256      -0.72452424
N        0.79766074      -1.22895993       0.25343947
N        4.94287243       0.06528755       0.15732885
C        2.06006650      -1.15175469      -0.38810449
C        3.20551031      -1.53563127       0.57914107
C        2.09883071      -2.13654370      -1.53627135
C        4.54479279      -1.20783957      -0.05691321
H        2.22138891      -0.14995951      -0.77744260
H        3.08565948      -0.98527772       1.50601476
H        3.15441401      -2.60238417       0.78060472
H        0.45129951      -2.07487318       0.70605926
H       -0.42194446       0.67768622      -2.97258815
H        4.42804694       0.68687474       0.75338656
H        5.81354370       0.37643545      -0.23782238
H        2.48308946      -2.32648681      -3.22828274
O        2.41775524       1.13211037       2.48312888
H        1.81913199       0.39315749       2.31934899
H        2.21304624       1.48277579       3.35854477
O        0.38104682       1.58415811      -3.03778202
H       -0.20843756       0.73263207      -2.69014588
H        0.84903855       2.06985963      -2.34763510
47
Properties=species:S:1:pos:R:3 pbc="F F F"
O       -2.83649053      -0.70262226      -0.88322521
O       -2.62239604       1.48716830       1.98747503
O       -1.44916266      -2.29382368       0.93043808
O       -4.91080613       2.63747897       1.03252118
O       -0.77584300       0.01658420      -2.44734090
O        1.24312509       1.63841254       0.02232965
C       -2.75036618      -0.37465907       0.45727238
C       -3.07761374       1.09743617       0.71346343
C       -1.42870915      -0.89446876       1.08117602
C       -4.59309997       1.32946114       0.62780512
C       -0.12439976      -0.31770888       0.51565176
C        0.07476185       1.01842717       0.50787469
H       -3.53173738      -0.96603813       0.94192353
H       -2.58827144       1.70874188      -0.05607506
H       -1.46100731      -0.68935272       2.15606898
H       -4.95576888       1.11236744      -0.37891332
H       -5.09986437       0.67728597       1.33736814
H       -2.23551980      -1.29906667      -1.34616498
H       -3.34387927       1.86801341       2.50288161
H       -0.61639191       1.67811442       0.93910774
H        0.37810835       2.40115168      -1.32969191
H       -1.07253180      -2.60012666       0.09644007
H        1.94143012       1.50177690       0.67419296
H       -4.68105665       3.46185980       0.58661040
O        2.75986118      -1.62077381      -2.60621521
O        1.66374204      -3.23841009      -1.53281457
O        5.16075038      -1.98303463      -0.74480840
N        0.77754237      -1.26912940       0.22199638
N        4.94320411       0.07221156       0.14292843
C        2.05186237      -1.15529592      -0.40208456
C        3.19896987      -1.51993480       0.57465536
C        2.12776953      -2.13694236      -1.55847056
C        4.53587904      -1.19891341      -0.06979370
H        2.19727707      -0.14430642      -0.78044900
H        3.07702234      -0.95265022       1.49321139
H        3.14987405      -2.58508791       0.79345169
H        0.43118113      -2.11504265       0.67461616
H       -0.46768349       0.71519952      -3.03742508
H        4.43747372       0.69580913       0.74544313
H        5.81346096       0.37842716      -0.25788536
H        2.51565828      -2.30497250      -3.24140187
O        2.40111103       1.12346389       2.53359778
H        1.80248778       0.38451102       2.36981789
H        2.19640203       1.47412931       3.40901368
O        0.38104682       1.58415811      -3.03778202
H       -0.22945120       0.75693952      -2.72620254
H        0.84903855       2.06985963      -2.34763510
47
Properties=species:S:1:pos:R:3 pbc="F F F"
O       -2.85139669      -0.77744221      -0.85378331
O       -2.60968553       1.51158489       1.97382432
O       -1.45571704      -2.31220343       0.95458663
O       -4.88562166       2.66472531       0.99705222
O       -0.82133039       0.05376478      -2.51160215
O        1.24885375       1.61150274       0.05411524
C       -2.75487370      -0.39645086       0.48639139
C       -3.06697602       1.09409830       0.70456597
C       -1.43343419      -0.91316097       1.11356814
C       -4.58119135       1.34060732       0.61690589
C       -0.12766727      -0.33329069       0.55653483
C        0.08169700       0.98851396       0.53915263
H       -3.54052540      -0.97096817       0.99852415
H       -2.56969219       1.68403371      -0.08449941
H       -1.46970698      -0.71271297       2.18947793
H       -4.94611589       1.10571203      -0.38722098
H       -5.09573334       0.70601023       1.34300339
H       -2.13177211      -0.38022016      -1.39404512
H       -3.25597958       2.15901447       2.29659044
H       -0.64698692       1.67652788       0.92624269
H        0.46507604       2.44052473      -1.38719171
H       -1.84431734      -2.47982568       0.08018165
H        1.86959963       1.69533839       0.79536257
H       -4.55379592       3.26923027       0.32345745
O        2.79243000      -1.59925949      -2.61933435
O        1.71199338      -3.25130538      -1.56967217
O        5.14260241      -1.97640670      -0.76509257
N        0.75742399      -1.30929888       0.19055328
N        4.94353580       0.07913557       0.12852801
C        2.04365824      -1.15883716      -0.41606462
C        3.19242944      -1.50423833       0.57016966
C        2.15670835      -2.13734102      -1.58066977
C        4.52696530      -1.18998724      -0.08267418
H        2.17316524      -0.13865333      -0.78345540
H        3.06838520      -0.92002273       1.48040801
H        3.14533408      -2.56779166       0.80629867
H        0.42971310      -2.25833069       0.32380522
H        0.01811934      -0.39916686      -2.41571824
H        4.44690050       0.70474351       0.73749970
H        5.81337822       0.38041887      -0.27794833
H        2.95309297      -2.26363415      -3.30864718
O        2.38446682       1.11481742       2.58406669
H        1.59497889       0.56755270       2.66042031
H        2.37387429       1.71976981       3.32887869
O        0.00508983       2.65143410      -2.21557878
H       -0.62967472       1.01019343      -2.48077616
H        0.66753341       2.97470088      -2.82828867
