47
Properties=species:S:1:pos:R:3 pbc="F F F"
O       -2.62780436       0.34485710      -1.29541174
O       -2.80034313       1.14533609       2.17858497
O       -1.35740141      -2.03650722       0.59235839
O       -5.26338870       2.25603023       1.52908656
O       -0.10742471      -0.52015713      -1.40397886
O        1.16292379       2.01514977      -0.42266867
C       -2.68726095      -0.06957397       0.04960624
C       -3.22654182       1.14416635       0.83802781
C       -1.36255852      -0.63277783       0.62768635
C       -4.75982065       1.17341468       0.78039427
C       -0.07865467      -0.09956348      -0.05671118
C       -0.02233032       1.43721204       0.06998357
H       -3.40870517      -0.89701753       0.14951478
H       -2.84838087       2.05465619       0.34186587
H       -1.33921186      -0.36230920       1.68834373
H       -5.09091068       1.20554314      -0.26260610
H       -5.15769878       0.27514627       1.25847465
H       -2.02332794      -0.25506660      -1.76105201
H       -3.52488445       1.52779545       2.69617616
H       -0.18806177       1.70032598       1.11921843
H       -0.83943936       1.84992904      -0.52469478
H       -0.97855431      -2.34461259      -0.24654716
H        1.86747739       1.87729149       0.23502764
H       -5.03387111       3.07957899       1.08362585
O        2.30389773      -1.92197422      -2.42254729
O        0.98822331      -3.05787602      -1.01680824
O        5.41482196      -2.07582566      -0.46083006
N        1.05919965      -0.70675675       0.66219972
N        4.93856052      -0.02472455       0.34453428
C        2.16672020      -1.10571860      -0.20636367
C        3.29053595      -1.73968538       0.63745521
C        1.72262605      -2.13136115      -1.24768164
C        4.66067145      -1.32387972       0.11053306
H        2.53484276      -0.22344969      -0.73835940
H        3.19794231      -1.40943514       1.67245864
H        3.21343356      -2.82723547       0.61359403
H        0.71226188      -1.55407806       1.11557291
H        0.20817579       0.19532733      -2.00831152
H        4.30549879       0.57072774       0.85665116
H        5.81461930       0.35054320       0.02299626
H        2.05842240      -2.60973796      -3.06104362
O        2.63412999       1.24451451       1.82703308
H        2.02504117       0.49264272       1.66038987
H        2.43079889       1.59281959       2.69655652
O        0.38104682       1.58415811      -3.03778202
H       -0.48117185       1.99399430      -3.14144480
H        0.85068672       2.07157017      -2.34520455
47
Properties=species:S:1:pos:R:3 pbc="F F F"
O       -2.66837846       0.26176258      -1.28766331
O       -2.75639154       1.18543791       2.15508912
O       -1.37098822      -2.06522445       0.58774300
O       -5.20025863       2.33718319       1.48617682
O       -0.12681760      -0.54144994      -1.40178376
O        1.17632418       1.97852858      -0.37052158
C       -2.69953179      -0.09429049       0.07013341
C       -3.20144077       1.15324111       0.82235311
C       -1.37298437      -0.66204259       0.63579463
C       -4.73261125       1.21669078       0.77987617
C       -0.08947221      -0.12817487      -0.05051179
C       -0.02521987       1.40796028       0.08169052
H       -3.43057625      -0.90090661       0.21762730
H       -2.81337741       2.03782649       0.29371472
H       -1.34284846      -0.40149225       1.69835515
H       -5.07657822       1.21501842      -0.25748484
H       -5.14364039       0.35130255       1.29694785
H       -2.01647123      -0.29126160      -1.73277563
H       -3.45841824       1.60980176       2.66416167
H       -0.22219355       1.67081386       1.12407909
H       -0.81858209       1.82801677      -0.53654519
H       -1.03922718      -2.36134159      -0.26970460
H        1.85177099       1.84214766       0.31400101
H       -4.95992379       3.13323349       1.00506622
O        2.35414033      -1.86278798      -2.42825240
O        1.07207888      -3.06605476      -1.05422795
O        5.39060232      -2.07123861      -0.51090476
N        1.04596566      -0.74413032       0.65959424
N        4.96360126      -0.01316740       0.29858028
C        2.17124951      -1.09263983      -0.20216561
C        3.30490519      -1.70409997       0.64324470
C        1.77412408      -2.11391858      -1.26266865
C        4.66315464      -1.30959136       0.07865131
H        2.51595118      -0.19229276      -0.71533415
H        3.22948676      -1.34048821       1.66581387
H        3.22309766      -2.78994666       0.65270899
H        0.70707533      -1.61015512       1.07692151
H        0.19705303       0.17264990      -2.00039814
H        4.35293788       0.59111162       0.82349765
H        5.83275554       0.35117442      -0.04925763
H        2.14521263      -2.54878572      -3.07810142
O        2.54400422       1.19457236       1.93383904
H        1.95399899       0.43981036       1.73324586
H        2.29489347       1.53243872       2.79148562
O        0.31533291       1.57875052      -3.03976509
H       -0.55735718       1.95708432      -3.15588927
H        0.77838309       2.11233060      -2.38853438
47
Properties=species:S:1:pos:R:3 pbc="F F F"
O       -2.70895255       0.17866807      -1.27991489
O       -2.71243995       1.22553973       2.13159327
O       -1.38457503      -2.09394168       0.58312761
O       -5.13712856       2.41833615       1.44326708
O       -0.14621050      -0.56274276      -1.39958866
O        1.18972457       1.94190740      -0.31837450
C       -2.71180264      -0.11900701       0.09066057
C       -3.17633972       1.16231586       0.80667841
C       -1.38341022      -0.69130735       0.64390291
C       -4.70540185       1.25996688       0.77935807
C       -0.10028976      -0.15678625      -0.04431239
C       -0.02810941       1.37870852       0.09339748
H       -3.45244733      -0.90479568       0.28573982
H       -2.77837395       2.02099678       0.24556356
H       -1.34648506      -0.44067530       1.70836657
H       -5.06224577       1.22449370      -0.25236358
H       -5.12958200       0.42745883       1.33542106
H       -2.00961452      -0.32745660      -1.70449926
H       -3.39195204       1.69180807       2.63214719
H       -0.25632534       1.64130174       1.12893975
H       -0.79772482       1.80610450      -0.54839559
H       -1.09990005      -2.37807059      -0.29286205
H        1.83606459       1.80700383       0.39297437
H       -4.88597647       3.18688799       0.92650659
O        2.40438293      -1.80360174      -2.43395752
O        1.15593444      -3.07423349      -1.09164766
O        5.36638268      -2.06665156      -0.56097946
N        1.03273168      -0.78150389       0.65698876
N        4.98864200      -0.00161026       0.25262628
C        2.17577882      -1.07956107      -0.19796756
C        3.31927443      -1.66851456       0.64903420
C        1.82562210      -2.09647601      -1.27765566
C        4.66563784      -1.29530301       0.04676956
H        2.49705959      -0.16113584      -0.69230890
H        3.26103122      -1.27154129       1.65916911
H        3.23276175      -2.75265785       0.69182395
H        0.70188878      -1.66623219       1.03827011
H        0.18593028       0.14997247      -1.99248476
H        4.40037698       0.61149550       0.79034414
H        5.85089177       0.35180563      -0.12151151
H        2.23200286      -2.48783348      -3.09515922
O        2.45387844       1.14463021       2.04064501
H        1.88295681       0.38697801       1.80610185
H        2.15898804       1.47205786       2.88641471
O        0.24961899       1.57334293      -3.04174817
H       -0.63354252       1.92017433      -3.17033374
H        0.70607946       2.15309103      -2.43186422
47
Properties=species:S:1:pos:R:3 pbc="F F F"
O       -2.74952665       0.09557355      -1.27216646
O       -2.66848837       1.26564156       2.10809741
O       -1.39816184      -2.12265891       0.57851223
O       -5.07399849       2.49948912       1.40035733
O       -0.16560340      -0.58403558      -1.39739356
O        1.20312495       1.90528622      -0.26622741
C       -2.72407348      -0.14372353       0.11118774
C       -3.15123866       1.17139061       0.79100371
C       -1.39383608      -0.72057210       0.65201120
C       -4.67819246       1.30324298       0.77883997
C       -0.11110730      -0.18539764      -0.03811299
C       -0.03099896       1.34945677       0.10510443
H       -3.47431840      -0.90868476       0.35385234
H       -2.74337049       2.00416707       0.19741241
H       -1.35012167      -0.47985834       1.71837800
H       -5.04791331       1.23396898      -0.24724231
H       -5.11552361       0.50361511       1.37389427
H       -2.00275782      -0.36365160      -1.67622289
H       -3.32548583       1.77381437       2.60013270
H       -0.29045712       1.61178962       1.13380041
H       -0.77686756       1.78419223      -0.56024599
H       -1.16057292      -2.39479958      -0.31601949
H        1.82035819       1.77185999       0.47194774
H       -4.81202915       3.24054248       0.84794697
O        2.45462553      -1.74441551      -2.43966263
O        1.23979001      -3.08241223      -1.12906738
O        5.34216305      -2.06206452      -0.61105416
N        1.01949770      -0.81887745       0.65438328
N        5.01368275       0.00994689       0.20667228
C        2.18030812      -1.06648230      -0.19376950
C        3.33364366      -1.63292915       0.65482369
C        1.87712012      -2.07903344      -1.29264266
C        4.66812103      -1.28101465       0.01488782
H        2.47816801      -0.12997891      -0.66928366
H        3.29257567      -1.20259437       1.65252434
H        3.24242585      -2.71536905       0.73093891
H        0.69670224      -1.72230926       0.99961870
H        0.17480752       0.12729504      -1.98457139
H        4.44781607       0.63187938       0.75719063
H        5.86902800       0.35243684      -0.19376540
H        2.31879308      -2.42688125      -3.11221702
O        2.36375267       1.09468806       2.14745097
H        1.81191463       0.33414565       1.87895784
H        2.02308261       1.41167699       2.98134381
O        0.18390508       1.56793535      -3.04373124
H       -0.70972785       1.88326434      -3.18477822
H        0.63377584       2.19385146      -2.47519405
47
Properties=species:S:1:pos:R:3 pbc="F F F"
O       -2.79010074       0.01247903      -1.26441803
O       -2.62453678       1.30574338       2.08460156
O       -1.41174865      -2.15137614       0.57389684
O       -5.01086842       2.58064208       1.35744759
O       -0.18499629      -0.60532839      -1.39519846
O        1.21652534       1.86866503      -0.21408032
C       -2.73634432      -0.16844005       0.13171490
C       -3.12613761       1.18046537       0.77532901
C       -1.40426193      -0.74983686       0.66011948
C       -4.65098306       1.34651908       0.77832187
C       -0.12192484      -0.21400903      -0.03191360
C       -0.03388850       1.32020501       0.11681139
H       -3.49618948      -0.91257384       0.42196486
H       -2.70836703       1.98733737       0.14926125
H       -1.35375827      -0.51904139       1.72838942
H       -5.03358085       1.24344426      -0.24212105
H       -5.10146522       0.57977139       1.41236747
H       -1.99590111      -0.39984660      -1.64794651
H       -3.25901962       1.85582068       2.56811821
H       -0.32458891       1.58227750       1.13866107
H       -0.75601029       1.76227996      -0.57209640
H       -1.22124579      -2.41152858      -0.33917694
H        1.80465179       1.73671616       0.55092110
H       -4.73808183       3.29419698       0.76938734
O        2.50486813      -1.68522927      -2.44536775
O        1.32364558      -3.09059096      -1.16648709
O        5.31794341      -2.05747747      -0.66112886
N        1.00626371      -0.85625102       0.65177780
N        5.03872349       0.02150404       0.16071828
C        2.18483743      -1.05340353      -0.18957144
C        3.34801290      -1.59734374       0.66061318
C        1.92861815      -2.06159087      -1.30762967
C        4.67060422      -1.26672629      -0.01699393
H        2.45927642      -0.09882198      -0.64625841
H        3.32412013      -1.13364744       1.64587957
H        3.25208995      -2.67808024       0.77005387
H        0.69151569      -1.77838632       0.96096730
H        0.16368476       0.10461761      -1.97665801
H        4.49525516       0.65226326       0.72403712
H        5.88716424       0.35306806      -0.26601928
H        2.40558331      -2.36592901      -3.12927482
O        2.27362690       1.04474591       2.25425693
H        1.74087245       0.28131329       1.95181383
H        1.88717719       1.35129612       3.07627290
O        0.11819116       1.56252776      -3.04571431
H       -0.78591318       1.84635436      -3.19922269
H        0.56147221       2.23461189      -2.51852388
47
Properties=species:S:1:pos:R:3 pbc="F F F"
O       -2.84798471      -0.11889110      -1.21830074
O       -2.60811331       1.34287174       2.05091593
O       -1.40412474      -2.16483568       0.59579558
O       -4.97846702       2.61389944       1.29681489
O       -0.21686646      -0.58742572      -1.39827960
O        1.25159639       1.83325509      -0.16228180
C       -2.74717977      -0.20096023       0.16988008
C       -3.11393956       1.17630764       0.74911023
C       -1.40163482      -0.76304431       0.67872388
C       -4.63641667       1.36239104       0.74947770
C       -0.12790409      -0.22239903      -0.02826722
C       -0.01698918       1.31039333       0.13090977
H       -3.49677497      -0.91784112       0.52178024
H       -2.68564473       1.94885420       0.09329647
H       -1.33414534      -0.52811449       1.74463071
H       -5.02395344       1.23768035      -0.26582113
H       -5.09497913       0.61936277       1.40346847
H       -2.04776021      -0.37946106      -1.62660040
H       -3.23623642       1.91540882       2.51354460
H       -0.33068113       1.57809379       1.14311389
H       -0.70505950       1.76904137      -0.57801756
H       -1.31304679      -2.42281310      -0.31675404
H        1.81592327       1.68799656       0.61627931
H       -4.69674587       3.30764172       0.69145063
O        2.52634914      -1.66808579      -2.46459677
O        1.37903557      -3.10978999      -1.19841600
O        5.30666869      -2.04765772      -0.68462292
N        0.99992334      -0.88312039       0.63041563
N        5.04351067       0.02731119       0.15133114
C        2.18341330      -1.05838379      -0.20561355
C        3.34826105      -1.58639272       0.65242537
C        1.95854657      -2.06703931      -1.32843145
C        4.66817656      -1.25816501      -0.03022322
H        2.44889521      -0.09782899      -0.65478303
H        3.31880567      -1.10953695       1.63054437
H        3.25563260      -2.66570642       0.77472368
H        0.68437293      -1.81088615       0.91886288
H        0.22614341       0.05005562      -1.95324664
H        4.50564511       0.65827802       0.71948034
H        5.89119084       0.35700304      -0.27833263
H        2.46231900      -2.35264172      -3.14626193
O        2.26724273       1.00578767       2.31511429
H        1.71139600       0.25448870       2.03934878
H        1.89429556       1.35625042       3.12158582
O       -0.07486780       1.75605191      -2.97376944
H       -0.75681140       1.76541167      -3.21578181
H        0.48379445       2.34059123      -2.57672012
47
Properties=species:S:1:pos:R:3 pbc="F F F"
O       -2.90586868      -0.25026123      -1.17218346
O       -2.59168985       1.38000009       2.01723031
O       -1.39650082      -2.17829522       0.61769432
O       -4.94606562       2.64715681       1.23618219
O       -0.24873664      -0.56952304      -1.40136074
O        1.28666744       1.79784516      -0.11048327
C       -2.75801522      -0.23348041       0.20804526
C       -3.10174152       1.17214991       0.72289144
C       -1.39900771      -0.77625176       0.69732829
C       -4.62185027       1.37826300       0.72063354
C       -0.13388333      -0.23078902      -0.02462085
C       -0.00008986       1.30058164       0.14500815
H       -3.49736045      -0.92310841       0.62159562
H       -2.66292243       1.91037103       0.03733169
H       -1.31453242      -0.53718759       1.76087199
H       -5.01432603       1.23191645      -0.28952121
H       -5.08849303       0.65895415       1.39456947
H       -2.09961931      -0.35907553      -1.60525429
H       -3.21345323       1.97499695       2.45897100
H       -0.33677334       1.57391008       1.14756671
H       -0.65410872       1.77580278      -0.58393872
H       -1.40484778      -2.43409761      -0.29433115
H        1.82719474       1.63927695       0.68163752
H       -4.65540990       3.32108646       0.61351391
O        2.54783014      -1.65094231      -2.48382578
O        1.43442556      -3.12898902      -1.23034492
O        5.29539397      -2.03783797      -0.70811698
N        0.99358298      -0.90998976       0.60905346
N        5.04829785       0.03311834       0.14194400
C        2.18198917      -1.06336406      -0.22165566
C        3.34850919      -1.57544169       0.64423756
C        1.98847499      -2.07248776      -1.34923322
C        4.66574889      -1.24960374      -0.04345252
H        2.43851400      -0.09683600      -0.66330765
H        3.31349122      -1.08542645       1.61520917
H        3.25917524      -2.65333260       0.77939348
H        0.67723016      -1.84338598       0.87675846
H        0.28860206      -0.00450636      -1.92983527
H        4.51603505       0.66429278       0.71492356
H        5.89521743       0.36093802      -0.29064598
H        2.51905469      -2.33935442      -3.16324903
O        2.26085855       0.96682943       2.37597165
H        1.68191955       0.22766412       2.12688373
H        1.90141393       1.36120471       3.16689874
O       -0.26792675       1.94957607      -2.90182457
H       -0.72770961       1.68446898      -3.23234093
H        0.40611668       2.44657058      -2.63491635
47
Properties=species:S:1:pos:R:3 pbc="F F F"
O       -2.96375265      -0.38163135      -1.12606617
O       -2.57526638       1.41712845       1.98354468
O       -1.38887691      -2.19175476       0.63959305
O       -4.91366421       2.68041418       1.17554949
O       -0.28060681      -0.55162037      -1.40444188
O        1.32173849       1.76243522      -0.05868474
C       -2.76885066      -0.26600060       0.24621044
C       -3.08954348       1.16799219       0.69667266
C       -1.39638059      -0.78945920       0.71593270
C       -4.60728388       1.39413496       0.69178937
C       -0.13986258      -0.23917901      -0.02097447
C        0.01680946       1.29076996       0.15910652
H       -3.49794594      -0.92837569       0.72141100
H       -2.64020013       1.87188786      -0.01863309
H       -1.29491950      -0.54626069       1.77711328
H       -5.00469862       1.22615254      -0.31322130
H       -5.08200694       0.69854554       1.38567047
H       -2.15147841      -0.33868999      -1.58390817
H       -3.19067004       2.03458509       2.40439739
H       -0.34286556       1.56972636       1.15201953
H       -0.60315793       1.78256420      -0.58985989
H       -1.49664878      -2.44538213      -0.27190825
H        1.83846622       1.59055735       0.74699574
H       -4.61407394       3.33453119       0.53557720
O        2.56931115      -1.63379884      -2.50305479
O        1.48981554      -3.14818805      -1.26227383
O        5.28411925      -2.02801822      -0.73161103
N        0.98724261      -0.93685913       0.58769130
N        5.05308504       0.03892549       0.13255686
C        2.18056504      -1.06834432      -0.23769776
C        3.34875734      -1.56449067       0.63604974
C        2.01840342      -2.07793620      -1.37003499
C        4.66332122      -1.24104247      -0.05668181
H        2.42813278      -0.09584300      -0.67183227
H        3.30817676      -1.06131595       1.59987398
H        3.26271789      -2.64095877       0.78406328
H        0.67008740      -1.87588581       0.83465403
H        0.35106071      -0.05906835      -1.90642391
H        4.52642500       0.67030755       0.71036678
H        5.89924403       0.36487299      -0.30295932
H        2.57579039      -2.32606713      -3.18023614
O        2.25447438       0.92787119       2.43682901
H        1.65244311       0.20083953       2.21441869
H        1.90853231       1.36615901       3.21221165
O       -0.46098571       2.14310022      -2.82987970
H       -0.69860783       1.60352629      -3.24890006
H        0.32843892       2.55254993      -2.69311259
47
Properties=species:S:1:pos:R:3 pbc="F F F"
O       -3.02163662      -0.51300148      -1.07994888
O       -2.55884291       1.45425680       1.94985905
O       -1.38125300      -2.20521430       0.66149179
O       -4.88126281       2.71367154       1.11491679
O       -0.31247698      -0.53371770      -1.40752302
O        1.35680954       1.72702528      -0.00688622
C       -2.77968611      -0.29852078       0.28437562
C       -3.07734543       1.16383446       0.67045388
C       -1.39375348      -0.80266665       0.73453710
C       -4.59271749       1.41000692       0.66294521
C       -0.14584183      -0.24756901      -0.01732809
C        0.03370878       1.28095828       0.17320490
H       -3.49853142      -0.93364297       0.82122638
H       -2.61747783       1.83340469      -0.07459787
H       -1.27530657      -0.55533379       1.79335456
H       -4.99507121       1.22038864      -0.33692138
H       -5.07552084       0.73813692       1.37677147
H       -2.20333751      -0.31830445      -1.56256206
H       -3.16788684       2.09417323       2.34982378
H       -0.34895777       1.56554265       1.15647235
H       -0.55220714       1.78932561      -0.59578105
H       -1.58844978      -2.45666665      -0.24948535
H        1.84973770       1.54183774       0.81235395
H       -4.57273798       3.34797593       0.45764049
O        2.59079216      -1.61665536      -2.52228381
O        1.54520553      -3.16738708      -1.29420275
O        5.27284453      -2.01819847      -0.75510509
N        0.98090224      -0.96372850       0.56632913
N        5.05787222       0.04473264       0.12316972
C        2.17914091      -1.07332458      -0.25373987
C        3.34900548      -1.55353965       0.62786193
C        2.04833184      -2.08338464      -1.39083677
C        4.66089356      -1.23248119      -0.06991110
H        2.41775157      -0.09485001      -0.68035689
H        3.30286231      -1.03720546       1.58453878
H        3.26626054      -2.62858495       0.78873309
H        0.66294464      -1.90838564       0.79254961
H        0.41351936      -0.11363034      -1.88301254
H        4.53681495       0.67632231       0.70581000
H        5.90327063       0.36880797      -0.31527267
H        2.63252608      -2.31277984      -3.19722325
O        2.24809020       0.88891295       2.49768637
H        1.62296666       0.17401494       2.30195364
H        1.91565068       1.37111331       3.25752457
O       -0.65404466       2.33662437      -2.75793483
H       -0.66950605       1.52258360      -3.26545918
H        0.25076116       2.65852927      -2.75130882
47
Properties=species:S:1:pos:R:3 pbc="F F F"
O       -3.03388909      -0.56995817      -1.03275773
O       -2.57015099       1.46556997       1.95107236
O       -1.38772724      -2.20998470       0.70335666
O       -4.88543636       2.70819003       1.08480733
O       -0.39129614      -0.46370568      -1.44986266
O        1.38611343       1.69686014       0.03317689
C       -2.78802877      -0.31648144       0.32151920
C       -3.07982377       1.15240120       0.67370617
C       -1.39671573      -0.80613062       0.76044210
C       -4.59395999       1.39990000       0.65056004
C       -0.16568856      -0.24883041      -0.03134251
C        0.05274625       1.27717031       0.16702469
H       -3.50278174      -0.93816587       0.87756570
H       -2.60804529       1.80260033      -0.07970967
H       -1.26727745      -0.55305317       1.81770718
H       -4.98782232       1.19759145      -0.34982228
H       -5.08255954       0.73613129       1.36798656
H       -2.22733430      -0.35148308      -1.52590776
H       -3.18434242       2.10914454       2.33633008
H       -0.37218432       1.58213542       1.12195212
H       -0.45363954       1.81083007      -0.63300442
H       -1.65855392      -2.46810557      -0.18099776
H        1.85917932       1.53029575       0.86385368
H       -4.56815912       3.33411686       0.42410608
O        2.64480551      -1.61452425      -2.55374843
O        1.58252606      -3.18168657      -1.36400844
O        5.24546984      -2.00876731      -0.75650726
N        0.93957202      -1.01053353       0.47993641
N        5.03463261       0.05177624       0.12770903
C        2.15663917      -1.08473045      -0.30288253
C        3.31238119      -1.53963838       0.60928396
C        2.07775159      -2.09262943      -1.44204139
C        4.63225040      -1.22211674      -0.07300027
H        2.37971417      -0.09916226      -0.71822000
H        3.24385078      -1.00736797       1.55445736
H        3.23333479      -2.61177489       0.78770845
H        0.61550227      -1.95799050       0.67810495
H        0.33720199      -0.21915212      -1.94474513
H        4.51224110       0.68488411       0.70736405
H        5.88350253       0.37292834      -0.30600877
H        2.71749805      -2.30632917      -3.22822351
O        2.28320623       0.93141995       2.54029822
H        1.61597297       0.26098378       2.41539586
H        2.02738114       1.46106445       3.28126320
O       -0.56187409       2.37363512      -2.70089353
H       -0.60883927       1.52168718      -3.09570170
H        0.33746754       2.67439227      -2.76939990
47
Properties=species:S:1:pos:R:3 pbc="F F F"
O       -3.04614156      -0.62691485      -0.98556657
O       -2.58145906       1.47688314       1.95228568
O       -1.39420148      -2.21475509       0.74522153
O       -4.88960991       2.70270853       1.05469786
O       -0.47011529      -0.39369366      -1.49220230
O        1.41541732       1.66669500       0.07323999
C       -2.79637144      -0.33444210       0.35866279
C       -3.08230212       1.14096794       0.67695847
C       -1.39967798      -0.80959458       0.78634710
C       -4.59520250       1.38979307       0.63817488
C       -0.18553529      -0.25009181      -0.04535694
C        0.07178371       1.27338235       0.16084447
H       -3.50703206      -0.94268877       0.93390503
H       -2.59861275       1.77179597      -0.08482146
H       -1.25924834      -0.55077254       1.84205979
H       -4.98057344       1.17479426      -0.36272318
H       -5.08959824       0.73412566       1.35920164
H       -2.25133109      -0.38466172      -1.48925347
H       -3.20079800       2.12411585       2.32283637
H       -0.39541087       1.59872819       1.08743189
H       -0.35507194       1.83233453      -0.67022779
H       -1.72865805      -2.47954448      -0.11251018
H        1.86862095       1.51875377       0.91535340
H       -4.56358025       3.32025779       0.39057166
O        2.69881886      -1.61239314      -2.58521304
O        1.61984659      -3.19598606      -1.43381413
O        5.21809515      -1.99933615      -0.75790943
N        0.89824181      -1.05733855       0.39354369
N        5.01139301       0.05881984       0.13224833
C        2.13413743      -1.09613631      -0.35202519
C        3.27575691      -1.52573710       0.59070599
C        2.10717133      -2.10187422      -1.49324601
C        4.60360725      -1.21175229      -0.07608943
H        2.34167677      -0.10347451      -0.75608311
H        3.18483925      -0.97753048       1.52437595
H        3.20040903      -2.59496483       0.78668381
H        0.56805991      -2.00759536       0.56366029
H        0.26088461      -0.32467391      -2.00647771
H        4.48766724       0.69344591       0.70891810
H        5.86373443       0.37704872      -0.29674488
H        2.80247002      -2.29987851      -3.25922377
O        2.31832225       0.97392695       2.58291007
H        1.60897928       0.34795263       2.52883809
H        2.13911159       1.55101559       3.30500184
O       -0.46970353       2.41064588      -2.64385222
H       -0.54817249       1.52079077      -2.92594423
H        0.42417392       2.69025528      -2.78749097
47
Properties=species:S:1:pos:R:3 pbc="F F F"
O       -3.05839402      -0.68387153      -0.93837541
O       -2.59276714       1.48819631       1.95349899
O       -1.40067573      -2.21952549       0.78708640
O       -4.89378346       2.69722703       1.02458839
O       -0.54893444      -0.32368165      -1.53454195
O        1.44472122       1.63652985       0.11330310
C       -2.80471411      -0.35240276       0.39580638
C       -3.08478046       1.12953469       0.68021076
C       -1.40264023      -0.81305854       0.81225210
C       -4.59644500       1.37968614       0.62578972
C       -0.20538203      -0.25135321      -0.05937136
C        0.09082118       1.26959438       0.15466426
H       -3.51128239      -0.94721168       0.99024435
H       -2.58918020       1.74099161      -0.08993326
H       -1.25121922      -0.54849192       1.86641240
H       -4.97332455       1.15199706      -0.37562407
H       -5.09663695       0.73212003       1.35041673
H       -2.27532788      -0.41784035      -1.45259918
H       -3.21725357       2.13908716       2.30934266
H       -0.41863743       1.61532095       1.05291166
H       -0.25650433       1.85383899      -0.70745117
H       -1.79876218      -2.49098340      -0.04402259
H        1.87806257       1.50721178       0.96685312
H       -4.55900139       3.30639872       0.35703725
O        2.75283222      -1.61026202      -2.61667766
O        1.65716712      -3.21028555      -1.50361982
O        5.19072045      -1.98990500      -0.75931160
N        0.85691159      -1.10414357       0.30715098
N        4.98815340       0.06586344       0.13678764
C        2.11163570      -1.10754218      -0.40116786
C        3.23913262      -1.51183583       0.57212802
C        2.13659107      -2.11111901      -1.54445062
C        4.57496410      -1.20138785      -0.07917859
H        2.30363937      -0.10778677      -0.79394622
H        3.12582773      -0.94769299       1.49429453
H        3.16748328      -2.57815478       0.78565917
H        0.52061755      -2.05720021       0.44921563
H        0.18456724      -0.43019569      -2.06821030
H        4.46309339       0.70200771       0.71047214
H        5.84396633       0.38116910      -0.28748098
H        2.88744200      -2.29342784      -3.29022404
O        2.35343828       1.01643394       2.62552192
H        1.60198560       0.43492147       2.64228031
H        2.25084205       1.64096672       3.32874047
O       -0.37753296       2.44765663      -2.58681092
H       -0.48750571       1.51989435      -2.75618675
H        0.51088029       2.70611828      -2.80558204
47
Properties=species:S:1:pos:R:3 pbc="F F F"
O       -3.07064649      -0.74082822      -0.89118426
O       -2.60407522       1.49950948       1.95471231
O       -1.40714997      -2.22429588       0.82895127
O       -4.89795701       2.69174552       0.99447893
O       -0.62775360      -0.25366963      -1.57688159
O        1.47402511       1.60636471       0.15336620
C       -2.81305677      -0.37036342       0.43294996
C       -3.08725880       1.11810143       0.68346305
C       -1.40560248      -0.81652251       0.83815710
C       -4.59768750       1.36957922       0.61340455
C       -0.22522876      -0.25261461      -0.07338578
C        0.10985865       1.26580642       0.14848405
H       -3.51553271      -0.95173458       1.04658368
H       -2.57974766       1.71018725      -0.09504506
H       -1.24319010      -0.54621129       1.89076502
H       -4.96607566       1.12919987      -0.38852497
H       -5.10367565       0.73011440       1.34163182
H       -2.29932467      -0.45101898      -1.41594488
H       -3.23370915       2.15405847       2.29584896
H       -0.44186398       1.63191372       1.01839143
H       -0.15793673       1.87534345      -0.74467454
H       -1.86886632      -2.50242232       0.02446499
H        1.88750420       1.49566979       1.01835285
H       -4.55442253       3.29253965       0.32350283
O        2.80684557      -1.60813091      -2.64814227
O        1.69448765      -3.22458504      -1.57342551
O        5.16334576      -1.98047384      -0.76071377
N        0.81558137      -1.15094860       0.22075826
N        4.96491379       0.07290704       0.14132694
C        2.08913396      -1.11894805      -0.45031052
C        3.20250833      -1.49793455       0.55355005
C        2.16601082      -2.12036380      -1.59565524
C        4.54632094      -1.19102340      -0.08226776
H        2.26560197      -0.11209902      -0.83180933
H        3.06681620      -0.91785550       1.46421312
H        3.13455753      -2.56134472       0.78463453
H        0.47317518      -2.10680507       0.33477097
H        0.10824987      -0.53571747      -2.12994289
H        4.43851954       0.71056951       0.71202619
H        5.82419823       0.38528947      -0.27821708
H        2.97241397      -2.28697717      -3.32122430
O        2.38855431       1.05894094       2.66813377
H        1.59499191       0.52189031       2.75572254
H        2.36257250       1.73091786       3.35247910
O       -0.28536239       2.48466739      -2.52976962
H       -0.42683893       1.51899794      -2.58642928
H        0.59758667       2.72198129      -2.82367312
47
Properties=species:S:1:pos:R:3 pbc="F F F"
O       -3.01583404      -0.74998172      -0.88183402
O       -2.60547780       1.50252833       1.95949031
O       -1.41929174      -2.24627277       0.86036011
O       -4.89487317       2.68499047       0.99512225
O       -0.67614780      -0.17681103      -1.81056173
O        1.41773227       1.60764922       0.12855346
C       -2.79851100      -0.37688528       0.44631032
C       -3.08218810       1.11210065       0.68873878
C       -1.41256041      -0.84068212       0.90700986
C       -4.59356346       1.36233625       0.61427988
C       -0.20083839      -0.27278363       0.08409437
C        0.10281824       1.19648331       0.24615120
H       -3.52178088      -0.95654298       1.03456880
H       -2.57723379       1.70364886      -0.09240865
H       -1.29981932      -0.58783671       1.96544325
H       -4.96108572       1.12332791      -0.38819897
H       -5.10169007       0.72408836       1.34197471
H       -2.25743653      -0.43331928      -1.41046994
H       -3.23927676       2.15529747       2.29603433
H       -0.49314472       1.64306726       0.99535425
H       -0.00218354       2.01663877      -0.90530383
H       -1.86272907      -2.49677316       0.03839415
H        1.88302806       1.54558694       0.96260528
H       -4.55426588       3.28671231       0.32349149
O        2.80324168      -1.60591306      -2.64094029
O        1.69886408      -3.23126512      -1.57248718
O        5.15815992      -1.97945705      -0.76180847
N        0.80104202      -1.19053617       0.21320701
N        4.95956929       0.07446417       0.13812721
C        2.07776503      -1.12892033      -0.44174905
C        3.19998861      -1.49951049       0.55770495
C        2.16368520      -2.12460811      -1.59190887
C        4.54148203      -1.19076436      -0.08236936
H        2.24249279      -0.11873760      -0.81972085
H        3.06720845      -0.91839731       1.46826184
H        3.13725167      -2.56295646       0.79005057
H        0.46230966      -2.14468648       0.33202953
H        0.08571724      -0.50157982      -2.20138673
H        4.44061478       0.70911301       0.71839457
H        5.82149323       0.38407182      -0.27814989
H        2.96758372      -2.28114142      -3.31808002
O        2.38753244       1.07291006       2.64711700
H        1.59498866       0.53330591       2.73189698
H        2.36539795       1.72813085       3.34657900
O       -0.21274934       2.52635907      -2.45122191
H       -0.47754788       1.39179681      -2.56001600
H        0.61507335       2.78516119      -2.82482701
47
Properties=species:S:1:pos:R:3 pbc="F F F"
O       -2.96102159      -0.75913522      -0.87248379
O       -2.60688038       1.50554718       1.96426831
O       -1.43143350      -2.26824965       0.89176895
O       -4.89178934       2.67823542       0.99576558
O       -0.72454200      -0.09995242      -2.04424187
O        1.36143943       1.60893372       0.10374072
C       -2.78396524      -0.38340714       0.45967068
C       -3.07711741       1.10609987       0.69401451
C       -1.41951834      -0.86484174       0.97586262
C       -4.58943943       1.35509327       0.61515522
C       -0.17644802      -0.29295265       0.24157453
C        0.09577783       1.12716019       0.34381834
H       -3.52802906      -0.96135138       1.02255392
H       -2.57471993       1.69711048      -0.08977224
H       -1.35644854      -0.62946213       2.04012147
H       -4.95609577       1.11745595      -0.38787298
H       -5.09970449       0.71806232       1.34231760
H       -2.21554839      -0.41561957      -1.40499500
H       -3.24484437       2.15653647       2.29621970
H       -0.54442545       1.65422080       0.97231706
H        0.15356966       2.15793409      -1.06593312
H       -1.85659183      -2.49112400       0.05232332
H        1.87855192       1.59550409       0.90685771
H       -4.55410922       3.28088496       0.32348014
O        2.79963778      -1.60369520      -2.63373831
O        1.70324052      -3.23794521      -1.57154884
O        5.15297409      -1.97844027      -0.76290317
N        0.78650268      -1.23012374       0.20565577
N        4.95422480       0.07602131       0.13492748
C        2.06639610      -1.13889261      -0.43318757
C        3.19746889      -1.50108644       0.56185986
C        2.16135959      -2.12885241      -1.58816251
C        4.53664312      -1.19050532      -0.08247097
H        2.21938360      -0.12537617      -0.80763237
H        3.06760070      -0.91893912       1.47231056
H        3.13994580      -2.56456819       0.79546660
H        0.45144414      -2.18256788       0.32928810
H        0.06318461      -0.46744217      -2.27283057
H        4.44271002       0.70765651       0.72476294
H        5.81878823       0.38285417      -0.27808270
H        2.96275347      -2.27530566      -3.31493574
O        2.38651057       1.08687918       2.62610023
H        1.59498540       0.54472151       2.70807142
H        2.36822340       1.72534383       3.34067889
O       -0.14013628       2.56805074      -2.37267420
H       -0.52825683       1.26459568      -2.53360272
H        0.63256004       2.84834108      -2.82598089
47
Properties=species:S:1:pos:R:3 pbc="F F F"
O       -2.90620914      -0.76828871      -0.86313355
O       -2.60828295       1.50856604       1.96904632
O       -1.44357527      -2.29022654       0.92317779
O       -4.88870550       2.67148036       0.99640890
O       -0.77293619      -0.02309382      -2.27792201
O        1.30514659       1.61021823       0.07892798
C       -2.76941947      -0.38992900       0.47303103
C       -3.07204671       1.10009908       0.69929024
C       -1.42647626      -0.88900135       1.04471538
C       -4.58531539       1.34785029       0.61603056
C       -0.15205764      -0.31312167       0.39905468
C        0.08873741       1.05783708       0.44148549
H       -3.53427723      -0.96615977       1.01053903
H       -2.57220606       1.69057210      -0.08713582
H       -1.41307776      -0.67108755       2.11479970
H       -4.95110583       1.11158399      -0.38754698
H       -5.09771892       0.71203627       1.34266050
H       -2.17366025      -0.39791986      -1.39952006
H       -3.25041197       2.15777547       2.29640507
H       -0.59570619       1.66537434       0.94927987
H        0.30932285       2.29922941      -1.22656242
H       -1.85045459      -2.48547484       0.06625248
H        1.87407577       1.64542124       0.85111014
H       -4.55395257       3.27505762       0.32346879
O        2.79603389      -1.60147734      -2.62653633
O        1.70761695      -3.24462529      -1.57061050
O        5.14778825      -1.97742349      -0.76399787
N        0.77196334      -1.26971131       0.19810452
N        4.94888030       0.07757844       0.13172774
C        2.05502717      -1.14886488      -0.42462609
C        3.19494916      -1.50266239       0.56601476
C        2.15903397      -2.13309671      -1.58441614
C        4.53180421      -1.19024628      -0.08257258
H        2.19627442      -0.13201475      -0.79554388
H        3.06799295      -0.91948092       1.47635929
H        3.14263994      -2.56617993       0.80088264
H        0.44057862      -2.22044928       0.32654666
H        0.04065197      -0.43330451      -2.34427440
H        4.44480526       0.70620001       0.73113132
H        5.81608322       0.38163652      -0.27801552
H        2.95792322      -2.26946991      -3.31179146
O        2.38548869       1.10084830       2.60508346
H        1.59498214       0.55613710       2.68424587
H        2.37104884       1.72255682       3.33477879
O       -0.06752323       2.60974242      -2.29412649
H       -0.57896577       1.13739456      -2.50718944
H        0.65004673       2.91152098      -2.82713478
47
Properties=species:S:1:pos:R:3 pbc="F F F"
O       -2.85139669      -0.77744221      -0.85378331
O       -2.60968553       1.51158489       1.97382432
O       -1.45571704      -2.31220343       0.95458663
O       -4.88562166       2.66472531       0.99705222
O       -0.82133039       0.05376478      -2.51160215
O        1.24885375       1.61150274       0.05411524
C       -2.75487370      -0.39645086       0.48639139
C       -3.06697602       1.09409830       0.70456597
C       -1.43343419      -0.91316097       1.11356814
C       -4.58119135       1.34060732       0.61690589
C       -0.12766727      -0.33329069       0.55653483
C        0.08169700       0.98851396       0.53915263
H       -3.54052540      -0.97096817       0.99852415
H       -2.56969219       1.68403371      -0.08449941
H       -1.46970698      -0.71271297       2.18947793
H       -4.94611589       1.10571203      -0.38722098
H       -5.09573334       0.70601023       1.34300339
H       -2.13177211      -0.38022016      -1.39404512
H       -3.25597958       2.15901447       2.29659044
H       -0.64698692       1.67652788       0.92624269
H        0.46507604       2.44052473      -1.38719171
H       -1.84431734      -2.47982568       0.08018165
H        1.86959963       1.69533839       0.79536257
H       -4.55379592       3.26923027       0.32345745
O        2.79243000      -1.59925949      -2.61933435
O        1.71199338      -3.25130538      -1.56967217
O        5.14260241      -1.97640670      -0.76509257
N        0.75742399      -1.30929888       0.19055328
N        4.94353580       0.07913557       0.12852801
C        2.04365824      -1.15883716      -0.41606462
C        3.19242944      -1.50423833       0.57016966
C        2.15670835      -2.13734102      -1.58066977
C        4.52696530      -1.18998724      -0.08267418
H        2.17316524      -0.13865333      -0.78345540
H        3.06838520      -0.92002273       1.48040801
H        3.14533408      -2.56779166       0.80629867
H        0.42971310      -2.25833069       0.32380522
H        0.01811934      -0.39916686      -2.41571824
H        4.44690050       0.70474351       0.73749970
H        5.81337822       0.38041887      -0.27794833
H        2.95309297      -2.26363415      -3.30864718
O        2.38446682       1.11481742       2.58406669
H        1.59497889       0.56755270       2.66042031
H        2.37387429       1.71976981       3.32887869
O        0.00508983       2.65143410      -2.21557878
H       -0.62967472       1.01019343      -2.48077616
H        0.66753341       2.97470088      -2.82828867
