47
Properties=species:S:1:pos:R:3 pbc="F F F"
O       -2.73378810       0.21385006      -1.39376315
O       -2.67583283       1.18196353       2.04129634
O       -1.52531629      -2.14234853       0.15507854
O       -5.07219479       2.47426058       1.42060831
O       -0.00536785      -0.43757677      -1.42790685
O        1.24219700       1.84289546      -0.20235218
C       -2.74434370      -0.11257260      -0.03033353
C       -3.15853677       1.16759328       0.71753314
C       -1.43504234      -0.77021377       0.47289990
C       -4.68824451       1.30923522       0.72471333
C       -0.10853103      -0.17383034      -0.03866748
C       -0.01100637       1.34864268       0.19690008
H       -3.50697661      -0.88639182       0.16478514
H       -2.74298550       2.02595396       0.16545389
H       -1.43678701      -0.66604886       1.56769728
H       -5.06600881       1.30331518      -0.30242477
H       -5.13124417       0.47764127       1.27821311
H       -2.33380571      -0.52090498      -1.87495824
H       -3.32275228       1.68681510       2.55730728
H       -0.24152220       1.56792418       1.24304847
H       -0.73801826       1.84189846      -0.45202437
H       -0.74031291      -2.45145810      -0.32530990
H        1.88509071       1.70982911       0.51442354
H       -4.81364682       3.24553881       0.90321702
O        2.44827676      -2.09443784      -2.29809771
O        1.00430244      -3.11832488      -0.93472152
O        5.32259148      -2.07979038      -0.60544079
N        0.99509023      -0.82551416       0.70379276
N        4.88638671       0.03714613       0.04081699
C        2.14327552      -1.14811474      -0.13785145
C        3.33022079      -1.66022106       0.69620661
C        1.78769564      -2.22898792      -1.15784061
C        4.62623238      -1.28616714      -0.01894089
H        2.45648081      -0.24302917      -0.66812871
H        3.31467138      -1.18720244       1.67646507
H        3.27683251      -2.74187225       0.81922916
H        0.65684411      -1.69140060       1.11977304
H        0.77989811       0.03255110      -1.75200152
H        4.32891501       0.65946101       0.60253296
H        5.71226037       0.39428100      -0.40914688
H        2.26315994      -2.83120131      -2.90292371
O        2.60799571       1.13986391       2.08305980
H        1.93554738       0.44303746       1.98565569
H        2.29995739       1.75535407       2.75115228
O       -0.11479522       2.10778733      -2.58391490
H       -0.13347161       1.19466367      -2.28818469
H       -0.08857970       3.38951367      -2.99902320
47
Properties=species:S:1:pos:R:3 pbc="F F F"
O       -2.73754615       0.24388340      -1.39954839
O       -2.68794874       1.19656913       2.03838057
O       -1.53424176      -2.10715170       0.11225388
O       -5.09320175       2.48120625       1.42597539
O       -0.01643408      -0.49180175      -1.56853497
O        1.21746932       1.88130077      -0.18387240
C       -2.75578390      -0.08793018      -0.03744282
C       -3.17478749       1.18598887       0.71650019
C       -1.44737882      -0.74859650       0.46208895
C       -4.70477935       1.31894950       0.72835391
C       -0.12257644      -0.14030085      -0.02368969
C       -0.02668458       1.36889089       0.18745333
H       -3.51835501      -0.86319371       0.14922127
H       -2.76634034       2.04916299       0.16739668
H       -1.45655427      -0.66983182       1.55486520
H       -5.08556630       1.31136867      -0.29765929
H       -5.14127505       0.48474105       1.28243047
H       -2.33760125      -0.49080277      -1.88069837
H       -3.33196245       1.69915309       2.55207377
H       -0.30034246       1.61349175       1.15411283
H       -0.75762093       1.85229091      -0.57645383
H       -0.75396951      -2.41439830      -0.36523931
H        1.85573232       1.74919289       0.52774045
H       -4.83440158       3.25323684       0.90807940
O        2.44173777      -2.08611453      -2.30673268
O        0.98900874      -3.09748755      -0.94468688
O        5.30662300      -2.06321459      -0.62627781
N        0.98417691      -0.80122406       0.69100829
N        4.87872195       0.05333290       0.02622583
C        2.12660525      -1.12348644      -0.15754783
C        3.31504734      -1.63847435       0.67455420
C        1.77319593      -2.20981470      -1.17169649
C        4.61283706      -1.26826258      -0.03846071
H        2.43735068      -0.22024596      -0.69161104
H        3.30091877      -1.16751031       1.65572159
H        3.25898062      -2.72018360       0.79646734
H        0.64541094      -1.66844129       1.10762789
H        0.76403784      -0.02454401      -1.89065104
H        4.32454662       0.67423283       0.59245986
H        5.70832732       0.40733497      -0.41851364
H        2.25777089      -2.81830127      -2.90780153
O        2.61501356       1.15189647       2.07074281
H        1.94827451       0.46098627       1.97416569
H        2.30511240       1.77110877       2.74287553
O       -0.11479522       2.10778733      -2.58391490
H       -0.08059029       1.20378421      -2.23081808
H       -0.08857970       3.38951367      -2.99902320
47
Properties=species:S:1:pos:R:3 pbc="F F F"
O       -2.74130420       0.27391673      -1.40533362
O       -2.70006464       1.21117473       2.03546479
O       -1.54316723      -2.07195488       0.06942921
O       -5.11420871       2.48815193       1.43134246
O       -0.02765810      -0.54590245      -1.70744051
O        1.19274164       1.91970609      -0.16539261
C       -2.76722410      -0.06328775      -0.04455211
C       -3.19103820       1.20438446       0.71546724
C       -1.45971530      -0.72697923       0.45127799
C       -4.72131419       1.32866378       0.73199450
C       -0.13662185      -0.10677137      -0.00871190
C       -0.04236279       1.38913910       0.17800657
H       -3.52973342      -0.83999559       0.13365739
H       -2.78969519       2.07237202       0.16933947
H       -1.47632153      -0.67361478       1.54203312
H       -5.10512379       1.31942216      -0.29289381
H       -5.15130593       0.49184084       1.28664784
H       -2.34135930      -0.46076944      -1.88648361
H       -3.34407836       1.71375869       2.54915799
H       -0.35916272       1.65905931       1.06517719
H       -0.77722360       1.86268336      -0.70088329
H       -0.76289498      -2.37920148      -0.40806398
H        1.83100464       1.78759820       0.54622024
H       -4.85540854       3.26018251       0.91344648
O        2.43519879      -2.07779122      -2.31536765
O        0.97371503      -3.07665021      -0.95465223
O        5.29065452      -2.04663879      -0.64711483
N        0.97326359      -0.77693397       0.67822381
N        4.87105718       0.06951968       0.01163467
C        2.10993498      -1.09885813      -0.17724421
C        3.29987390      -1.61672763       0.65290178
C        1.75869623      -2.19064149      -1.18555236
C        4.59944174      -1.25035802      -0.05798053
H        2.41822055      -0.19746274      -0.71509337
H        3.28716617      -1.14781818       1.63497812
H        3.24112873      -2.69849496       0.77370552
H        0.63449762      -1.64415119       1.09484341
H        0.75281383      -0.07864470      -2.02955659
H        4.32017824       0.68900465       0.58238675
H        5.70439426       0.42038893      -0.42788040
H        2.25123190      -2.80997796      -2.91643650
O        2.62203142       1.16392903       2.05842581
H        1.95529237       0.47301883       1.96184869
H        2.31213025       1.78314133       2.73055854
O       -0.11479522       2.10778733      -2.58391490
H       -0.08355073       1.15626202      -2.26964020
H       -0.08857970       3.38951367      -2.99902320
47
Properties=species:S:1:pos:R:3 pbc="F F F"
O       -2.74506225       0.30395007      -1.41111886
O       -2.71218055       1.22578033       2.03254902
O       -1.55209269      -2.03675805       0.02660455
O       -5.13521567       2.49509760       1.43670954
O       -0.03898040      -0.59979908      -1.84509055
O        1.16801396       1.95811140      -0.14691283
C       -2.77866430      -0.03864533      -0.05166140
C       -3.20728892       1.22278005       0.71443429
C       -1.47205178      -0.70536197       0.44046704
C       -4.73784903       1.33837807       0.73563508
C       -0.15066726      -0.07324188       0.00626590
C       -0.05804101       1.40938732       0.16855982
H       -3.54111182      -0.81679748       0.11809352
H       -2.81305003       2.09558106       0.17128227
H       -1.49608880      -0.67739774       1.52920103
H       -5.12468129       1.32747565      -0.28812833
H       -5.16133682       0.49894062       1.29086520
H       -2.34511735      -0.43073610      -1.89226885
H       -3.35619426       1.72836429       2.54624222
H       -0.41798298       1.70462688       0.97624156
H       -0.79682626       1.87307581      -0.82531275
H       -0.77182045      -2.34400465      -0.45088864
H        1.80627697       1.82600352       0.56470002
H       -4.87641550       3.26712818       0.91881355
O        2.42865980      -2.06946791      -2.32400261
O        0.95842133      -3.05581288      -0.96461759
O        5.27468604      -2.03006300      -0.66795185
N        0.96235027      -0.75264387       0.66543934
N        4.86339242       0.08570645      -0.00295649
C        2.09326470      -1.07422983      -0.19694059
C        3.28470045      -1.59498092       0.63124937
C        1.74419652      -2.17146827      -1.19940824
C        4.58604642      -1.23245346      -0.07750035
H        2.39909042      -0.17467953      -0.73857571
H        3.27341356      -1.12812605       1.61423464
H        3.22327685      -2.67680631       0.75094370
H        0.62358430      -1.61986110       1.08205894
H        0.74149153      -0.13254133      -2.16720663
H        4.31580985       0.70377648       0.57231365
H        5.70046121       0.43344290      -0.43724716
H        2.24469291      -2.80165465      -2.92507147
O        2.62904927       1.17596159       2.04610882
H        1.96231022       0.48505139       1.94953170
H        2.31914811       1.79517388       2.71824155
O       -0.11479522       2.10778733      -2.58391490
H       -0.08637925       1.09296354      -2.30699796
H       -0.08857970       3.38951367      -2.99902320
47
Properties=species:S:1:pos:R:3 pbc="F F F"
O       -2.74882030       0.33398340      -1.41690410
O       -2.72429645       1.24038594       2.02963325
O       -1.56101816      -2.00156123      -0.01622011
O       -5.15622263       2.50204328       1.44207661
O       -0.05036550      -0.65347164      -1.98180334
O        1.14328628       1.99651671      -0.12843304
C       -2.79010451      -0.01400290      -0.05877068
C       -3.22353963       1.24117564       0.71340134
C       -1.48438825      -0.68374470       0.42965608
C       -4.75438387       1.34809235       0.73927567
C       -0.16471268      -0.03971240       0.02124369
C       -0.07371922       1.42963553       0.15911306
H       -3.55249023      -0.79359937       0.10252965
H       -2.83640487       2.11879009       0.17322506
H       -1.51585606      -0.68118070       1.51636895
H       -5.14423878       1.33552914      -0.28336285
H       -5.17136770       0.50604041       1.29508256
H       -2.34887540      -0.40070277      -1.89805408
H       -3.36831017       1.74296989       2.54332645
H       -0.47680324       1.75019445       0.88730592
H       -0.81642893       1.88346827      -0.94974220
H       -0.78074591      -2.30880783      -0.49371330
H        1.78154929       1.86440883       0.58317980
H       -4.89742246       3.27407386       0.92418063
O        2.42212081      -2.06114461      -2.33263758
O        0.94312762      -3.03497555      -0.97458295
O        5.25871756      -2.01348721      -0.68878886
N        0.95143695      -0.72835377       0.65265486
N        4.85572766       0.10189322      -0.01754764
C        2.07659443      -1.04960152      -0.21663697
C        3.26952700      -1.57323420       0.60959695
C        1.72969681      -2.15229505      -1.21326411
C        4.57265110      -1.21454890      -0.09702017
H        2.37996029      -0.15189632      -0.76205804
H        3.25966096      -1.10843392       1.59349116
H        3.20542496      -2.65511767       0.72818188
H        0.61267098      -1.59557100       1.06927447
H        0.73010642      -0.18621389      -2.30391941
H        4.31144146       0.71854830       0.56224055
H        5.69652815       0.44649686      -0.44661393
H        2.23815393      -2.79333134      -2.93370644
O        2.63606712       1.18799415       2.03379183
H        1.96932807       0.49708395       1.93721471
H        2.32616596       1.80720644       2.70592456
O       -0.11479522       2.10778733      -2.58391490
H       -0.08928950       1.01469080      -2.34555766
H       -0.08857970       3.38951367      -2.99902320
47
Properties=species:S:1:pos:R:3 pbc="F F F"
O       -2.75257835       0.36401674      -1.42268933
O       -2.73641236       1.25499154       2.02671747
O       -1.56994363      -1.96636440      -0.05904478
O       -5.17722959       2.50898895       1.44744369
O       -0.06179154      -0.70692601      -2.11780124
O        1.11855860       2.03492203      -0.10995326
C       -2.80154471       0.01063952      -0.06587997
C       -3.23979035       1.25957123       0.71236839
C       -1.49672473      -0.66212743       0.41884513
C       -4.77091871       1.35780663       0.74291625
C       -0.17875809      -0.00618291       0.03622148
C       -0.08939743       1.44988374       0.14966631
H       -3.56386863      -0.77040126       0.08696577
H       -2.85975972       2.14199912       0.17516785
H       -1.53562332      -0.68496366       1.50353687
H       -5.16379627       1.34358263      -0.27859737
H       -5.18139858       0.51314019       1.29929993
H       -2.35263345      -0.37066943      -1.90383932
H       -3.38042607       1.75757549       2.54041067
H       -0.53562350       1.79576202       0.79837028
H       -0.83603160       1.89386072      -1.07417166
H       -0.78967138      -2.27361100      -0.53653797
H        1.75682161       1.90281414       0.60165959
H       -4.91842942       3.28101953       0.92954770
O        2.41558182      -2.05282130      -2.34127255
O        0.92783392      -3.01413822      -0.98454831
O        5.24274908      -1.99691142      -0.70962588
N        0.94052363      -0.70406367       0.63987039
N        4.84806290       0.11808000      -0.03213880
C        2.05992416      -1.02497322      -0.23633335
C        3.25435355      -1.55148749       0.58794454
C        1.71519710      -2.13312183      -1.22711999
C        4.55925578      -1.19664434      -0.11653999
H        2.36083016      -0.12911311      -0.78554037
H        3.24590835      -1.08874179       1.57274769
H        3.18757307      -2.63342902       0.70542006
H        0.60175766      -1.57128090       1.05648999
H        0.71868038      -0.23966826      -2.43991731
H        4.30707307       0.73332012       0.55216744
H        5.69259510       0.45955083      -0.45598069
H        2.23161494      -2.78500803      -2.94234140
O        2.64308498       1.20002671       2.02147484
H        1.97634593       0.50911651       1.92489772
H        2.33318381       1.81923900       2.69360756
O       -0.11479522       2.10778733      -2.58391490
H       -0.09246788       0.92211361      -2.38756854
H       -0.08857970       3.38951367      -2.99902320
47
Properties=species:S:1:pos:R:3 pbc="F F F"
O       -2.75633640       0.39405007      -1.42847457
O       -2.74852826       1.26959714       2.02380170
O       -1.57886910      -1.93116757      -0.10186944
O       -5.19823655       2.51593462       1.45281076
O       -0.07324466      -0.76017849      -2.25324332
O        1.09383092       2.07332734      -0.09147348
C       -2.81298491       0.03528194      -0.07298926
C       -3.25604106       1.27796682       0.71133544
C       -1.50906121      -0.64051016       0.40803417
C       -4.78745355       1.36752091       0.74655684
C       -0.19280350       0.02734657       0.05119927
C       -0.10507564       1.47013195       0.14021956
H       -3.57524704      -0.74720314       0.07140190
H       -2.88311456       2.16520815       0.17711064
H       -1.55539058      -0.68874662       1.49070479
H       -5.18335376       1.35163612      -0.27383189
H       -5.19142946       0.52023997       1.30351729
H       -2.35639150      -0.34063610      -1.90962456
H       -3.39254198       1.77218109       2.53749490
H       -0.59444376       1.84132958       0.70943464
H       -0.85563427       1.90425317      -1.19860112
H       -0.79859685      -2.23841417      -0.57936263
H        1.73209393       1.94121946       0.62013937
H       -4.93943638       3.28796521       0.93491478
O        2.40904284      -2.04449799      -2.34990752
O        0.91254022      -2.99330088      -0.99451366
O        5.22678060      -1.98033562      -0.73046290
N        0.92961031      -0.67977358       0.62708591
N        4.84039813       0.13426677      -0.04672996
C        2.04325389      -1.00034491      -0.25602973
C        3.23918011      -1.52974077       0.56629212
C        1.70069740      -2.11394862      -1.24097587
C        4.54586046      -1.17873978      -0.13605981
H        2.34170003      -0.10632989      -0.80902270
H        3.23215574      -1.06904966       1.55200421
H        3.16972118      -2.61174037       0.68265824
H        0.59084434      -1.54699080       1.04370552
H        0.70722727      -0.29292074      -2.57535940
H        4.30270469       0.74809194       0.54209434
H        5.68866204       0.47260479      -0.46534745
H        2.22507595      -2.77668472      -2.95097637
O        2.65010283       1.21205927       2.00915784
H        1.98336378       0.52114907       1.91258072
H        2.34020167       1.83127156       2.68129057
O       -0.11479522       2.10778733      -2.58391490
H       -0.09608008       0.81600274      -2.43497433
H       -0.08857970       3.38951367      -2.99902320
47
Properties=species:S:1:pos:R:3 pbc="F F F"
O       -2.76009445       0.42408341      -1.43425981
O       -2.76064417       1.28420274       2.02088593
O       -1.58779457      -1.89597075      -0.14469410
O       -5.21924351       2.52288030       1.45817784
O       -0.08471586      -0.81324868      -2.38824585
O        1.06910324       2.11173265      -0.07299369
C       -2.82442511       0.05992437      -0.08009855
C       -3.27229178       1.29636241       0.71030249
C       -1.52139769      -0.61889289       0.39722322
C       -4.80398839       1.37723519       0.75019742
C       -0.20684891       0.06087606       0.06617706
C       -0.12075385       1.49038016       0.13077280
H       -3.58662544      -0.72400503       0.05583803
H       -2.90646940       2.18841718       0.17905343
H       -1.57515784      -0.69252958       1.47787271
H       -5.20291125       1.35968961      -0.26906641
H       -5.20146034       0.52733976       1.30773465
H       -2.36014955      -0.31060276      -1.91540979
H       -3.40465788       1.78678669       2.53457913
H       -0.65326402       1.88689715       0.62049900
H       -0.87523694       1.91464562      -1.32303058
H       -0.80752232      -2.20321735      -0.62218729
H        1.70736625       1.97962477       0.63861916
H       -4.96044334       3.29491088       0.94028185
O        2.40250385      -2.03617468      -2.35854249
O        0.89724651      -2.97246355      -1.00447902
O        5.21081212      -1.96375983      -0.75129992
N        0.91869699      -0.65548348       0.61430144
N        4.83273337       0.15045354      -0.06132112
C        2.02658362      -0.97571661      -0.27572611
C        3.22400666      -1.50799406       0.54463971
C        1.68619769      -2.09477540      -1.25483174
C        4.53246514      -1.16083522      -0.15557963
H        2.32256990      -0.08354668      -0.83250503
H        3.21840314      -1.04935753       1.53126073
H        3.15186929      -2.59005173       0.65989642
H        0.57993102      -1.52270071       1.03092104
H        0.69575607      -0.34599093      -2.71036193
H        4.29833630       0.76286376       0.53202124
H        5.68472899       0.48565876      -0.47471421
H        2.21853696      -2.76836142      -2.95961134
O        2.65712068       1.22409183       1.99684085
H        1.99038163       0.53318163       1.90026373
H        2.34721952       1.84330412       2.66897358
O       -0.11479522       2.10778733      -2.58391490
H       -0.10027244       0.69746637      -2.48944289
H       -0.08857970       3.38951367      -2.99902320
47
Properties=species:S:1:pos:R:3 pbc="F F F"
O       -2.76385250       0.45411674      -1.44004504
O       -2.77276007       1.29880834       2.01797015
O       -1.59672003      -1.86077392      -0.18751877
O       -5.24025048       2.52982597       1.46354491
O       -0.09619918      -0.86615625      -2.52289549
O        1.04437557       2.15013797      -0.05451391
C       -2.83586531       0.08456679      -0.08720784
C       -3.28854249       1.31475800       0.70926953
C       -1.53373417      -0.59727563       0.38641226
C       -4.82052322       1.38694948       0.75383801
C       -0.22089432       0.09440554       0.08115486
C       -0.13643207       1.51062838       0.12132605
H       -3.59800385      -0.70080692       0.04027415
H       -2.92982425       2.21162622       0.18099623
H       -1.59492511      -0.69631253       1.46504062
H       -5.22246875       1.36774310      -0.26430093
H       -5.21149123       0.53443954       1.31195202
H       -2.36390760      -0.28056943      -1.92119503
H       -3.41677379       1.80139229       2.53166335
H       -0.71208429       1.93246472       0.53156337
H       -0.89483960       1.92503807      -1.44746004
H       -0.81644779      -2.16802052      -0.66501196
H        1.68263857       2.01803008       0.65709894
H       -4.98145030       3.30185655       0.94564893
O        2.39596486      -2.02785137      -2.36717745
O        0.88195281      -2.95162622      -1.01444438
O        5.19484364      -1.94718404      -0.77213694
N        0.90778367      -0.63119338       0.60151696
N        4.82506861       0.16664032      -0.07591228
C        2.00991334      -0.95108830      -0.29542248
C        3.20883321      -1.48624734       0.52298729
C        1.67169798      -2.07560218      -1.26868762
C        4.51906981      -1.14293065      -0.17509945
H        2.30343977      -0.06076347      -0.85598737
H        3.20465053      -1.02966540       1.51051726
H        3.13401741      -2.56836308       0.63713459
H        0.56901770      -1.49841061       1.01813657
H        0.68427275      -0.39889850      -2.84501157
H        4.29396791       0.77763559       0.52194813
H        5.68079593       0.49871272      -0.48408097
H        2.21199798      -2.76003811      -2.96824631
O        2.66413854       1.23612438       1.98452386
H        1.99739949       0.54521419       1.88794674
H        2.35423737       1.85533668       2.65665658
O       -0.11479522       2.10778733      -2.58391490
H       -0.10516803       0.56817439      -2.55232510
H       -0.08857970       3.38951367      -2.99902320
47
Properties=species:S:1:pos:R:3 pbc="F F F"
O       -2.76761055       0.48415008      -1.44583028
O       -2.78487598       1.31341394       2.01505438
O       -1.60564550      -1.82557710      -0.23034343
O       -5.26125744       2.53677165       1.46891199
O       -0.10769059      -0.91891952      -2.65725795
O        1.01964789       2.18854328      -0.03603412
C       -2.84730551       0.10920922      -0.09431713
C       -3.30479321       1.33315359       0.70823658
C       -1.54607065      -0.57565836       0.37560131
C       -4.83705806       1.39666376       0.75747859
C       -0.23493973       0.12793503       0.09613265
C       -0.15211028       1.53087659       0.11187929
H       -3.60938225      -0.67760881       0.02471028
H       -2.95317909       2.23483525       0.18293902
H       -1.61469237      -0.70009549       1.45220854
H       -5.24202624       1.37579659      -0.25953545
H       -5.22152211       0.54153933       1.31616938
H       -2.36766565      -0.25053609      -1.92698027
H       -3.42888969       1.81599790       2.52874758
H       -0.77090455       1.97803229       0.44262773
H       -0.91444227       1.93543052      -1.57188950
H       -0.82537325      -2.13282370      -0.70783662
H        1.65791089       2.05643540       0.67557872
H       -5.00245726       3.30880223       0.95101600
O        2.38942587      -2.01952806      -2.37581242
O        0.86665910      -2.93078889      -1.02440974
O        5.17887516      -1.93060825      -0.79297396
N        0.89687035      -0.60690328       0.58873249
N        4.81740385       0.18282709      -0.09050344
C        1.99324307      -0.92646000      -0.31511886
C        3.19365976      -1.46450063       0.50133488
C        1.65719827      -2.05642896      -1.28254349
C        4.50567449      -1.12502609      -0.19461927
H        2.28430964      -0.03798026      -0.87946970
H        3.19089793      -1.00997327       1.48977378
H        3.11616552      -2.54667444       0.61437277
H        0.55810438      -1.47412051       1.00535209
H        0.67278134      -0.45166177      -2.97937403
H        4.28959952       0.79240741       0.51187503
H        5.67686288       0.51176669      -0.49344773
H        2.20545899      -2.75171480      -2.97688128
O        2.67115639       1.24815694       1.97220687
H        2.00441734       0.55724675       1.87562974
H        2.36125523       1.86736924       2.64433959
O       -0.11479522       2.10778733      -2.58391490
H       -0.11085823       0.43055712      -2.62455748
H       -0.08857970       3.38951367      -2.99902320
47
Properties=species:S:1:pos:R:3 pbc="F F F"
O       -2.77136860       0.51418341      -1.45161552
O       -2.79699188       1.32801954       2.01213861
O       -1.61457097      -1.79038027      -0.27316809
O       -5.28226440       2.54371732       1.47427906
O       -0.11918736      -0.97155500      -2.79138390
O        0.99492021       2.22694859      -0.01755434
C       -2.85874571       0.13385164      -0.10142642
C       -3.32104392       1.35154918       0.70720363
C       -1.55840713      -0.55404109       0.36479035
C       -4.85359290       1.40637804       0.76111918
C       -0.24898514       0.16146451       0.11111044
C       -0.16778849       1.55112480       0.10243254
H       -3.62076066      -0.65441069       0.00914641
H       -2.97653393       2.25804428       0.18488181
H       -1.63445963      -0.70387845       1.43937646
H       -5.26158373       1.38385008      -0.25476997
H       -5.23155299       0.54863911       1.32038674
H       -2.37142370      -0.22050276      -1.93276550
H       -3.44100560       1.83060350       2.52583181
H       -0.82972481       2.02359985       0.35369209
H       -0.93404494       1.94582297      -1.69631896
H       -0.83429872      -2.09762687      -0.75066128
H        1.63318321       2.09484071       0.69405851
H       -5.02346422       3.31574790       0.95638308
O        2.38288689      -2.01120475      -2.38444739
O        0.85136540      -2.90995155      -1.03437509
O        5.16290668      -1.91403245      -0.81381098
N        0.88595703      -0.58261319       0.57594801
N        4.80973908       0.19901386      -0.10509460
C        1.97657280      -0.90183169      -0.33481524
C        3.17848632      -1.44275391       0.47968246
C        1.64269857      -2.03725575      -1.29639937
C        4.49227917      -1.10712153      -0.21413909
H        2.26517951      -0.01519704      -0.90295203
H        3.17714532      -0.99028114       1.46903030
H        3.09831363      -2.52498579       0.59161095
H        0.54719106      -1.44983041       0.99256762
H        0.66128457      -0.50429725      -3.11349997
H        4.28523114       0.80717923       0.50180193
H        5.67292982       0.52482065      -0.50281449
H        2.19892000      -2.74339149      -2.98551624
O        2.67817424       1.26018950       1.95988987
H        2.01143519       0.56927931       1.86331275
H        2.36827308       1.87940180       2.63202260
O       -0.11479522       2.10778733      -2.58391490
H       -0.11739087       0.28796924      -2.70652414
H       -0.08857970       3.38951367      -2.99902320
47
Properties=species:S:1:pos:R:3 pbc="F F F"
O       -2.77512665       0.54421675      -1.45740075
O       -2.80910779       1.34262514       2.00922283
O       -1.62349644      -1.75518344      -0.31599276
O       -5.30327136       2.55066299       1.47964614
O       -0.13068757      -1.02407727      -2.92531293
O        0.97019253       2.26535391       0.00092544
C       -2.87018591       0.15849406      -0.10853571
C       -3.33729464       1.36994477       0.70617068
C       -1.57074361      -0.53242382       0.35397940
C       -4.87012774       1.41609232       0.76475976
C       -0.26303055       0.19499400       0.12608823
C       -0.18346670       1.57137301       0.09298579
H       -3.63213906      -0.63121258      -0.00641747
H       -2.99988878       2.28125331       0.18682460
H       -1.65422689      -0.70766141       1.42654438
H       -5.28114122       1.39190357      -0.25000449
H       -5.24158387       0.55573889       1.32460411
H       -2.37518175      -0.19046942      -1.93855074
H       -3.45312150       1.84520910       2.52291603
H       -0.88854507       2.06916742       0.26475645
H       -0.95364761       1.95621542      -1.82074842
H       -0.84322419      -2.06243004      -0.79348595
H        1.60845553       2.13324602       0.71253829
H       -5.04447118       3.32269358       0.96175015
O        2.37634790      -2.00288144      -2.39308236
O        0.83607170      -2.88911422      -1.04434045
O        5.14693820      -1.89745666      -0.83464800
N        0.87504371      -0.55832309       0.56316354
N        4.80207432       0.21520064      -0.11968576
C        1.95990253      -0.87720339      -0.35451162
C        3.16331287      -1.42100720       0.45803005
C        1.62819886      -2.01808253      -1.31025525
C        4.47888385      -1.08921697      -0.23365891
H        2.24604938       0.00758617      -0.92643436
H        3.16339271      -0.97058901       1.44828683
H        3.08046174      -2.50329714       0.56884913
H        0.53627774      -1.42554032       0.97978314
H        0.64978435      -0.55681952      -3.24742900
H        4.28086275       0.82195105       0.49172882
H        5.66899677       0.53787462      -0.51218125
H        2.19238101      -2.73506818      -2.99415121
O        2.68519210       1.27222206       1.94757288
H        2.01845305       0.58131187       1.85099576
H        2.37529093       1.89143436       2.61970561
O       -0.11479522       2.10778733      -2.58391490
H       -0.12475614       0.14481479      -2.79789444
H       -0.08857970       3.38951367      -2.99902320
47
Properties=species:S:1:pos:R:3 pbc="F F F"
O       -2.77888470       0.57425008      -1.46318599
O       -2.82122369       1.35723075       2.00630706
O       -1.63242191      -1.71998662      -0.35881742
O       -5.32427832       2.55760867       1.48501321
O       -0.14218992      -1.07649910      -3.05907641
O        0.94546485       2.30375922       0.01940523
C       -2.88162612       0.18313649      -0.11564499
C       -3.35354535       1.38834036       0.70513773
C       -1.58308008      -0.51080655       0.34316844
C       -4.88666258       1.42580660       0.76840035
C       -0.27707597       0.22852348       0.14106602
C       -0.19914491       1.59162122       0.08353903
H       -3.64351747      -0.60801447      -0.02198134
H       -3.02324362       2.30446234       0.18876739
H       -1.67399415      -0.71144437       1.41371230
H       -5.30069871       1.39995706      -0.24523901
H       -5.25161475       0.56283868       1.32882147
H       -2.37893980      -0.16043609      -1.94433598
H       -3.46523741       1.85981470       2.52000026
H       -0.94736533       2.11473499       0.17582081
H       -0.97325028       1.96660788      -1.94517787
H       -0.85214966      -2.02723322      -0.83631061
H        1.58372785       2.17165134       0.73101808
H       -5.06547814       3.32963925       0.96711723
O        2.36980891      -1.99455814      -2.40171733
O        0.82077799      -2.86827689      -1.05430581
O        5.13096972      -1.88088087      -0.85548501
N        0.86413039      -0.53403299       0.55037906
N        4.79440956       0.23138741      -0.13427691
C        1.94323226      -0.85257508      -0.37420800
C        3.14813942      -1.39926048       0.43637763
C        1.61369915      -1.99890931      -1.32411112
C        4.46548853      -1.07131241      -0.25317873
H        2.22691925       0.03036938      -0.94991669
H        3.14964011      -0.95089688       1.42754335
H        3.06260985      -2.48160850       0.54608731
H        0.52536442      -1.40125022       0.96699867
H        0.63828201      -0.60924135      -3.38119248
H        4.27649436       0.83672287       0.48165572
H        5.66506371       0.55092858      -0.52154802
H        2.18584203      -2.72674487      -3.00278618
O        2.69220995       1.28425462       1.93525589
H        2.02547090       0.59334443       1.83867877
H        2.38230879       1.90346692       2.60738861
O       -0.11479522       2.10778733      -2.58391490
H       -0.13287164       0.00663330      -2.89745061
H       -0.08857970       3.38951367      -2.99902320
47
Properties=species:S:1:pos:R:3 pbc="F F F"
O       -2.78264275       0.60428342      -1.46897123
O       -2.83333960       1.37183635       2.00339129
O       -1.64134737      -1.68478979      -0.40164208
O       -5.34528528       2.56455434       1.49038029
O       -0.15369347      -1.12883163      -3.19269947
O        0.92073717       2.34216453       0.03788501
C       -2.89306632       0.20777891      -0.12275428
C       -3.36979607       1.40673595       0.70410478
C       -1.59541656      -0.48918929       0.33235749
C       -4.90319742       1.43552089       0.77204093
C       -0.29112138       0.26205297       0.15604382
C       -0.21482313       1.61186944       0.07409228
H       -3.65489587      -0.58481636      -0.03754521
H       -3.04659846       2.32767138       0.19071019
H       -1.69376142      -0.71522733       1.40088021
H       -5.32025621       1.40801055      -0.24047353
H       -5.26164564       0.56993846       1.33303883
H       -2.38269785      -0.13040275      -1.95012121
H       -3.47735331       1.87442030       2.51708449
H       -1.00618559       2.16030256       0.08688518
H       -0.99285294       1.97700033      -2.06960733
H       -0.86107513      -1.99203639      -0.87913527
H        1.55900017       2.21005665       0.74949786
H       -5.08648511       3.33658492       0.97248430
O        2.36326992      -1.98623483      -2.41035229
O        0.80548429      -2.84743956      -1.06427117
O        5.11500124      -1.86430508      -0.87632203
N        0.85321707      -0.50974289       0.53759459
N        4.78674480       0.24757418      -0.14886807
C        1.92656198      -0.82794678      -0.39390438
C        3.13296597      -1.37751377       0.41472522
C        1.59919944      -1.97973609      -1.33796700
C        4.45209321      -1.05340785      -0.27269855
H        2.20778912       0.05315259      -0.97339903
H        3.13588750      -0.93120475       1.40679987
H        3.04475797      -2.45991985       0.52332549
H        0.51445110      -1.37696012       0.95421419
H        0.62677846      -0.66157388      -3.51481555
H        4.27212597       0.85149470       0.47158262
H        5.66113066       0.56398255      -0.53091478
H        2.17930304      -2.71842156      -3.01142115
O        2.69922780       1.29628718       1.92293890
H        2.03248875       0.60537699       1.82636177
H        2.38932664       1.91549948       2.59507162
O       -0.11479522       2.10778733      -2.58391490
H       -0.14156734      -0.11984941      -3.00291723
H       -0.08857970       3.38951367      -2.99902320
47
Properties=species:S:1:pos:R:3 pbc="F F F"
O       -2.78640080       0.63431675      -1.47475646
O       -2.84545550       1.38644195       2.00047551
O       -1.65027284      -1.64959297      -0.44446675
O       -5.36629224       2.57150002       1.49574736
O       -0.16519755      -1.18108456      -3.32620248
O        0.89600949       2.38056985       0.05636480
C       -2.90450652       0.23242134      -0.12986357
C       -3.38604678       1.42513154       0.70307183
C       -1.60775304      -0.46757202       0.32154653
C       -4.91973226       1.44523517       0.77568152
C       -0.30516679       0.29558245       0.17102161
C       -0.23050134       1.63211765       0.06464552
H       -3.66627428      -0.56161824      -0.05310909
H       -3.06995331       2.35088041       0.19265298
H       -1.71352868      -0.71901029       1.38804813
H       -5.33981370       1.41606404      -0.23570805
H       -5.27167652       0.57703825       1.33725620
H       -2.38645590      -0.10036942      -1.95590645
H       -3.48946922       1.88902590       2.51416871
H       -1.06500585       2.20587012      -0.00205046
H       -1.01245561       1.98739278      -2.19403679
H       -0.87000059      -1.95683957      -0.92195994
H        1.53427249       2.24846196       0.76797764
H       -5.10749207       3.34353060       0.97785138
O        2.35673094      -1.97791152      -2.41898726
O        0.79019058      -2.82660222      -1.07423652
O        5.09903276      -1.84772928      -0.89715905
N        0.84230375      -0.48545280       0.52481011
N        4.77908003       0.26376096      -0.16345923
C        1.90989171      -0.80331847      -0.41360076
C        3.11779253      -1.35576705       0.39307280
C        1.58469974      -1.96056288      -1.35182287
C        4.43869789      -1.03550329      -0.29221837
H        2.18865899       0.07593581      -0.99688136
H        3.12213490      -0.91151262       1.38605640
H        3.02690608      -2.43823121       0.50056367
H        0.50353778      -1.35267003       0.94142972
H        0.61527437      -0.71382681      -3.64831856
H        4.26775759       0.86626652       0.46150951
H        5.65719760       0.57703651      -0.54028154
H        2.17276405      -2.71009826      -3.02005612
O        2.70624566       1.30831974       1.91062190
H        2.03950661       0.61740955       1.81404478
H        2.39634449       1.92753204       2.58275463
O       -0.11479522       2.10778733      -2.58391490
H       -0.15057151      -0.22670043      -3.11080112
H       -0.08857970       3.38951367      -2.99902320
47
Properties=species:S:1:pos:R:3 pbc="F F F"
O       -2.79015885       0.66435009      -1.48054170
O       -2.85757141       1.40104755       1.99755974
O       -1.65919831      -1.61439614      -0.48729141
O       -5.38729920       2.57844569       1.50111444
O       -0.17670173      -1.23326631      -3.45960209
O        0.87128181       2.41897516       0.07484458
C       -2.91594672       0.25706376      -0.13697286
C       -3.40229750       1.44352713       0.70203888
C       -1.62008952      -0.44595475       0.31073558
C       -4.93626710       1.45494945       0.77932210
C       -0.31921220       0.32911194       0.18599940
C       -0.24617955       1.65236586       0.05519877
H       -3.67765268      -0.53842013      -0.06867296
H       -3.09330815       2.37408944       0.19459577
H       -1.73329594      -0.72279325       1.37521605
H       -5.35937119       1.42411753      -0.23094257
H       -5.28170740       0.58413803       1.34147356
H       -2.40868323      -0.10743500      -1.93040349
H       -3.46725177       1.88956954       2.56976077
H       -1.12382611       2.25143769      -0.09098610
H       -1.03205828       1.99778523      -2.31846625
H       -0.79006536      -2.04134510      -0.58121070
H        1.64999344       1.86656732       0.23879797
H       -5.17645896       3.37404626       0.99883430
O        2.35019195      -1.96958821      -2.42762223
O        0.77489688      -2.80576489      -1.08420188
O        5.08306428      -1.83115349      -0.91799607
N        0.83139043      -0.46116270       0.51202564
N        4.77141527       0.27994773      -0.17805039
C        1.89322144      -0.77869017      -0.43329714
C        3.10261908      -1.33402034       0.37142039
C        1.57020003      -1.94138966      -1.36567875
C        4.42530257      -1.01759873      -0.31173819
H        2.16952886       0.09871902      -1.02036369
H        3.10838229      -0.89182049       1.36531292
H        3.00905419      -2.41654256       0.47780185
H        0.46189597      -1.33538257       0.85197036
H       -0.03598643      -0.29044108      -3.58944252
H        4.26338920       0.88103834       0.45143641
H        5.65326455       0.59009048      -0.54964830
H        2.20170840      -2.77885889      -2.94267255
O        2.71326351       1.32035230       1.89830491
H        1.91694731       0.76810286       1.86193144
H        2.48143517       2.11717737       2.38006199
O       -0.11479522       2.10778733      -2.58391490
H       -0.12321808      -1.67040545      -4.31369774
H       -0.08857970       3.38951367      -2.99902320
