47
Properties=species:S:1:pos:R:3 pbc="F F F"
O       -2.96102159      -0.75913522      -0.87248379
O       -2.60688038       1.50554718       1.96426831
O       -1.43143350      -2.26824965       0.89176895
O       -4.89178934       2.67823542       0.99576558
O       -0.72454200      -0.09995242      -2.04424187
O        1.36143943       1.60893372       0.10374072
C       -2.78396524      -0.38340714       0.45967068
C       -3.07711741       1.10609987       0.69401451
C       -1.41951834      -0.86484174       0.97586262
C       -4.58943943       1.35509327       0.61515522
C       -0.17644802      -0.29295265       0.24157453
C        0.09577783       1.12716019       0.34381834
H       -3.52802906      -0.96135138       1.02255392
H       -2.57471993       1.69711048      -0.08977224
H       -1.35644854      -0.62946213       2.04012147
H       -4.95609577       1.11745595      -0.38787298
H       -5.09970449       0.71806232       1.34231760
H       -2.21554839      -0.41561957      -1.40499500
H       -3.24484437       2.15653647       2.29621970
H       -0.54442545       1.65422080       0.97231706
H        0.15356966       2.15793409      -1.06593312
H       -1.85659183      -2.49112400       0.05232332
H        1.87855192       1.59550409       0.90685771
H       -4.55410922       3.28088496       0.32348014
O        2.79963778      -1.60369520      -2.63373831
O        1.70324052      -3.23794521      -1.57154884
O        5.15297409      -1.97844027      -0.76290317
N        0.78650268      -1.23012374       0.20565577
N        4.95422480       0.07602131       0.13492748
C        2.06639610      -1.13889261      -0.43318757
C        3.19746889      -1.50108644       0.56185986
C        2.16135959      -2.12885241      -1.58816251
C        4.53664312      -1.19050532      -0.08247097
H        2.21938360      -0.12537617      -0.80763237
H        3.06760070      -0.91893912       1.47231056
H        3.13994580      -2.56456819       0.79546660
H        0.45144414      -2.18256788       0.32928810
H        0.06318461      -0.46744217      -2.27283057
H        4.44271002       0.70765651       0.72476294
H        5.81878823       0.38285417      -0.27808270
H        2.96275347      -2.27530566      -3.31493574
O        2.38651057       1.08687918       2.62610023
H        1.59498540       0.54472151       2.70807142
H        2.36822340       1.72534383       3.34067889
O       -0.14013628       2.56805074      -2.37267420
H       -0.52825683       1.26459568      -2.53360272
H        0.63256004       2.84834108      -2.82598089
