47
Properties=species:S:1:pos:R:3:energies:R:1:forces:R:3:charge:R:1 energy=-2291.0712998945182 free_energy=-2291.0712998945182 dipole="0.2248150944794675 0.976457657843505 0.3135311503108203" pbc="F F F"
O       -3.07064649      -0.74082822      -0.89118426    -113.30431570      -0.24428835       0.03299592      -0.03653539      -0.47476820
O       -2.60407522       1.49950948       1.95471231    -113.34197004       0.00353325      -0.01215526      -0.02290033      -0.46640403
O       -1.40714997      -2.22429588       0.82895127    -112.99023005       0.05897013       0.10010830      -0.12855584      -0.43704732
O       -4.89795701       2.69174552       0.99447893    -113.06997716      -0.01516977       0.02835414      -0.01438164      -0.44000018
O       -0.62775360      -0.25366963      -1.57688159    -113.64268181       0.21423274      -0.33979615       1.04929320      -0.52770955
O        1.47402511       1.60636471       0.15336620    -113.25338991       0.25397509      -0.00632049       0.11127285      -0.47063923
C       -2.81305677      -0.37036342       0.43294996     -59.21138817      -0.06428589       0.02660821      -0.05600291       0.09280607
C       -3.08725880       1.11810143       0.68346305     -59.14180089      -0.02280958       0.02476617      -0.02499397       0.08100305
C       -1.40560248      -0.81652251       0.83815710     -59.05914153       0.03302053       0.10992547      -0.30317351       0.08548563
C       -4.59768750       1.36957922       0.61340455     -59.23739013      -0.01837674       0.02930516      -0.00940865       0.06125676
C       -0.22522876      -0.25261461      -0.07338578     -58.63911771      -0.10891509       0.09112927      -0.70318796       0.15988679
C        0.10985865       1.26580642       0.14848405     -59.30934966       0.03293008       0.31089292      -0.43278016       0.03182438
H       -3.51553271      -0.95173458       1.04658368     -12.95579732       0.02986866       0.02021112       0.05990693       0.05299008
H       -2.57974766       1.71018725      -0.09504506     -13.15694611      -0.00962709       0.02497477      -0.01373052       0.03473674
H       -1.24319010      -0.54621129       1.89076502     -12.90489702       0.25586517       0.19395753      -0.33094776       0.06738282
H       -4.96607566       1.12919987      -0.38852497     -13.19883836      -0.02003891       0.01892864      -0.00673116       0.04222676
H       -5.10367565       0.73011440       1.34163182     -13.01667722      -0.00988351       0.02641669      -0.00557233       0.05963641
H       -2.29932467      -0.45101898      -1.41594488     -11.31748685      -0.18857377      -0.08464381      -0.02076319       0.33449585
H       -3.23370915       2.15405847       2.29584896     -11.30870415       0.02184939      -0.00294073      -0.00569585       0.31838794
H       -0.44186398       1.63191372       1.01839143     -13.29349874       0.23417943      -0.04993249       0.10893635       0.03714370
H       -0.15793673       1.87534345      -0.74467454     -12.44666137      -0.69806503      -0.63065498       0.72365812       0.11287461
H       -1.86886632      -2.50242232       0.02446499     -11.36093090      -0.02493600      -0.02905636      -0.04707312       0.31712440
H        1.88750420       1.49566979       1.01835285     -11.51656491       0.02250623      -0.22179082       0.24986825       0.30979329
H       -4.55442253       3.29253965       0.32350283     -11.55509299      -0.00044713       0.02168825      -0.01279242       0.29560840
O        2.80684557      -1.60813091      -2.64814227    -112.60137644       0.00637798      -0.01015230      -0.03687924      -0.37753160
O        1.69448765      -3.22458504      -1.57342551    -112.14700993      -0.01624499       0.03409094      -0.00540160      -0.40046100
O        5.16334576      -1.98047384      -0.76071377    -112.36283984       0.02058102      -0.00115905      -0.00110751      -0.43057168
N        0.81558137      -1.15094860       0.22075826     -80.58934566       0.06418561       0.17744772       0.03212307      -0.24790837
N        4.96491379       0.07290704       0.14132694     -80.85291272       0.02137144      -0.00696407       0.01587510      -0.26903160
C        2.08913396      -1.11894805      -0.45031052     -59.00086320       0.04954198       0.04256706      -0.04133238       0.02245680
C        3.20250833      -1.49793455       0.55355005     -59.32677570       0.00943494       0.00556109      -0.02184134      -0.10904113
C        2.16601082      -2.12036380      -1.59565524     -58.93674273       0.00560952       0.01361833      -0.01979847       0.35112205
C        4.54632094      -1.19102340      -0.08226776     -59.18020085       0.01975958      -0.00095738      -0.00217339       0.28654767
H        2.26560197      -0.11209902      -0.83180933     -12.79775628       0.10289873       0.02917096      -0.05717519       0.08793107
H        3.06681620      -0.91785550       1.46421312     -12.91701684      -0.00412247      -0.00115630      -0.01999720       0.07981738
H        3.13455753      -2.56134472       0.78463453     -13.01525244      -0.01312406       0.00469050      -0.02912105       0.07554989
H        0.47317518      -2.10680507       0.33477097     -12.17914247       0.04812038       0.17059979       0.01268852       0.19585377
H        0.10824987      -0.53571747      -2.12994289     -11.83098561       0.09663608      -0.14465528       0.32137619       0.28580742
H        4.43851954       0.71056951       0.71202619     -12.14280399      -0.01205562       0.00439999      -0.02442664       0.19789152
H        5.82419823       0.38528947      -0.27821708     -12.20697746       0.00898242       0.00761197       0.00117556       0.19313077
H        2.97241397      -2.28697717      -3.32122430     -10.96694610       0.01174189      -0.02477525      -0.02067177       0.33725476
O        2.38855431       1.05894094       2.66813377    -114.71401494       0.00542863      -0.06294442       0.09451088      -0.57251172
H        1.59499191       0.52189031       2.75572254     -11.50247437       0.00130412      -0.05195490       0.10358504       0.30736808
H        2.36257250       1.73091786       3.35247910     -11.61560385      -0.01324248       0.00967772       0.02847623       0.29784891
O       -0.28536239       2.48466739      -2.52976962    -114.41349995      -0.31472134      -0.17710477      -0.35038947      -0.58192504
H       -0.42683893       1.51899794      -2.58642928     -11.68099337       0.23146963       0.57939046      -0.11698600       0.30414310
H        0.59758667       2.72198129      -2.82367312     -11.85691646      -0.06544683      -0.27997430       0.00978165       0.28816375
