47
Properties=species:S:1:pos:R:3 charge=0 multiplicity=1 pbc="F F F"
O       -2.92917618      -1.05289546      -0.37175788
O       -2.29120153       1.81997375       1.74200379
O       -1.27724758      -2.26046566       1.16491292
O       -4.22532555       2.97859684       0.09683609
O       -1.02957351      -0.32714559      -1.70776638
O        1.76409451       1.13340653       1.08629472
C       -2.62833933      -0.35633751       0.73808625
C       -2.69524572       1.16276495       0.55252786
C       -1.19491619      -0.86628777       1.23539635
C       -4.12486216       1.57347364       0.18756907
C       -0.00764221      -0.38882176       0.46831838
C        0.45408835       1.04340644       0.56106631
H       -3.30846968      -0.62483745       1.56741210
H       -2.03313090       1.45490111      -0.27678243
H       -1.07424558      -0.53604942       2.27260921
H       -4.41998368       1.07527528      -0.73944811
H       -4.81270420       1.27663368       0.98244906
H       -1.98716954      -0.66428267      -1.17878599
H       -2.81311024       2.63444669       1.78702111
H       -0.24517090       1.60598859       1.18282369
H        0.48789597       1.49727997      -0.43446630
H       -1.98418082      -2.40399184       0.48754320
H        1.72251146       0.94063918       2.04068013
H       -3.72918494       3.27393892      -0.67537463
O        2.79838190      -1.67952631      -2.88816144
O        1.27345262      -3.05416971      -1.99996618
O        5.41708241      -1.20658359      -0.95969334
N        0.79956120      -1.31233499       0.03085095
N        4.34009449       0.66847463      -0.30792313
C        1.98834575      -1.11855817      -0.75136711
C        3.25089379      -1.42578871       0.08176170
C        1.95953035      -2.07024239      -1.94443616
C        4.46106483      -0.66183170      -0.46160741
H        2.01924481      -0.09264521      -1.12623923
H        3.07414855      -1.11076707       1.11017688
H        3.46872192      -2.49461464       0.06973505
H        0.43494114      -2.27005291       0.10003930
H       -0.79145991      -1.10386276      -2.21634859
H        3.52692158       1.07577400       0.13200212
H        5.07020347       1.26954403      -0.64854898
H        2.83790366      -2.31436437      -3.62148905
O        1.37660193       0.69922683       3.80002814
H        0.52837707       1.02783157       4.10932763
H        2.03853494       0.96088516       4.44420527
O        0.04350693       1.98643249      -2.44499013
H       -0.40826782       1.13116681      -2.26618741
H       -0.39068456       2.35980308      -3.21243470
