47
Properties=species:S:1:pos:R:3 charge=0 multiplicity=1 pbc="F F F"
O       -2.47922225      -1.71432332      -0.53749191
O       -2.12902143       1.51705994       1.16414799
O       -1.27157266      -2.75433041       1.27885577
O       -4.04425759       2.59047388      -0.32519096
O       -2.38694101       4.38017152      -4.08250586
O        1.68789884       0.81249758       1.16637497
C       -2.53364983      -0.83583010       0.53060413
C       -2.57569665       0.67584852       0.11959146
C       -1.37697966      -1.40054862       1.51111788
C       -3.99924808       1.17909503      -0.25757581
C        0.06100779      -0.90587987       1.31215092
C        0.42327016       0.35710666       1.42279788
H       -3.48710190      -1.00061721       1.09001413
H       -1.91521955       0.85387969      -0.73917151
H       -1.72305453      -1.18847727       2.54092392
H       -4.36790750       0.73132794      -1.18457652
H       -4.69775239       0.93870838       0.55364822
H       -2.56697386       4.81643394      -4.92599109
H       -2.90339077       1.80165167       1.66844675
H       -0.32046528       1.08614320       1.68948361
H       -0.04725707       2.39019111      -0.57446925
H       -2.06688998      -2.50832958      -0.03413893
H        1.72949484       1.76073911       1.32119210
H       -3.65410760       2.91647666      -1.14307741
O        2.43203672      -1.84153094      -2.35971718
O        1.31476977      -3.61107198      -1.56225692
O        5.21595140      -1.42590589      -1.02659700
N        0.94943712      -1.97802731       0.94725249
N        4.06778223       0.47245751      -0.71958782
C        1.83047322      -1.64798276      -0.16105456
C        3.26990137      -1.51694745       0.37093143
C        1.80773908      -2.53426496      -1.40706103
C        4.27709451      -0.84238123      -0.56372257
H        1.48619722      -0.69053950      -0.55500227
H        3.22123807      -0.90420167       1.27443732
H        3.66756164      -2.50391251       0.61726910
H        1.49247433      -2.31349511       1.74402059
H       -1.78315524       3.65218807      -4.26416948
H        3.20753183       0.91542359      -0.44537340
H        4.71658289       0.99472820      -1.30020869
H        2.51082761      -2.31782478      -3.20295000
O        2.47065228       0.07011644       3.77866214
H        1.52377707       0.10580827       3.92394545
H        2.86749290       0.77727829       4.28750170
O        0.57887011       2.88665474      -1.10528889
H       -0.14731896      -2.80881623       0.91137236
H        0.40193177       3.81618530      -0.94966055
