47
Properties=species:S:1:pos:R:3:energies:R:1:forces:R:3:charge:R:1 energy=-2292.0907177128265 free_energy=-2292.0907177128265 dipole="-0.3915906316978537 1.292411507938832 0.30684197398768204" pbc="F F F"
O       -2.62780436       0.34485710      -1.29541174    -113.34527987      -0.00409577      -0.00272643       0.00352892      -0.47228783
O       -2.80034313       1.14533609       2.17858497    -113.28226171      -0.00388965      -0.00242976       0.00411259      -0.46038663
O       -1.35740141      -2.03650722       0.59235839    -112.99447289       0.00237286       0.00151154       0.00613450      -0.44616304
O       -5.26338870       2.25603023       1.52908656    -113.05655690      -0.00293469      -0.00160265       0.00056421      -0.43839052
O       -0.10742471      -0.52015713      -1.40397886    -113.48637603      -0.00383022       0.00004223      -0.00024594      -0.49258872
O        1.16292379       2.01514977      -0.42266867    -113.44105733      -0.00030539       0.00142045      -0.00035566      -0.46760974
C       -2.68726095      -0.06957397       0.04960624     -59.11549022      -0.00108333      -0.00121351       0.00381634       0.08740419
C       -3.22654182       1.14416635       0.83802781     -59.09880563      -0.00177905      -0.00144233       0.00349274       0.09238549
C       -1.36255852      -0.63277783       0.62768635     -59.14789640       0.00049465       0.00165478       0.00261505       0.07849305
C       -4.75982065       1.17341468       0.78039427     -59.24908310      -0.00157630      -0.00122104       0.00080031       0.05980855
C       -0.07865467      -0.09956348      -0.05671118     -58.90319583      -0.00091223       0.00139007      -0.00040183       0.18465176
C       -0.02233032       1.43721204       0.06998357     -59.32391634      -0.00132921       0.00163468      -0.00251842       0.04819480
H       -3.40870517      -0.89701753       0.14951478     -13.02465491       0.00028286      -0.00220620       0.00591307       0.04358859
H       -2.84838087       2.05465619       0.34186587     -13.13901068      -0.00055620      -0.00134967       0.00461469       0.02941525
H       -1.33921186      -0.36230920       1.68834373     -12.87362361       0.00213863       0.00378339       0.00211196       0.06936307
H       -5.09091068       1.20554314      -0.26260610     -13.20959102       0.00025397      -0.00049908       0.00030695       0.04019534
H       -5.15769878       0.27514627       1.25847465     -12.99576360      -0.00247773      -0.00139335      -0.00047983       0.06249482
H       -2.02332794      -0.25506660      -1.76105201     -11.31225404       0.00065825       0.00161168       0.00415116       0.32537605
H       -3.52488445       1.52779545       2.69617616     -11.27778229      -0.00489256      -0.00349861       0.00333887       0.31973030
H       -0.18806177       1.70032598       1.11921843     -13.22238830      -0.00337236       0.00304846      -0.00312998       0.03782694
H       -0.83943936       1.84992904      -0.52469478     -12.98255439      -0.00009556       0.00080545      -0.00478234       0.06243508
H       -0.97855431      -2.34461259      -0.24654716     -11.40133996      -0.00333457       0.00022962       0.00394554       0.32357175
H        1.86747739       1.87729149       0.23502764     -11.25719894      -0.00144839       0.00127090       0.00078776       0.32811457
H       -5.03387111       3.07957899       1.08362585     -11.56632866      -0.00223761      -0.00151961       0.00155413       0.29310803
O        2.30389773      -1.92197422      -2.42254729    -112.46320115      -0.00511621       0.00275871      -0.00274639      -0.36472233
O        0.98822331      -3.05787602      -1.01680824    -112.38226445      -0.00144364      -0.00057248      -0.00075617      -0.42526613
O        5.41482196      -2.07582566      -0.46083006    -112.28856171      -0.00053410       0.00186145      -0.00095271      -0.42334762
N        1.05919965      -0.70675675       0.66219972     -81.25059506       0.00020130       0.00232532      -0.00197428      -0.30752161
N        4.93856052      -0.02472455       0.34453428     -80.94180162      -0.00018235       0.00043705       0.00153379      -0.27916829
C        2.16672020      -1.10571860      -0.20636367     -58.83713989      -0.00076250       0.00125207      -0.00261258       0.03143915
C        3.29053595      -1.73968538       0.63745521     -59.32327171      -0.00104413       0.00037291      -0.00274222      -0.10522193
C        1.72262605      -2.13136115      -1.24768164     -58.91276402      -0.00070553       0.00297766      -0.00275590       0.36591798
C        4.66067145      -1.32387972       0.11053306     -59.19272604      -0.00014836       0.00055102      -0.00108024       0.28585539
H        2.53484276      -0.22344969      -0.73835940     -12.91063137      -0.00017356       0.00094295      -0.00283190       0.07246323
H        3.19794231      -1.40943514       1.67245864     -12.97243081      -0.00188881      -0.00118118      -0.00223488       0.07066924
H        3.21343356      -2.82723547       0.61359403     -13.05141996      -0.00100234       0.00034265      -0.00428566       0.07273580
H        0.71226188      -1.55407806       1.11557291     -12.25512754       0.00068437       0.00261226      -0.00080088       0.18509181
H        0.20817579       0.19532733      -2.00831152     -11.15192590       0.00040295      -0.00278028      -0.00141175       0.34592257
H        4.30549879       0.57072774       0.85665116     -12.04832462      -0.00056630       0.00003573       0.00134144       0.21221077
H        5.81461930       0.35054320       0.02299626     -12.24481108       0.00033966       0.00045770       0.00305025       0.19105258
H        2.05842240      -2.60973796      -3.06104362     -10.98110726      -0.00577430       0.00311457      -0.00340543       0.33623493
O        2.63412999       1.24451451       1.82703308    -114.99535090      -0.00139380       0.00094481      -0.00042819      -0.60628827
H        2.02504117       0.49264272       1.66038987     -11.46780131      -0.00070668       0.00064541      -0.00147129       0.31564347
H        2.43079889       1.59281959       2.69655652     -11.82472352      -0.00118071      -0.00078405       0.00032509       0.28512542
O        0.38104682       1.58415811      -3.03778202    -114.63781494       0.01743394      -0.00670947      -0.00194915      -0.58122763
H       -0.48117185       1.99399430      -3.14144480     -11.75285571       0.02178300       0.00291875      -0.01484159       0.29297021
H        0.85068672       2.07157017      -2.34520455     -11.49718451       0.01572768      -0.00982458       0.00315584       0.32070010
47
Properties=species:S:1:pos:R:3:energies:R:1:forces:R:3:charge:R:1 energy=-2292.137055292757 free_energy=-2292.137055292757 dipole="-0.2953599041627701 1.2626167432268656 0.1793915222548456" pbc="F F F"
O       -2.74869339       0.30313019      -1.20056759    -113.32214635      -0.00027682       0.00081918       0.00021566      -0.47363979
O       -2.91160614       1.04789865       2.31000166    -113.26505104      -0.00063674      -0.00087553       0.00070098      -0.46021541
O       -1.32502365      -2.00248955       0.70656050    -112.97452737      -0.00008523       0.00031952      -0.00006969      -0.44301660
O       -5.31695622       2.24854345       1.57802589    -113.05190924      -0.00012651      -0.00003838       0.00076440      -0.43892260
O       -0.22283418      -0.51068950      -1.41593463    -113.52617953      -0.00017771       0.00058811      -0.00034959      -0.49321820
O        1.15376146       2.04316246      -0.39828123    -113.46730381      -0.00011853       0.00022080      -0.00011583      -0.46775035
C       -2.73026757      -0.09087679       0.15005012     -59.13769311      -0.00012820       0.00027259       0.00011175       0.08773421
C       -3.26964191       1.11323195       0.95082943     -59.09566996      -0.00019149      -0.00004973       0.00064318       0.09217188
C       -1.36565579      -0.59916411       0.68043933     -59.15906875      -0.00005643       0.00028238      -0.00016112       0.07879209
C       -4.79593801       1.18577884       0.81288109     -59.24805243      -0.00008167       0.00031243       0.00022919       0.06029756
C       -0.12029106      -0.06963954      -0.07883323     -58.90252341      -0.00013172       0.00023775      -0.00027735       0.18317290
C       -0.06684195       1.47266798       0.01247078     -59.31205039      -0.00005038       0.00024719      -0.00012525       0.04815971
H       -3.42041755      -0.93830413       0.29805333     -13.00782730      -0.00000893       0.00010182      -0.00009468       0.04477286
H       -2.83769649       2.02778048       0.50989801     -13.16520509       0.00008490       0.00013210       0.00130618       0.02783144
H       -1.29786776      -0.28963821       1.72858560     -12.86045048       0.00010431       0.00033990      -0.00021856       0.07041329
H       -5.06600921       1.26728709      -0.24461411     -13.18785942       0.00029685       0.00103292       0.00020645       0.04282232
H       -5.24058688       0.27867914       1.22938515     -13.00400431      -0.00037976       0.00013269      -0.00051503       0.06149994
H       -2.06746798      -0.20995769      -1.66626096     -11.33125537      -0.00071367       0.00057463      -0.00013208       0.32632681
H       -3.66197636       1.40122978       2.81057465     -11.29590685      -0.00079536      -0.00121121       0.00069432       0.31905175
H       -0.30491597       1.76507493       1.03981738     -13.22625375       0.00001213       0.00020298      -0.00016216       0.03717006
H       -0.83618688       1.87106406      -0.65347939     -12.97100706       0.00000379       0.00029426      -0.00002735       0.06505424
H       -1.06155725      -2.34038872      -0.16351490     -11.40026339      -0.00005754       0.00012656       0.00017581       0.32218596
H        1.81494258       1.89498298       0.30304279     -11.21163829      -0.00023962       0.00026613      -0.00006508       0.33132042
H       -5.04381311       3.08339443       1.18111893     -11.57851906       0.00019712       0.00016744       0.00141957       0.29275604
O        2.17732430      -1.92603898      -2.50319141    -112.42793966      -0.00024500      -0.00167829      -0.00008974      -0.36181051
O        0.93878431      -3.05561160      -1.02472103    -112.36636005      -0.00111219       0.00001363       0.00032483      -0.42337717
O        5.41527267      -1.90737617      -0.56917777    -112.28899163       0.00010564       0.00217427      -0.00109180      -0.42333303
N        1.04741034      -0.66468195       0.60079196     -81.25282534      -0.00010052       0.00003742      -0.00053715      -0.30765280
N        4.86523088       0.08485322       0.33027314     -80.95001672      -0.00112176       0.00147383      -0.00056356      -0.27961203
C        2.12844824      -1.07796792      -0.29460288     -58.85266416      -0.00032908      -0.00013222      -0.00072015       0.02957837
C        3.27570377      -1.69991374       0.52910459     -59.31575091       0.00012568       0.00039804      -0.00095252      -0.10509084
C        1.65310105      -2.12616131      -1.30094161     -58.91678084      -0.00054143      -0.00057957      -0.00010604       0.36403152
C        4.63294152      -1.21011705       0.03296478     -59.19251979      -0.00028038       0.00145611      -0.00085536       0.28555270
H        2.48366994      -0.20713191      -0.85352135     -12.90182587      -0.00064039      -0.00036672      -0.00121877       0.07426098
H        3.16332675      -1.42041596       1.57697830     -12.97339053      -0.00000877      -0.00006014      -0.00088459       0.07067882
H        3.24498906      -2.78772678       0.45864422     -13.04544165       0.00092189       0.00045610      -0.00131457       0.07308131
H        0.71448691      -1.50729543       1.07500049     -12.22560517      -0.00011523       0.00008511      -0.00047035       0.18797488
H        0.27930713       0.08621027      -2.02412331     -11.16488425       0.00015670      -0.00029481       0.00018921       0.34544092
H        4.21552053       0.63295792       0.87352329     -12.03903458      -0.00127508       0.00082772      -0.00018008       0.21315063
H        5.73408651       0.50014789       0.03970058     -12.24483354      -0.00140557       0.00205504      -0.00045824       0.19095764
H        1.90776886      -2.62009338      -3.12479762     -10.98208078      -0.00052394      -0.00192573       0.00032591       0.33583488
O        2.55668192       1.24411439       1.86531939    -115.01685788      -0.00081858      -0.00012590       0.00037487      -0.60811216
H        1.97216814       0.48284586       1.64805428     -11.47067586      -0.00054593      -0.00012894      -0.00019663       0.31508401
H        2.32083468       1.54856806       2.74303375     -11.81796466      -0.00110647      -0.00069967       0.00044901       0.28574697
O        1.02238403       1.28741063      -3.00928283    -114.69784395       0.00278839      -0.00249649       0.00239235      -0.58887102
H        0.44415918       1.84911423      -3.52890806     -11.80200353       0.00906870      -0.00439980       0.00049451       0.28896917
H        1.28475151       1.79495811      -2.22246677     -11.48839817       0.00056053      -0.00058555       0.00093517       0.32274622
47
Properties=species:S:1:pos:R:3:energies:R:1:forces:R:3:charge:R:1 energy=-2292.1331191078557 free_energy=-2292.1331191078557 dipole="-0.22503637678316313 1.3051461865065843 0.1867018645459498" pbc="F F F"
O       -2.96298343      -0.30222196      -1.13174364    -113.24731565      -0.00044879      -0.00263448       0.00065525      -0.47175677
O       -2.70691171       1.39607362       2.05678124    -113.35063457       0.00018748       0.00072809      -0.00093459      -0.46532385
O       -1.25315040      -2.06987753       0.79447536    -112.95748170       0.00113599       0.00029345       0.00005510      -0.43940834
O       -5.19466471       2.42402687       1.33105537    -113.05871150      -0.00059981       0.00006728       0.00093103      -0.43953659
O       -0.29851937      -0.42640215      -1.38103940    -113.54225641      -0.00041251       0.00153167      -0.00054742      -0.49226709
O        1.14405172       2.03773337      -0.18050084    -113.48068387      -0.00039295       0.00097009      -0.00039902      -0.46963729
C       -2.77953789      -0.26626804       0.26083527     -59.19967735      -0.00009224      -0.00082788       0.00031975       0.08782159
C       -3.22971595       1.11963573       0.77795318     -59.06250928      -0.00047857      -0.00029037      -0.00048014       0.08741968
C       -1.37407640      -0.67195148       0.75397547     -59.16742950       0.00029610       0.00014085      -0.00020758       0.08118230
C       -4.76217175       1.18460495       0.81614417     -59.24013463      -0.00059468      -0.00030075       0.00087016       0.06011100
C       -0.15944702      -0.07642012      -0.01987031     -58.90884304      -0.00008773       0.00072576      -0.00047996       0.18048653
C       -0.09828894       1.46167627       0.15034024     -59.29769235      -0.00024077       0.00078052      -0.00013416       0.04786577
H       -3.45233806      -1.01767932       0.70285404     -12.93001981       0.00061251      -0.00072952       0.00131004       0.05329967
H       -2.87590138       1.88642184       0.06795742     -13.22203096      -0.00126545      -0.00060900      -0.00144641       0.02252494
H       -1.30362906      -0.34639638       1.79728216     -12.88641655       0.00040329       0.00042892      -0.00027882       0.06715076
H       -5.16337473       0.98847777      -0.18288809     -13.18410963      -0.00132529      -0.00062226       0.00112554       0.04380217
H       -5.14039429       0.43000370       1.50975716     -13.00662109       0.00016231      -0.00033500       0.00162183       0.06137704
H       -2.08834543      -0.39687645      -1.54732495     -11.36257606      -0.00237509       0.00066246      -0.00066862       0.32803784
H       -3.37971816       1.91824839       2.51958220     -11.28650615       0.00010805       0.00111547      -0.00063086       0.31922527
H       -0.38646925       1.71623056       1.17402403     -13.15242855      -0.00008185       0.00075630      -0.00009194       0.04642255
H       -0.82417281       1.90292579      -0.53608113     -13.04698602      -0.00045333       0.00076736      -0.00000748       0.05524455
H       -1.12714385      -2.41225185      -0.10370010     -11.36845427       0.00158398       0.00003081      -0.00000707       0.32413827
H        1.77829094       1.83850432       0.53433134     -11.20342090       0.00025084       0.00034849      -0.00113891       0.33231353
H       -4.99804582       3.11606130       0.68963243     -11.58395507      -0.00143575       0.00007614       0.00036474       0.29230341
O        2.11765973      -1.84666737      -2.58008525    -112.41450773      -0.00180592      -0.00256178      -0.00075503      -0.36076530
O        0.90044693      -3.01507580      -1.11502020    -112.34452644      -0.00341649       0.00002744       0.00053227      -0.42100984
O        5.37783602      -1.77394613      -0.77786870    -112.28135535       0.00187068       0.00412879       0.00040840      -0.42223155
N        1.03223158      -0.69745327       0.59059441     -81.22906329       0.00016988       0.00079873      -0.00072557      -0.30726708
N        4.81525660       0.15545500       0.24318753     -80.93783155      -0.00285885       0.00194661       0.00337019      -0.27778676
C        2.09324734      -1.05352853      -0.35044703     -58.86793991      -0.00064695      -0.00070494      -0.00127158       0.02848816
C        3.28048275      -1.67747094       0.41431724     -59.31889101      -0.00063584      -0.00133252      -0.00168943      -0.10557522
C        1.61115513      -2.07905609      -1.37643802     -58.91701154      -0.00210758      -0.00098475      -0.00042122       0.36317393
C        4.60476329      -1.13042784      -0.10811001     -59.18551864      -0.00028916       0.00189240       0.00079506       0.28589293
H        2.41492932      -0.15742254      -0.88862989     -12.87408278      -0.00012854      -0.00122938      -0.00213590       0.07744132
H        3.19591225      -1.43949118       1.47465822     -12.95656671      -0.00190185      -0.00405821      -0.00072077       0.07249648
H        3.27545549      -2.76220346       0.30353889     -13.05255058       0.00060628      -0.00134783      -0.00452583       0.07234107
H        0.71564381      -1.56798109       1.02647241     -12.20196548       0.00008688       0.00116533       0.00032737       0.19110429
H        0.25481184       0.16011864      -1.95051368     -11.17079152       0.00177877       0.00014789      -0.00040584       0.34504324
H        4.18729703       0.64823469       0.85862427     -12.04827448      -0.00434003      -0.00029620       0.00415522       0.21136108
H        5.66420263       0.60591395      -0.05400288     -12.23821263      -0.00287049       0.00391461       0.00513182       0.19136374
H        1.84457239      -2.52763182      -3.21458035     -10.98387790      -0.00284000      -0.00258522      -0.00035103       0.33560678
O        2.51043233       1.09768590       2.03531777    -115.01890034       0.00344733       0.00037381      -0.00325354      -0.60947785
H        1.93928707       0.34997846       1.74534760     -11.47974881       0.00247879       0.00061582      -0.00239740       0.31450420
H        2.22146410       1.35703121       2.91172037     -11.82505774       0.00448709       0.00088166      -0.00291144       0.28556172
O        1.16655519       1.35425173      -2.81086716    -114.71884350       0.00678733      -0.00124683       0.00035643      -0.59283421
H        0.79335208       1.97285039      -3.44065680     -11.82522261       0.00268810       0.00043744       0.00417267       0.28728408
H        1.35447381       1.84596347      -1.99248865     -11.49548367       0.00498483      -0.00305728       0.00251468       0.32248787
47
Properties=species:S:1:pos:R:3:energies:R:1:forces:R:3:charge:R:1 energy=-2292.08561319337 free_energy=-2292.08561319337 dipole="-0.14453694546657067 1.4598923557057015 -0.006222811188018661" pbc="F F F"
O       -2.99283166      -0.77835732      -0.90831798    -113.19771583      -0.00436805      -0.00273881       0.00504384      -0.46488125
O       -2.71286211       1.57527747       1.84970182    -113.34597823      -0.00218071       0.00044579      -0.00081055      -0.46495473
O       -1.20395951      -2.11157678       0.98494319    -112.93541093      -0.00142511       0.00059241       0.00472437      -0.43546126
O       -5.10774731       2.54554665       0.82195068    -113.06218795      -0.00344454      -0.00383876      -0.00053660      -0.43962590
O       -0.36924150      -0.37679259      -1.23398137    -113.49166286      -0.00523500      -0.00585523       0.00058316      -0.48953088
O        1.22344299       1.96110722       0.05798391    -113.45514928      -0.00516078       0.00051230      -0.01392806      -0.47112952
C       -2.77785828      -0.39047936       0.42157900     -59.21278101      -0.00275224      -0.00103842       0.00315415       0.08977653
C       -3.19192770       1.08146472       0.62100604     -59.06927768      -0.00321835      -0.00193555       0.00101686       0.08701416
C       -1.35795164      -0.71729475       0.93307872     -59.13178377      -0.00177086       0.00047103       0.00194330       0.08273923
C       -4.71996755       1.21306912       0.56935345     -59.22875919      -0.00333093      -0.00321922       0.00131412       0.06023139
C       -0.16412760      -0.09719523       0.13592581     -58.92580596      -0.00274563      -0.00139534      -0.00105833       0.17943991
C       -0.04113722       1.42934100       0.37700024     -59.29617917      -0.00380626      -0.00078722      -0.00576013       0.04877543
H       -3.44884041      -1.00918290       1.03370871     -12.91675203      -0.00155000       0.00000413       0.00474097       0.05707187
H       -2.77650506       1.68167979      -0.20757950     -13.27355828      -0.00415762      -0.00314880       0.00023889       0.01726718
H       -1.29119142      -0.37203519       1.96887777     -12.96099101      -0.00043493       0.00319598       0.00102921       0.06109719
H       -5.09130044       0.84955039      -0.39371567     -13.18922860      -0.00377180      -0.00458089       0.00231084       0.04334966
H       -5.16388981       0.62045274       1.37221796     -13.00362448      -0.00266284      -0.00239709       0.00173120       0.06199721
H       -2.15986089      -0.63793145      -1.39298376     -11.37508306      -0.00522633      -0.00577930       0.00317886       0.32625690
H       -3.36584290       2.22193561       2.15876494     -11.27976829      -0.00264175      -0.00078836      -0.00110313       0.31940234
H       -0.31059233       1.64954052       1.41306850     -13.15545284       0.00134324       0.00095117      -0.00426406       0.04573472
H       -0.75007410       1.93989018      -0.27609310     -13.06539510      -0.00849590      -0.00356395      -0.00375709       0.05210641
H       -1.25264278      -2.46151125       0.08253985     -11.34569553      -0.00167120      -0.00092510       0.00551497       0.32421970
H        1.83210849       1.73849780       0.78714374     -11.25017709      -0.00115708       0.00296544      -0.01566689       0.32995892
H       -4.84502520       3.09695741       0.07623097     -11.58810641      -0.00583870      -0.00501323      -0.00181453       0.29160834
O        2.10930778      -1.60520957      -2.60405119    -112.46061143      -0.00586749      -0.00086109      -0.00034874      -0.36549403
O        1.00221179      -2.95306673      -1.20492400    -112.26758507      -0.00433720      -0.00111964       0.00081197      -0.41489063
O        5.23433103      -1.92729029      -1.05946864    -112.26336206      -0.00379900       0.00244929      -0.00529764      -0.41991377
N        1.03952566      -0.76229070       0.66206801     -81.14145032      -0.00159476       0.00108920       0.00032326      -0.30325298
N        4.95732656       0.07640098      -0.06706328     -80.87847882      -0.00288877       0.00080484       0.00130383      -0.27259352
C        2.09790284      -0.99108207      -0.31691553     -58.87250612      -0.00220939      -0.00115452      -0.00024778       0.02987108
C        3.32255795      -1.61186055       0.38515347     -59.36125554      -0.00212096      -0.00244519      -0.00118993      -0.10833039
C        1.65119651      -1.96134393      -1.40884381     -58.92695521      -0.00429977      -0.00108047      -0.00004581       0.36300198
C        4.60393045      -1.20231135      -0.32724546     -59.17414035      -0.00299846       0.00049275      -0.00188212       0.28703825
H        2.36589657      -0.04020625      -0.78586767     -12.89607937      -0.00061104      -0.00181877      -0.00071348       0.07557726
H        3.36522796      -1.25837900       1.41495376     -12.90486385      -0.00197302      -0.00423701       0.00005031       0.07831282
H        3.23871151      -2.69906646       0.38772931     -13.04498761      -0.00155342      -0.00331309      -0.00327054       0.07344840
H        0.74315934      -1.67737249       1.01341494     -12.20866841      -0.00113788       0.00178415       0.00317527       0.19259757
H        0.09527654       0.27797599      -1.79520214     -11.20397707       0.01268302      -0.01403425      -0.00378889       0.34484659
H        4.44893704       0.63924864       0.59298700     -12.13694733      -0.00214655      -0.00030658       0.00400834       0.19927176
H        5.79406576       0.44740148      -0.48441957     -12.21601385      -0.00442145       0.00358473      -0.00054029       0.19281527
H        1.86820616      -2.25933160      -3.27844679     -11.00375936      -0.00732857      -0.00002047      -0.00108435       0.33498167
O        2.43476363       0.90740732       2.33481546    -114.94634980       0.00525632       0.00855094      -0.00929435      -0.61168585
H        1.89004480       0.18545451       1.94894605     -11.55024739       0.00238914       0.00722826      -0.00436580       0.31128537
H        2.06334401       1.10836343       3.19529248     -11.89701100       0.01136316       0.00998214      -0.00630623       0.28151472
O        0.77600992       1.59803474      -2.70266534    -114.66031460       0.04142681      -0.00624729      -0.00241380      -0.58839763
H        0.56519360       2.20942121      -3.40874360     -11.78798119       0.01280955       0.05249340       0.01496359       0.28929084
H        1.10750949       2.10055541      -1.94600468     -11.52554285       0.03906312      -0.01395429       0.02832783       0.31824167
47
Properties=species:S:1:pos:R:3:energies:R:1:forces:R:3:charge:R:1 energy=-2291.9599580913477 free_energy=-2291.9599580913477 dipole="-0.07172088180354112 1.4112155717566564 -0.5502573446443975" pbc="F F F"
O       -2.91045003      -0.78738317      -0.91372481    -113.22695096       0.00062680      -0.00855873       0.00331658      -0.46674229
O       -2.65379156       1.60005380       1.82196198    -113.31939453      -0.00336344      -0.00214044      -0.00050651      -0.46412921
O       -1.22907620      -2.15231505       0.96769234    -112.92813442       0.00372276       0.00198968       0.00274341      -0.43547252
O       -4.91362241       2.69125195       0.61846462    -113.06262946      -0.00336571      -0.00417413      -0.00388576      -0.44025206
O       -0.26359210      -0.36978706      -1.19317437    -113.47870145      -0.00166241       0.00483922      -0.00375582      -0.48954319
O        1.39942094       1.82683285       0.36691531    -113.28799022      -0.00202467       0.00040422       0.00632469      -0.46258485
C       -2.72313788      -0.36853241       0.41205331     -59.20273896       0.00003094      -0.00216755       0.00149123       0.09013578
C       -3.07241112       1.12353159       0.56414498     -59.10463632      -0.00202431      -0.00212058      -0.00130576       0.08503801
C       -1.33019053      -0.75145023       0.95815996     -59.12697207       0.00176926       0.00181112      -0.00059986       0.08038430
C       -4.58452075       1.33562758       0.41008899     -59.22647618      -0.00178785      -0.00410107      -0.00216155       0.06061515
C       -0.09961476      -0.14453061       0.20377284     -58.89992477      -0.00073374       0.00267705      -0.00336863       0.17709822
C        0.07908945       1.36737026       0.50500096     -59.37178422      -0.00210725       0.00246000      -0.00290200       0.04726365
H       -3.44015573      -0.94151576       1.01594588     -12.92948926       0.00201015      -0.00040111       0.00547601       0.05662195
H       -2.56897051       1.69097344      -0.23755466     -13.23999950      -0.00208415      -0.00094789      -0.00015139       0.02235460
H       -1.27815964      -0.44042357       2.00490137     -12.97417148       0.00585665       0.00623379      -0.00230179       0.06062428
H       -4.91298788       0.97746586      -0.57044994     -13.19510469      -0.00139140      -0.00595796      -0.00172438       0.04260969
H       -5.11207020       0.78188691       1.18991893     -13.00878848      -0.00124991      -0.00337081      -0.00163328       0.06158244
H       -2.06812429      -0.64675926      -1.38340794     -11.38414490       0.00077743      -0.00698672       0.00352304       0.32369961
H       -3.27699433       2.29927165       2.07192498     -11.29479402      -0.00237581      -0.00189105      -0.00049624       0.31890309
H       -0.30376108       1.57618368       1.50754264     -13.13164802      -0.00907420       0.00197100      -0.00620728       0.04755267
H       -0.51236055       1.93987135      -0.21183854     -13.02790719       0.00363340       0.00152427      -0.00795125       0.05644652
H       -1.35147368      -2.47025982       0.06101695     -11.37239963      -0.00343626      -0.00122453       0.00486100       0.32069702
H        1.88225586       1.57114068       1.17279960     -11.30136077      -0.00661321      -0.00062446       0.00838789       0.32689487
H       -4.55973039       3.21517896      -0.10927309     -11.58891129      -0.00196945      -0.00426925      -0.00303678       0.29208597
O        2.37143601      -1.50791819      -2.52552996    -112.58869198      -0.00799952       0.00283445      -0.00589161      -0.37649266
O        1.25427611      -2.95392354      -1.23755855    -112.17638813      -0.00254612       0.00467228       0.00079726      -0.40601331
O        5.18883420      -2.13841734      -1.02081584    -112.28452090      -0.00690039      -0.00303896      -0.00354563      -0.42272673
N        1.06523917      -0.87298514       0.71112471     -81.01117204       0.00038514       0.00645936      -0.00254582      -0.29043120
N        5.11437867       0.00228499      -0.33535798     -80.84467771      -0.00278480      -0.00281360       0.00144609      -0.27030960
C        2.17865948      -0.96585400      -0.22540306     -58.87622427      -0.00140529       0.00536032      -0.00361244       0.03125972
C        3.43000587      -1.49176671       0.50184516     -59.40008557      -0.00353944       0.00216989      -0.00186633      -0.11019568
C        1.86257064      -1.92653489      -1.36598259     -58.90719516      -0.00419887       0.00520597      -0.00309582       0.36317301
C        4.66306915      -1.27218816      -0.36203742     -59.17440305      -0.00400013      -0.00194992      -0.00124486       0.28749272
H        2.37495021       0.02440684      -0.64412076     -12.87847541      -0.00016763       0.00573190      -0.00233664       0.07786719
H        3.54310844      -0.95926896       1.44599873     -12.88500565      -0.00404883       0.00307530      -0.00324974       0.08267884
H        3.31621786      -2.55857510       0.69881810     -13.02499865      -0.00746184       0.00387354      -0.00067013       0.07491263
H        0.75944299      -1.82371536       0.93617034     -12.22679780       0.00437996       0.00740839       0.00408458       0.19214532
H       -0.14928695       0.46346732      -1.68482922     -11.31288983       0.00265601       0.01379235      -0.00299393       0.33025928
H        4.67063083       0.71297239       0.21855403     -12.19875182      -0.00478281      -0.00531121       0.00048601       0.19221018
H        5.92073577       0.24667413      -0.88528234     -12.20670231      -0.01156994      -0.00241542      -0.00711142       0.19326052
H        2.23453686      -2.17597726      -3.21569054     -11.01609044      -0.00536657      -0.00148560      -0.00298308       0.33388305
O        2.12935347       0.60236381       2.79237726    -114.82473004       0.00803656      -0.00470040      -0.00449590      -0.60879318
H        1.69641327      -0.08315037       2.24109667     -11.62157592       0.00030146      -0.00326472       0.00145703       0.30826707
H        1.61410447       0.67923443       3.59686036     -11.93635361       0.00997025       0.00947450      -0.00526125       0.27992437
O       -0.45198867       1.96042721      -2.75428899    -114.61131556       0.04469796      -0.01711169       0.00485528      -0.57191029
H       -0.49495854       1.76123371      -3.69275894     -11.65931187      -0.00371663       0.00119451       0.02630320       0.29630208
H        0.24751105       2.60693310      -2.62816880     -11.60854762       0.02689786      -0.00413531       0.01733956       0.30135293
47
Properties=species:S:1:pos:R:3:energies:R:1:forces:R:3:charge:R:1 energy=-2291.8185210279394 free_energy=-2291.8185210279394 dipole="-0.538423508685303 1.1633260979409497 -0.768219559025624" pbc="F F F"
O       -2.81289575      -0.56045129      -1.04120421    -113.26752728      -0.00216966      -0.00488301      -0.00066958      -0.46668885
O       -2.51400073       1.57726369       1.89200247    -113.31750716      -0.00257089       0.00165322      -0.00499148      -0.46287287
O       -1.24176904      -2.14898826       0.80087998    -112.93790653      -0.00163971       0.00102848      -0.00268597      -0.43444192
O       -4.67890488       2.87690215       0.66602473    -113.07208638       0.00328966       0.00408532      -0.00388661      -0.44010523
O       -0.15159902      -0.35163153      -1.26195446    -113.38070872       0.00862456       0.01542387      -0.00154388      -0.47526522
O        1.62030681       1.62517558       0.73056343    -113.26995974      -0.00459810       0.00248320      -0.00446091      -0.46195094
C       -2.62041969      -0.25495233       0.31487564     -59.20190515      -0.00177953       0.00051962      -0.00211166       0.08937980
C       -2.89799614       1.23595242       0.57906884     -59.11633250      -0.00207145       0.00054278      -0.00407219       0.08357711
C       -1.25916832      -0.74575384       0.85049810     -59.13814836      -0.00182818       0.00090559      -0.00322574       0.08288962
C       -4.39189406       1.52644445       0.38531548     -59.23364293      -0.00104775       0.00377548      -0.00459702       0.06137350
C        0.01708979      -0.18051044       0.14784369     -58.85929814      -0.00031755       0.00196566      -0.00043645       0.17504930
C        0.27452356       1.31996406       0.48091156     -59.38501833      -0.00185919       0.00024081       0.00757257       0.04664072
H       -3.37285540      -0.83551782       0.86635711     -12.90576417      -0.00172813       0.00255490      -0.00016501       0.05856690
H       -2.32717238       1.84136589      -0.14565118     -13.20621184      -0.00271964       0.00007035      -0.00446303       0.02774627
H       -1.20027693      -0.48223165       1.91023747     -12.91560515      -0.00251495       0.00030121      -0.00296156       0.06516348
H       -4.69692251       1.24098861      -0.62668890     -13.20513136       0.00016598       0.00585209      -0.00512024       0.04039501
H       -4.96960608       0.94558841       1.10837317     -13.00337621      -0.00345475       0.00542011      -0.00582600       0.06157080
H       -1.96490418      -0.40976403      -1.49396227     -11.36003713      -0.00727899       0.00507694      -0.00514356       0.32507332
H       -3.10884807       2.28562449       2.18031599     -11.29309339      -0.00216785       0.00231708      -0.00561602       0.31882520
H       -0.34733704       1.60863572       1.33268720     -13.08344606       0.00623598      -0.00463939       0.01257191       0.05301417
H       -0.01708958       1.92570570      -0.38367601     -13.09452772      -0.01093547      -0.00156138       0.01361697       0.05080234
H       -1.40082098      -2.41944123      -0.11459797     -11.36407328      -0.00495056      -0.00018510      -0.00158763       0.31921175
H        1.84822092       1.26890681       1.60916774     -11.28334829       0.00116728       0.00549124      -0.00857802       0.32949359
H       -4.26020553       3.43137137      -0.00239611     -11.56645471       0.00943437       0.00148061      -0.00203320       0.29370087
O        2.86298340      -1.78431713      -2.35498392    -112.61193041      -0.00395049       0.00804850      -0.00094086      -0.37657051
O        1.50918206      -3.09468918      -1.15016377    -112.14852218       0.00142951       0.00061443      -0.00709813      -0.40084149
O        5.44047375      -2.20088741      -0.56871155    -112.29316171      -0.00175537       0.00731198      -0.00151757      -0.42346889
N        1.11775787      -0.98275289       0.66452437     -80.95758518      -0.00183521      -0.00070975      -0.00246387      -0.28758468
N        5.14465045       0.02108907      -0.36930362     -80.84366856      -0.00138595      -0.00183283      -0.00033831      -0.26960835
C        2.30510221      -1.03820200      -0.17308676     -58.88600686      -0.00195412       0.00015314      -0.00186773       0.03178125
C        3.53149643      -1.41494613       0.68087873     -59.38005612      -0.00266674      -0.00039831      -0.00345991      -0.11005016
C        2.16238860      -2.09372569      -1.26396006     -58.91245319      -0.00138203       0.00273812      -0.00354138       0.35679274
C        4.80170375      -1.26650496      -0.14410846     -59.17434285      -0.00167015       0.00258578      -0.00119176       0.28786885
H        2.47517478      -0.06218605      -0.63384195     -12.91209519      -0.00116464       0.00133901      -0.00002135       0.07302058
H        3.57196858      -0.75528922       1.54773768     -12.84040660      -0.00351138      -0.00256929      -0.00354237       0.08743293
H        3.44172193      -2.44822581       1.01770696     -13.02084912      -0.00301226      -0.00002710      -0.00605434       0.07505289
H        0.77672127      -1.93817698       0.79976570     -12.22097520      -0.00151122       0.00013755      -0.00133105       0.19251998
H        0.38732688       0.29376029      -1.73407092     -11.46967045       0.02389829      -0.03876822       0.01438307       0.30747072
H        4.59332445       0.78686882      -0.02380833     -12.18709639       0.00417993      -0.00428326       0.00803256       0.19403385
H        5.94951842       0.21891480      -0.93948764     -12.19912645       0.00203121       0.00024023       0.00566926       0.19416739
H        2.84467862      -2.51474037      -2.99404055     -10.96914164      -0.00171689       0.00956642      -0.00113605       0.33690513
O        1.77891827       0.16213216       3.13204412    -114.75655253       0.00168548       0.00683113      -0.01368714      -0.60073854
H        1.48456119      -0.49216041       2.47135335     -11.62561327       0.00085556       0.00675135      -0.01000979       0.30745827
H        1.12351267       0.17399841       3.83169860     -11.89143700       0.00620416       0.00577814      -0.01225548       0.28319447
O       -1.79565840       2.44036251      -3.29682186    -114.46546054      -0.02501583       0.00948882       0.02438094      -0.57452132
H       -2.53752998       1.85287583      -3.46411583     -11.78019774       0.05000294       0.01091520       0.00544885       0.28897004
H       -1.76062097       3.06956196      -4.02229306     -11.81106131      -0.01104031      -0.07383071       0.05295672       0.28556610
47
Properties=species:S:1:pos:R:3:energies:R:1:forces:R:3:charge:R:1 energy=-2291.6409126422523 free_energy=-2291.6409126422523 dipole="-0.33336383692200966 0.6615440781755446 -0.8402332937652017" pbc="F F F"
O       -2.63770236      -0.33340378      -1.12276504    -113.21457935      -0.00252077      -0.00989212       0.00523589      -0.45942250
O       -2.25270470       1.51488679       1.98912195    -113.31786926       0.00353446       0.00256984      -0.00169534      -0.46157979
O       -1.25243329      -2.19782196       0.62091481    -112.95637114      -0.00105927      -0.00276384       0.00666705      -0.43528315
O       -4.39098379       2.98944988       0.95045714    -113.05607537       0.00269966      -0.00066573      -0.00563647      -0.43854996
O        0.03664111      -0.44925374      -1.26725401    -113.41501487       0.00728759      -0.00229039      -0.00053964      -0.47828981
O        1.86090083       1.34605631       0.94677125    -113.30201956      -0.00867051      -0.00070346       0.00220531      -0.46131003
C       -2.46048397      -0.16983183       0.25958251     -59.20200197       0.00053559      -0.00262752       0.00417010       0.08782742
C       -2.67243646       1.30237698       0.66122614     -59.08753523       0.00359156      -0.00029255      -0.00132595       0.08599518
C       -1.15198856      -0.80588441       0.78064106     -59.12373922      -0.00046275      -0.00334753       0.00206221       0.08403681
C       -4.16017830       1.66460203       0.53096011     -59.23734099       0.00404849       0.00030802      -0.00439165       0.06063238
C        0.19036671      -0.32033200       0.14855218     -58.85079826      -0.00176168      -0.00323018       0.00061805       0.17644126
C        0.53636991       1.15452487       0.52570945     -59.35108401      -0.00520368      -0.00266589      -0.00028427       0.04684806
H       -3.26100996      -0.75651713       0.73153181     -12.87150873       0.00063702       0.00284541       0.01102952       0.06097439
H       -2.09090225       1.94790310      -0.02013465     -13.25578840       0.00371825      -0.00211074      -0.00366403       0.02151800
H       -1.09836420      -0.62292230       1.85703641     -12.88973472       0.00059186      -0.00269855       0.00144982       0.06773751
H       -4.50028656       1.48861137      -0.49392042     -13.20388142       0.00943025       0.00108483      -0.00551422       0.04173703
H       -4.73930179       1.03558675       1.21208828     -12.99193825       0.00073353       0.00017191      -0.00772162       0.06178549
H       -1.78608788      -0.16449817      -1.55509699     -11.37278989      -0.00228804      -0.02240682       0.00259061       0.32162815
H       -2.81286011       2.22071907       2.34629969     -11.26699635       0.00258587       0.00175318      -0.00107901       0.32076264
H       -0.15341784       1.49056569       1.30298510     -13.05778577      -0.00625168      -0.00094087      -0.00297158       0.05591472
H        0.40143896       1.77899953      -0.36295552     -13.14977542      -0.00425772      -0.00509479      -0.00047042       0.04520688
H       -1.45805109      -2.37150204      -0.30852754     -11.36539438       0.00373634      -0.00794281       0.00684514       0.31714216
H        1.93182412       0.98119328       1.84648372     -11.26719026      -0.01046874      -0.00202720       0.00054143       0.32986230
H       -4.06424429       3.59901854       0.27938327     -11.55428312       0.01790263      -0.00150532       0.00217521       0.29525984
O        3.39372569      -2.23010174      -1.98002852    -112.63018294      -0.00702017       0.00928982      -0.00507935      -0.37626711
O        1.91201715      -3.44939525      -0.82975861    -112.13796501      -0.00145971      -0.00069660      -0.00605585      -0.39722079
O        5.73642844      -2.14002280      -0.02498710    -112.30293801      -0.00560321       0.00083720      -0.00154607      -0.42314577
N        1.20915577      -1.20454011       0.68427840     -80.94889083      -0.00156324      -0.00375585      -0.00037560      -0.28570262
N        5.19385506       0.03611232      -0.21184189     -80.86102732      -0.00251920       0.00035590       0.01468770      -0.27040465
C        2.47691022      -1.24705454      -0.02688336     -58.86495538      -0.00324517      -0.00262151      -0.00194832       0.03272811
C        3.65948586      -1.39773981       0.95583760     -59.34585082      -0.00732652      -0.00776784      -0.00262755      -0.10983509
C        2.54233584      -2.43834264      -0.97627544     -58.92466761      -0.00456761       0.00178846      -0.00501270       0.35188726
C        4.97340957      -1.23070358       0.20370843     -59.16461992      -0.00537277      -0.00192085       0.00328003       0.28785731
H        2.62770851      -0.32330265      -0.59206300     -12.94890615      -0.00041767      -0.00188627       0.00008496       0.06637861
H        3.57534483      -0.63352075       1.72771265     -12.80117307      -0.01003254      -0.01273868      -0.00075955       0.09104002
H        3.63416045      -2.38310127       1.42097547     -13.01229923      -0.01117195      -0.00899813      -0.00804041       0.07602315
H        0.82826610      -2.15193628       0.74103172     -12.22734478      -0.00122553      -0.00374661      -0.00377059       0.19258950
H        0.87281618      -0.25312681      -1.70430592     -11.56171911       0.00110732       0.03795295       0.00896109       0.29728536
H        4.57111632       0.78903298       0.02436706     -12.17100064      -0.00251517      -0.00244962       0.01947560       0.19585881
H        6.02902697       0.23835885      -0.73521696     -12.19103136       0.00082801       0.00553298       0.02232972       0.19453709
H        3.52930525      -3.04182970      -2.49512440     -10.91399760      -0.00575087       0.01311537      -0.00766346       0.33998527
O        1.51166590      -0.20490408       3.30682306    -114.74620322       0.01618368       0.01687222      -0.01949423      -0.59999142
H        1.34432044      -0.83867655       2.58784018     -11.64648637       0.00970904       0.01309494      -0.01449969       0.30560856
H        0.77706461      -0.27293991       3.91949392     -11.88501282       0.01969948       0.02314987      -0.01530065       0.28391346
O       -4.50889460       4.05598041      -5.10793876    -114.29281752       0.01923714      -0.01629417       0.00657139      -0.56666614
H       -4.54103961       3.12165099      -4.89172700     -11.85226364      -0.00973759       0.00286338      -0.01105601       0.28304165
H       -4.62747820       4.13098269      -6.05710555     -11.84806334      -0.00532402       0.00249614       0.01754341       0.28362446
47
Properties=species:S:1:pos:R:3:energies:R:1:forces:R:3:charge:R:1 energy=-2291.391440682005 free_energy=-2291.391440682005 dipole="-0.25493787812077495 0.4409587469132826 -0.8387739782837536" pbc="F F F"
O       -2.36825901      -0.07853237      -1.04906627    -113.20596804       0.00394056      -0.01328721       0.00156889      -0.46104219
O       -1.99917158       1.30791875       2.28366386    -113.28824842       0.00488176       0.00272023      -0.00710049      -0.45946630
O       -1.09651242      -2.24468675       0.63589308    -112.96106357      -0.00037277      -0.00831993       0.00881972      -0.43593845
O       -4.29255217       2.77511512       1.52279510    -113.05020379       0.01510079       0.00199599      -0.00099214      -0.43825865
O        0.27549398      -0.59877730      -1.20610867    -113.42575506      -0.00016610      -0.00223718       0.00518082      -0.47811745
O        2.06753510       1.23247431       1.00736766    -113.22026474       0.00022181      -0.00090270       0.02456011      -0.44914244
C       -2.23453106      -0.15354732       0.34715581     -59.20186080      -0.00150281      -0.00841945       0.00110929       0.08572949
C       -2.48848047       1.24005089       0.96527937     -59.06999204       0.00209595      -0.00456889      -0.00605168       0.08671390
C       -0.94839176      -0.86052000       0.83070430     -59.14992731      -0.00288988      -0.00724457       0.00535089       0.08145182
C       -3.99932060       1.52046350       0.95329077     -59.24140126       0.00371886       0.00200167      -0.00350778       0.06002498
C        0.40849348      -0.41700162       0.20771583     -58.85013546      -0.00231822      -0.00599490       0.00803510       0.17868058
C        0.75639599       1.06323864       0.53723655     -59.34338349      -0.00283628      -0.00562661       0.01163118       0.04700759
H       -3.04597875      -0.80969525       0.69534467     -12.86848703      -0.00267369      -0.00536155       0.00363600       0.05928377
H       -1.98495048       2.00116803       0.34312637     -13.23864939       0.00343535      -0.00925553      -0.01223919       0.02260628
H       -0.87839175      -0.70844951       1.91100000     -12.79363947      -0.00421395      -0.00505500       0.00555011       0.07820111
H       -4.38137067       1.42931329      -0.06826212     -13.19939950       0.00198076       0.00724792      -0.00180104       0.04196457
H       -4.50025990       0.78589290       1.58940152     -12.99595051      -0.00128330       0.00469408      -0.00495346       0.06125282
H       -1.48336046      -0.00722277      -1.43760743     -11.38496177       0.00387457      -0.03912541      -0.00281911       0.32057186
H       -2.57185656       1.92345752       2.76464721     -11.28875290       0.00267676       0.00003751      -0.00773258       0.31914446
H        0.04912460       1.43652712       1.28041612     -13.04191385      -0.01263064      -0.00727518       0.00806434       0.05664942
H        0.67005625       1.66418252      -0.37302699     -13.13534035       0.00280660      -0.00608705       0.00499608       0.04745716
H       -1.21567668      -2.39639267      -0.31162646     -11.39360491      -0.00017189      -0.01190170       0.00924190       0.31433043
H        2.09789095       0.82100267       1.88213962     -11.28832873      -0.00594762       0.00586169       0.03387913       0.32185642
H       -4.03741348       3.47176264       0.90821142     -11.57302882       0.02793805       0.00001506       0.00392691       0.29313622
O        3.71468071      -2.84942821      -1.46969895    -112.54651755      -0.00588622       0.01673216      -0.01689117      -0.36885623
O        2.16575223      -3.77087149      -0.14648957    -112.17933217      -0.00794946      -0.00236515      -0.02340972      -0.40105384
O        5.99126093      -2.09617982       0.28734860    -112.28649724      -0.00276096      -0.00075720       0.00646143      -0.42067967
N        1.40070429      -1.29100552       0.80058587     -80.89201840      -0.00711315      -0.01288490       0.00800450      -0.28563222
N        5.33129505       0.00405603      -0.18433863     -80.88034833      -0.00668983      -0.00128976       0.01364339      -0.27207211
C        2.68417371      -1.43841546       0.13622973     -58.84175682      -0.00409911      -0.00167825       0.00492128       0.03617741
C        3.85885319      -1.35167816       1.14206008     -59.30360482      -0.00702232      -0.00989650       0.00655316      -0.10874914
C        2.80258781      -2.81710368      -0.50427718     -58.93500063      -0.00516457       0.00395724      -0.01307545       0.35290252
C        5.17535641      -1.21058506       0.38959288     -59.15359451      -0.00514726      -0.00329490       0.00866455       0.28806009
H        2.83562866      -0.66811447      -0.62567227     -13.05519766      -0.00315005       0.00788461       0.01188409       0.05547814
H        3.71272583      -0.48636773       1.78556926     -12.82884933      -0.00616615      -0.01496945       0.01233714       0.08715330
H        3.88863853      -2.25123644       1.75645908     -13.01838237      -0.01048209      -0.01385096      -0.00007528       0.07506331
H        0.99029730      -2.22004730       0.91612033     -12.22850818      -0.00929944      -0.02285661      -0.00824457       0.19115387
H        1.10797785      -0.38426977      -1.64149786     -11.55639324      -0.00137540       0.01059115       0.00796810       0.29679232
H        4.67968303       0.75235742      -0.02194834     -12.17602426      -0.00837040      -0.00303941       0.01734568       0.19525411
H        6.17617437       0.19474680      -0.69670238     -12.19110864      -0.00541221       0.00411143       0.01601957       0.19429861
H        3.88831873      -3.76146052      -1.75409643     -10.88454528      -0.00818573       0.01964238      -0.03128177       0.34176739
O        1.34683300      -0.75469906       3.70442655    -114.59500229       0.02324883       0.04408249      -0.03195511      -0.59133173
H        1.36322990      -1.37754705       2.96799430     -11.74710015       0.01514763       0.07729478      -0.06025508       0.29727391
H        0.58773472      -0.98341874       4.24458611     -11.90275405       0.02980798       0.01973258      -0.01766613       0.28290253
O       -7.21359616       6.21694363      -8.34997930    -114.24829343       0.00625412       0.00062267       0.00040128      -0.56501556
H       -7.26392538       5.38596939      -7.87347316     -11.86617944      -0.00347265      -0.00090859      -0.00463313       0.28238665
H       -7.28808625       6.01401945      -9.28458735     -11.86417069      -0.00237622      -0.00077109       0.00493025       0.28262890
47
Properties=species:S:1:pos:R:3:energies:R:1:forces:R:3:charge:R:1 energy=-2290.7616009064095 free_energy=-2290.7616009064095 dipole="0.2531042581048862 0.3713514832024877 -0.6528504600969582" pbc="F F F"
O       -2.03175314       0.54017544      -1.02783516    -113.07275543      -0.00443963      -0.08141071      -0.00907350      -0.44627482
O       -1.92209421       0.91586264       2.58255410    -113.20245512       0.03278658       0.02577670      -0.00475621      -0.45458627
O       -0.85218375      -2.07041393       0.42795150    -112.84930009       0.03856691      -0.02746436       0.04267574      -0.43321667
O       -4.35544570       2.42458271       2.01900095    -113.03032094       0.02218566      -0.02058271       0.01453609      -0.43861869
O        0.67208283      -0.77405205      -1.23989017    -113.17430552       0.04260113       0.02101269      -0.00529849      -0.45374191
O        2.24991241       1.58730137      -0.14596006    -113.22406950       0.01845039      -0.01794243       0.02618225      -0.44894649
C       -1.96079498       0.06473660       0.29285090     -59.16949510       0.02902406      -0.03647654       0.01189831       0.07930087
C       -2.36906190       1.19463008       1.27825039     -59.08000624       0.02335060      -0.00696539      -0.01634125       0.08622410
C       -0.66909001      -0.70663041       0.70106810     -59.18972336       0.03861132      -0.02042312       0.02715686       0.07856655
C       -3.90411592       1.32535082       1.26158614     -59.24268197       0.02036652      -0.00343605      -0.01443713       0.05952860
C        0.69883547      -0.27934719       0.08042236     -58.91077522       0.05402577      -0.01970112       0.03606390       0.18122979
C        0.90420680       1.25844138       0.09035619     -59.19995678       0.02968537      -0.01269153       0.02546510       0.05260375
H       -2.75327528      -0.69415685       0.35498566     -12.77405008       0.04626029      -0.04991748       0.03840690       0.06930855
H       -1.92863248       2.14878094       0.93839360     -13.25068219       0.02135322      -0.01099200      -0.04539729       0.02185544
H       -0.60082610      -0.61818561       1.78830481     -12.77242160       0.03280414      -0.00405291       0.03223599       0.08283730
H       -4.25739218       1.36885715       0.22647521     -13.21204887       0.01785362       0.02097076      -0.00743712       0.04032452
H       -4.33176537       0.44299226       1.74704958     -12.98883859       0.02233814      -0.01106479      -0.02933746       0.06148533
H       -1.17276211       0.86520990      -1.31153000     -11.53128355       0.04091655      -0.06035482      -0.03520604       0.29954766
H       -2.54347785       1.33194932       3.19597798     -11.31492571       0.00643066       0.01551616      -0.02573719       0.31722887
H        0.56741451       1.64255113       1.06011166     -13.18443639       0.02146661       0.00924449       0.00636500       0.04098380
H        0.34301079       1.75150699      -0.70703637     -13.11621595       0.02303011      -0.02867365       0.02452007       0.04935058
H       -0.81338367      -2.17526943      -0.53311579     -11.40884535       0.02679266      -0.03277110       0.03645074       0.31514760
H        2.74904210       1.15860328       0.56080600     -11.38172843       0.02003106      -0.03015787       0.02336954       0.30619670
H       -4.24253230       3.23525136       1.51246434     -11.59262545       0.06924897       0.00449609       0.00177773       0.29234284
O        3.77188333      -3.59224460      -0.34463463    -112.46059535      -0.04381322       0.02243013      -0.04279791      -0.36358352
O        2.33191375      -3.55812213       1.36459937    -112.14112344      -0.03443941       0.01039012      -0.01355449      -0.39822597
O        6.23800462      -2.19329210       0.33184348    -112.22539980      -0.02852010       0.00762169       0.04412547      -0.41256519
N        1.79074859      -0.83685167       0.90667474     -80.89685372      -0.06597601       0.00698751       0.02526888      -0.29509949
N        5.76522856      -0.16722817      -0.51402762     -80.88329380      -0.03736144      -0.00425749      -0.00785376      -0.27187922
C        2.97612068      -1.46854738       0.34502366     -58.81519363      -0.05194806       0.02590512       0.00422921       0.03657361
C        4.25940317      -1.07083851       1.14421810     -59.19778766      -0.05108358       0.03311391      -0.00549818      -0.10290236
C        2.95052590      -2.99009295       0.50708234     -58.92414440      -0.03950055       0.01931790      -0.01603029       0.35544049
C        5.51816568      -1.22455610       0.29462902     -59.14281060      -0.03621744       0.01151226       0.01246672       0.28656345
H        3.13081616      -1.22177928      -0.70932999     -13.11519059      -0.06556941       0.04164221       0.01055434       0.05316040
H        4.18095010      -0.04463221       1.50186261     -13.08890511      -0.05647717       0.02858797      -0.02497812       0.06085912
H        4.35766658      -1.72519530       2.01322274     -12.97574605      -0.05085804       0.06125368       0.00358376       0.07734494
H        1.41827976      -1.47303921       1.60493787     -12.28340912      -0.07428604      -0.02415791       0.00867221       0.18658132
H        1.48807000      -0.53022509      -1.68851145     -11.48332920       0.01497214       0.11379477      -0.04316220       0.30240401
H        5.17411520       0.64408505      -0.54528763     -12.22473847      -0.01966727       0.01140115      -0.00494378       0.18819956
H        6.58803507      -0.18558483      -1.09409479     -12.14526220      -0.02873026      -0.01807805      -0.00241901       0.19722401
H        3.89690146      -4.52629343      -0.11068473     -10.89306045      -0.04020660       0.00443747      -0.06070761       0.34122887
O        0.53178642      -3.05040034       5.37830440    -114.21657206      -0.02857108      -0.02221113       0.04744085      -0.56874836
H        0.84805301      -3.85500351       4.96375857     -11.88593284       0.06773348      -0.00004216      -0.06266047       0.28607999
H       -0.40695727      -2.99994620       5.18962777     -11.91183922      -0.02314559       0.04859004      -0.02580006       0.28266636
O      -10.04262809       8.09997899     -11.41375639    -114.23862553      -0.00068165       0.00177621      -0.01202901      -0.56479461
H       -9.78728778       7.89765369     -10.51162317     -11.86962951       0.00296697      -0.00851225      -0.00403934       0.28234923
H       -9.72090187       7.38683394     -11.96917350     -11.86821072      -0.00236038       0.00655857       0.01605026       0.28244539
47
Properties=species:S:1:pos:R:3:energies:R:1:forces:R:3:charge:R:1 energy=-2286.1853984537534 free_energy=-2286.1853984537534 dipole="-2.70604346323569 0.5483871213907231 0.45850430911534773" pbc="F F F"
O       -2.61141944       1.54365639      -1.07846795    -113.15949852       0.02941930       0.11200438      -0.16577643      -0.44281608
O       -2.85704135       0.09319927       2.23494757    -113.17179073      -0.21962395       0.01449267      -0.08529432      -0.44328907
O       -1.64434670      -1.49257760      -0.91038084    -113.03898573      -0.05053770      -0.20718996       0.24647467      -0.43849573
O       -4.47416890       3.03953007       1.61696215    -113.16094873      -0.04383292      -0.00911293       0.02866227      -0.44220233
O        0.69467569      -0.60818861      -1.02551344    -111.74210680       0.18600727      -0.02568159       0.10721747      -0.30280178
O        1.86712423       1.56151846      -0.70108783    -112.69191852      -0.17595890       0.06594878       0.22967114      -0.42106172
C       -2.73384489       0.53714737      -0.11171034     -59.08089850      -0.08151098      -0.01481060      -0.11424688       0.09836221
C       -3.03487418       1.11993247       1.28827864     -59.14314095       0.14254941      -0.15161650      -0.16062295       0.08910725
C       -1.46295318      -0.31324457      -0.13768777     -59.14622164       0.30556409      -0.19286789       0.01649986       0.08830976
C       -4.46975940       1.68324294       1.23965656     -59.13625954      -0.11018139      -0.01270945      -0.02343301       0.06544753
C       -0.15128811       0.31861318      -0.58405052     -57.11818616      -0.20035492      -0.31209542      -0.06776912       0.10056695
C        0.53042382       1.60990020      -0.30200902     -59.57144447       0.17303090       0.33661515       0.04306627       0.07708640
H       -3.57201828      -0.16017141      -0.37577105     -12.98141073       0.31777281       0.28799485       0.17674900       0.04130458
H       -2.31415202       1.92954452       1.49161653     -12.98390785      -0.20916883       0.08985988      -0.09039955       0.05254317
H       -1.30514573      -0.70527436       0.88485428     -12.41782200      -0.07635111       0.05557167      -0.02297649       0.10395592
H       -4.86073266       1.55496036       0.21350591     -13.19966380      -0.06520981       0.21193148       0.11901713       0.02831095
H       -5.13166133       1.10091207       1.88512525     -13.16421282       0.09415027      -0.18010875       0.20048145       0.03954155
H       -3.21167221       2.27867265      -0.90079260     -11.33475655       0.01924303      -0.08784796       0.09595704       0.30812517
H       -3.07616171       0.41716862       3.11644629     -11.30738929       0.02668813       0.06771102      -0.04359739       0.31027287
H        0.43222961       1.81454655       0.79876828     -12.80748615       0.02327867      -0.00704089      -0.40980375       0.06150292
H        0.12263819       2.47588918      -0.85523731     -12.57043359      -0.26506694      -0.30002887       0.25655209       0.09547439
H       -2.10703374      -1.34348736      -1.74539777     -11.40029715       0.14812373       0.36089849       0.11311537       0.30665725
H        2.24174201       0.67874659      -0.51475151     -11.23111228       0.20530954       0.14252680       0.09231317       0.33910601
H       -5.37055627       3.28397221       1.87256815     -11.42679626       0.08675841       0.10834001      -0.05807921       0.30056926
O        4.35838128      -3.78257240       2.12905048    -112.56874141       0.03192953       0.06315678      -0.16880268      -0.38287773
O        3.05765691      -2.07074970       2.59374167    -112.12528184      -0.00572953       0.16934549      -0.01910639      -0.41679610
O        7.07074121      -2.62043852      -1.12020216    -112.22816896       0.04755792      -0.04491838       0.05128955      -0.42520752
N        3.79324939      -0.58655798       0.50910667     -80.39173313       0.32532915       0.19613415      -0.10476920      -0.44887899
N        7.08543939      -0.36298094      -0.88928803     -80.97194083      -0.22225422       0.05498486      -0.09400494      -0.28608699
C        4.52121414      -1.77616064       0.69034582     -58.96234542      -0.00675105      -0.21042205       0.10824611       0.05816680
C        6.08959384      -1.63289693       0.85673355     -58.98666700      -0.07362251      -0.14030238       0.07388647      -0.09501302
C        3.92315942      -2.53690848       1.89556699     -58.90571430      -0.01683000       0.04024853       0.03881844       0.34533341
C        6.77722014      -1.62864027      -0.49377081     -59.13276503      -0.06080947      -0.00099927      -0.01605257       0.28850333
H        4.41690848      -2.39850556      -0.20897753     -13.06470582      -0.21961405      -0.16103490       0.06032346       0.05314346
H        6.37278882      -0.71528270       1.37992079     -13.26614516      -0.27073754      -0.17753823       0.16147212       0.04903762
H        6.44251195      -2.51365465       1.38820970     -13.09650081      -0.01401461      -0.02336335       0.16032370       0.06759528
H        3.68607369      -0.15056753       1.42719784     -13.10701421      -0.07488836       0.09425737      -0.12182617       0.11535516
H        0.29124165      -1.46483144      -0.82079999     -10.81665422       0.00438678      -0.45394688      -0.40601346       0.35051211
H        6.43787869       0.32234582      -0.53990104     -12.19958373       0.09695963       0.34271771      -0.06289827       0.19548730
H        7.43120657      -0.22330941      -1.82741729     -12.33492752      -0.04115057      -0.06119401      -0.00292122       0.18440632
H        3.82268860      -4.14015340       2.86331088     -11.07928171       0.23864294      -0.02905695      -0.14434223       0.33174211
O       -0.16972640      -4.86552906       6.22903576    -114.20515027      -0.00242558      -0.00581508      -0.00216279      -0.56408026
H       -0.93301132      -4.61281387       6.75326905     -11.88648121       0.03842308      -0.04738883      -0.01474737       0.28178149
H       -0.03617185      -5.80933180       6.34224382     -11.88321593      -0.03487444       0.04275368       0.01900574       0.28229877
O      -10.57519836       8.12127289     -11.24800003    -114.25869209       0.02067604       0.00564464      -0.03157113      -0.56479601
H      -10.14843974       8.88594158     -11.64056262     -11.86276717      -0.01115994      -0.00239111       0.01868765       0.28246616
H      -10.48059895       7.39752237     -11.87078246     -11.86423194      -0.00914131      -0.00365615       0.01338734       0.28232985
47
Properties=species:S:1:pos:R:3:energies:R:1:forces:R:3:charge:R:1 energy=-2286.5020771461345 free_energy=-2286.5020771461345 dipole="-3.1967781790238767 0.8225031213477728 1.0753513138367066" pbc="F F F"
O       -3.95172464       1.86112342      -1.36845681    -113.15397588       0.02884834       0.09700072       0.02861560      -0.44258018
O       -3.41411759       0.28680593       1.87121128    -113.34960461       0.03812242      -0.11361611      -0.05033657      -0.44943587
O       -2.27122062       0.08205633      -2.20785310    -112.72190734      -0.04823175      -0.08329175       0.04646250      -0.41572078
O       -5.19795671       3.17421717       0.89214472    -113.27286141      -0.16385101       0.08262748       0.00955757      -0.44793754
O       -0.40415729      -0.10505266       0.40829856    -111.95862915       0.11418896      -0.04408317       0.13054084      -0.30750211
O        0.27668449       2.23498188      -1.03834585    -112.82017639       0.13577131      -0.11731697       0.07786632      -0.42303371
C       -3.82968860       0.78512315      -0.47846383     -59.04134088      -0.00862157      -0.00415568       0.03768594       0.09336139
C       -3.84750348       1.28072687       0.98012242     -59.09835667       0.02857026       0.03481792      -0.03484891       0.08859086
C       -2.50400480       0.06872422      -0.82131639     -59.25578262       0.00857663       0.00384590      -0.01741164       0.09765458
C       -5.22152066       1.84425403       1.36242903     -59.09230102       0.00170738       0.09052683      -0.07172255       0.06561034
C       -1.33238482       0.68969398      -0.13267328     -57.00629635       0.11646313      -0.09682662      -0.03315277       0.09980328
C       -0.92524318       2.12836994      -0.31728179     -59.43422254      -0.00448970      -0.12611397       0.01239753       0.07039168
H       -4.64642812       0.07351675      -0.64892254     -13.03859450      -0.12534531      -0.09282940       0.07549908       0.04333589
H       -3.17489783       2.14599023       1.03397931     -12.93933625       0.13006404       0.06419453      -0.07119035       0.04931648
H       -2.60009126      -0.98190073      -0.51454996     -12.91569102       0.09684678       0.06164740      -0.07773117       0.06147771
H       -6.04561429       1.28829556       0.89616841     -13.22636983       0.03135811      -0.08636564       0.09771203       0.03501058
H       -5.31770019       1.78680149       2.45749192     -13.20796447      -0.12824646       0.12168569      -0.09382472       0.03457809
H       -4.67110425       2.41987420      -1.05865387     -11.27250841      -0.05316044       0.22915176       0.02517492       0.31936440
H       -3.28698802       0.71915486       2.72592683     -11.25639557       0.02222058      -0.23707223      -0.02478311       0.30893815
H       -0.79429945       2.60113708       0.67507054     -12.92896332      -0.07525397      -0.04461899      -0.05874749       0.05359760
H       -1.67310269       2.68247242      -0.89340225     -12.77436966      -0.01061480      -0.11399406       0.12998980       0.08596556
H       -2.37039457       0.99749633      -2.50968103     -11.16772752      -0.07124688      -0.11418354      -0.04264489       0.32876911
H        0.91530280       1.64638828      -0.61299018     -11.35558517       0.08177230       0.10077614      -0.12803013       0.31223377
H       -5.98133737       3.64658779       1.18507808     -11.41061627      -0.14071077       0.04844490       0.04065595       0.30096047
O        5.25181989      -4.17392779       1.67848725    -112.47814665      -0.14045955      -0.15940059       0.08005277      -0.37892857
O        3.30355660      -3.34231519       0.91397212    -112.23744408       0.10932158      -0.18300835       0.07016171      -0.41771422
O        7.98508483      -1.40220342      -1.79940426    -112.34103202      -0.00910011       0.05635173       0.09833390      -0.44162822
N        5.49608444      -1.45520770       1.56191229     -80.09903760      -0.15834256       0.17328453      -0.18795437      -0.41082507
N        7.12747987      -0.25280936      -0.04390465     -80.73305929       0.10301113      -0.06112210      -0.09364756      -0.28461395
C        5.36298673      -2.23906077       0.37148139     -58.85219126       0.03183567       0.13551812       0.07431430       0.05251809
C        6.74472064      -2.64173972      -0.14604961     -59.09689871      -0.04859078       0.07922025      -0.08578785      -0.09197517
C        4.50685428      -3.32468533       0.96124246     -58.81290094       0.07685617      -0.12692804       0.11789805       0.36414125
C        7.36102292      -1.37468849      -0.75807867     -59.23007227      -0.02825731      -0.06827470      -0.02156899       0.28481999
H        4.73719363      -1.74831903      -0.38367784     -13.17721895       0.20984932       0.28481365       0.06337294       0.04644508
H        7.31798098      -2.98421448       0.72184172     -13.08360898       0.17815250       0.03210798      -0.20581431       0.06420465
H        6.73931076      -3.44331203      -0.88782558     -13.23386702      -0.10794702       0.14035875      -0.01582628       0.05670137
H        6.24341970      -1.88187698       2.11951669     -12.91043940      -0.34003379       0.13348000       0.07939875       0.12930968
H       -0.64363187      -1.04950003       0.38575993     -10.89495861       0.04172100       0.32538856      -0.00591852       0.33746599
H        6.46433037      -0.29995369       0.75283319     -12.12311069       0.10079620      -0.05459358      -0.16577010       0.21880763
H        7.33023691       0.63847553      -0.46759840     -12.39159368       0.09081717      -0.05242804       0.02768765       0.18157142
H        4.67506309      -4.69833909       2.24399434     -11.14628630      -0.11167356      -0.30768973       0.15265210       0.32695030
O        0.46943265      -3.07998755       5.45780969    -114.21593921       0.05600634      -0.01609766       0.01196294      -0.56348771
H       -0.27022647      -2.54192016       5.73914763     -11.88703123      -0.06492923       0.06593592       0.03109606       0.28036703
H        0.11148702      -3.91688470       5.15914714     -11.86551999       0.00648136      -0.05659089      -0.03662751       0.28312068
O       -6.59411494       4.87609498      -7.58325678    -114.27734520      -0.12179712      -0.10347245       0.05065125      -0.56611512
H       -5.91617232       5.54869127      -7.58605846     -11.85955987       0.15373519       0.14197221       0.02468911       0.28305582
H       -6.79961557       4.68425175      -8.49871913     -11.85523835      -0.03219017      -0.03907672      -0.07108982       0.28305930
47
Properties=species:S:1:pos:R:3:energies:R:1:forces:R:3:charge:R:1 energy=-2251.883133046584 free_energy=-2251.883133046584 dipole="-0.24955324053355904 0.26617453453781464 1.5966307299593927" pbc="F F F"
O       -2.90046978       0.44118646      -0.76143498    -112.87468165       2.30711931      -1.71554132       0.11821719      -0.38473669
O        0.00583991       0.47278257       2.07995353    -112.59272121      -0.42006016      -0.79937922       0.62935303      -0.42574547
O       -0.36871801       2.42771293      -2.35993588    -112.26766313       2.22522892      -2.23138059       0.45143035      -0.40886953
O       -2.71117495       1.11110371       3.04254030    -112.87702589       0.03047472      -0.09755333      -0.09452847      -0.43085391
O        0.70735885       0.79219596       0.13824982    -111.47132955       3.15599957       2.40358873       0.04115985      -0.38894673
O        0.20048954       4.87825496      -0.09220058    -110.56954269       3.09926272       4.88045105      -3.70498951      -0.26292366
C       -1.54347121       0.17840120      -0.40269337     -57.61631586       0.14579718       1.35371794       0.39798693       0.06423924
C       -1.18252614       0.58038859       1.32873149     -58.18200288      -1.39146525      -0.27090334       0.06775262       0.10963323
C       -0.48044312       1.42876455      -1.32252234     -56.60082292      -0.38333135      -1.40741673       0.23191767       0.05674936
C       -2.14445556      -0.01848075       2.39461160     -58.96463580      -0.87932858      -0.06423555      -0.03059196       0.08429272
C        0.40938702       2.09813118      -0.38282420     -56.43291987       0.35335690      -2.96499912       3.98514272      -0.02329609
C       -0.25248240       3.93103445       0.32838715     -58.22815938      -4.62411717      -4.80112373       4.40771162       0.19277175
H       -1.18641787      -0.92972784      -0.65448247     -13.06530445      -0.56379146       2.59311915       0.33531766       0.05333617
H       -1.47584420       1.60679276       1.26417012     -12.67890520      -0.14264872       0.89618443       0.00423353       0.08344833
H        0.40278407       0.43093086      -1.16704944     -10.90293268      -1.92132280       0.41162855      -2.64798978       0.18904511
H       -2.91930033      -0.63554012       1.95073830     -13.28364537      -0.35161929      -0.12335868      -0.29641113       0.02909920
H       -1.60653643      -0.65896972       3.13764508     -12.99823338      -0.00212807       0.48469452      -0.57024726       0.05066495
H       -3.01203377      -0.14668940      -1.54990447     -11.09745083      -0.42459691       0.88761109       0.74081593       0.31733775
H        0.80335446       1.00303304       1.83232036     -11.08279686      -1.30131768      -0.22074980       0.26732964       0.32415555
H       -0.20637089       4.01903677       1.68941055     -12.88986872      -0.55412464      -1.63824110      -2.35669976      -0.01964295
H       -1.34458095       3.40922713      -0.24031044     -12.03119818       2.02964096       0.82240557       1.57103585       0.07472414
H        0.77685281       2.49728111      -1.91595774     -10.11783989      -2.53590989       1.15804989      -2.00378891       0.32612824
H        2.41805221       1.67383098      -1.65976472      -9.87426542       0.25481812       0.28914180       2.40312717       0.21895049
H       -3.52248268       0.93055214       3.54452336     -11.49100877       0.39807477      -0.32041221      -0.26153534       0.29703484
O        1.02819128      -5.95990079      -3.97569842    -111.86747233      -3.94055197       2.35905108       4.95375930      -0.53035816
O        0.27459595      -5.45124856      -6.55881134    -110.89717161      -0.14796739       4.80970615       8.99966569      -0.25152681
O        2.55837842       2.18693504      -0.20709482    -111.53104735       2.40574826       0.99792964      -1.40852249      -0.33553410
N       -0.41866453      -3.16370595       0.48950558     -79.96047480      -0.36030958       0.29844475       0.65270585      -0.21896583
N        2.11099116       2.66556072       1.91111351     -80.42239503       2.58184450     -12.12791526       9.69705093      -0.34337726
C       -0.65750426      -2.89234165      -0.68288401     -57.08961824       1.64579984      -2.50659281      -0.54838092       0.04614886
C        2.38166954       0.16685348       0.96101305     -55.94200250      -2.46772833       1.29850475      -4.16616640      -0.06492895
C        0.26091591      -4.82844966      -5.36731727     -56.02371656       0.45403044      -5.71420231      -7.04227257       0.07681462
C        2.88216877       1.71375438       0.98902381     -57.24308630      -6.13058531      -2.81387929      -0.03816864       0.19681113
H       -1.55940668      -2.62935012      -1.20965147     -13.13386532       0.09529546      -0.08022831      -0.42263991       0.05973886
H        1.64613598      -0.79915346       1.36715955     -11.65601202       2.75916940       2.71203113      -0.12870172       0.16922241
H        2.17652253       0.04892605      -0.55274251     -11.43497250       2.13191620      -0.62632444       3.28172093       0.11937461
H       -1.03038681      -3.03869917       1.34959026     -12.21072814       0.69838278       0.10827234      -1.49270386       0.17119807
H        1.67346479      -2.22829249      -2.10757152     -11.90336396       0.19239502      -1.07390254      -0.19171251       0.28205786
H        1.15930448       2.59124210       2.45377654     -11.47345117       2.04852255      -0.48487183      -1.13352202       0.23166861
H        2.00921768       3.24071645       1.32347001     -11.28422061      -1.80280585      12.02178025     -10.31256884       0.23367333
H        1.29931150      -5.96554309      -4.78215078     -11.55642259       3.64651454      -1.36870908      -6.85029742       0.32559766
O        0.45951804       2.03769395       4.49567218    -114.49120768       0.06479219      -0.12046861       0.14235391      -0.57551661
H        0.44446554       1.27685090       5.08189358     -11.75984958      -0.16390117       0.11877667       0.02572766       0.28758820
H        1.11272457       1.82451424       3.82606374     -11.65662400       0.14873867      -0.14020227       0.32164851       0.28953074
O        2.51017086      -2.21884657      -2.58431363    -114.45028788       1.74095664      -0.97941243      -0.88099809      -0.58755671
H        0.59111645      -3.73157055      -1.77734547     -12.16532704      -2.15811113       1.67720944       1.75345564      -0.00882801
H        2.95509927      -3.11377224      -2.86699891     -11.53854523      -1.94615697       2.10970497       1.10281732       0.30057148
47
Properties=species:S:1:pos:R:3:energies:R:1:forces:R:3:charge:R:1 energy=-2243.496040073292 free_energy=-2243.496040073292 dipole="-3.1860409302659742 3.4685896419777555 1.4852520670577847" pbc="F F F"
O       -3.06491668      -1.86981479      -2.07965073    -111.81717330       3.09904713      -0.64522583       1.66816074      -0.58688074
O       -2.24257360       1.42275128       2.59429311    -111.82026419       6.27482262      -4.43016890       5.58456450      -0.37563442
O       -2.76827004       9.30527934      -2.25380010    -110.96221045      -1.16569002       1.38411224      -2.32623483      -0.22745176
O        0.25450375       0.08578804       5.78669710    -113.07150816      -4.64872047       2.35840721       1.60950126      -0.42382763
O        4.80003572     -10.43348909      -3.90065237    -114.25290522      -1.89096016       0.07162851       0.89032869      -0.56176187
O       -6.72481319      10.28935977      -1.14897509    -110.32447306      -1.94765186      -0.43715137       1.84588524      -0.18492532
C       -8.89726555      -3.78468218      -0.06290368     -56.93517811      -2.86946771       8.07588034      -1.27498708      -0.09352617
C       -1.39306610       0.64692014       3.42473651     -56.71914102      -5.57122064       2.78586920      -1.01381759       0.12409751
C       -3.70831138       9.90415221      -2.67110174     -56.85990480       4.47112278      -2.96933166       2.73066397       0.28522292
C       -0.90182407       0.80447894       5.09738811     -56.54227728       1.95325440      -0.24844613      -2.94714088      -0.07371702
C       -4.82127772      10.46475010      -2.51816680     -58.03401870      -0.84467244       0.83653517      -0.89950727      -0.15430006
C       -5.71694359      10.19365523      -1.66649861     -57.28138153      -0.51571749       1.18363916      -1.34203228       0.28145424
H       -1.13332678      -1.72972950      -4.19040609     -12.85214526       0.83502742      -1.05696163       3.28514793      -0.00431947
H       -1.82483996      -0.41644494       3.64392954     -12.57655674       0.81538754       1.11788485      -1.83728854       0.07750300
H        0.50665838       7.58863648       1.37537050     -12.11533365      -3.37840548      -1.37638296       1.86230105       0.11774090
H       -1.72039496       0.17073462       5.24536058     -12.90582101      -1.60691966      -0.54705493       1.59261218       0.06195337
H        0.64489871      -3.63837957       3.03822857     -10.90923528      -1.48219841       1.87419544       0.87460614       0.21164354
H       -3.83484455      -1.71375692      -2.51937748     -12.59650962      -2.83338364       0.58267934      -1.67039265       0.25520030
H       14.80332763       7.40054681       5.01474874     -11.72472201      -0.00125325      -0.00165570      -0.00141458      -0.09867468
H       11.57625881      12.21888557       9.18361132     -11.78509386      -0.00389602       0.00063458       0.00071508      -0.10456542
H       -7.14208997      -0.87165424      -0.53250041     -11.94894497      -0.08659122       0.00850408       0.04469320      -0.11674522
H       -0.43692441       5.33751848       3.72921696      -9.26877547       1.63996253       1.54264649      -2.24447921       0.41928936
H       20.80407943     -17.71151860      -2.66219658     -11.68422149      -0.00022215       0.00027763      -0.00010622      -0.09477503
H       -0.33389641       0.20670882       6.73561416     -10.94112053       2.80722048      -0.86795722      -2.93469552       0.29967251
O       -2.85649280      -6.37249967     -14.47270570    -111.02906939      -0.55891901      -2.53083634      -0.66843254      -0.22504975
O       -3.86328556      -8.43654443     -14.90169044    -111.10426751       1.96593301       2.56102891       0.38167336      -0.23099671
O        0.11977631       5.77462437       2.60576471    -113.47275285      -1.49401479       3.74515257      -3.26210298      -0.50493445
N       -9.29624706      -2.56892307      -0.21625794     -79.01553070       3.27438485      -6.68761923       2.30581105      -0.11417250
N       -1.81924598       6.74607580       2.10894477     -79.51782516       0.19627942      -2.85460465      -0.46626408      -0.20266505
C       -0.11288980      -2.79616312       2.18295430     -56.31589679       3.14440062      -2.40013827      -1.41378733      -0.12014582
C        0.51237175      -3.22424512       1.13319030     -56.34817847      -0.49640090       1.84445045       7.54852973      -0.07125209
C       -3.28210237      -7.43354594     -14.71225483     -58.27758097      -1.40703221      -0.03013600       0.28671837       0.45604647
C       -0.44725702       6.95304830       2.01281324     -57.43437704       0.61838510      -3.86571983       0.39233519       0.17050331
H       -0.88377051      -2.07263677      -3.10003012     -12.28204207      -1.04793612       1.09549218      -3.26469888       0.06026498
H        0.22625715      -2.94365184       4.06634209     -11.10810856       0.75977262      -0.84878754      -1.20489319       0.09595833
H        0.01808204      -3.25438925       0.32018553     -12.38563669      -1.96227528      -0.41248595      -5.80502673       0.14094394
H       -9.15250653      -1.62831156       0.22303672     -12.14406125      -0.32779316      -1.39730356      -1.07683255       0.20074992
H        3.91970296     -10.02136994      -3.71586244     -11.78587857       0.77933940      -0.86591867       0.14277775       0.27938354
H       -3.04277824       6.88736996       1.70874307     -11.17078500       4.53405620       0.32139985       0.73346900       0.20294775
H       -1.58755943       5.44116498       2.42067371     -10.53505855      -1.39036688       3.36521370      -0.65102305       0.23208132
H        5.15071940      -9.78643017      -4.47162386     -11.89131398       1.11038061       0.79330591      -1.03452466       0.28237833
O        0.00915740       5.66360053       4.76424408    -113.85983573       1.16888806      -0.58895931       2.84140580      -0.42802884
H       -0.40668508       4.88487782       5.12575234     -10.21601706      -0.18566468      -0.67893450       1.32536145       0.35935567
H        1.01597869       5.57779318       4.92631945      -9.90945243      -1.72912696       0.19060915      -0.60897870       0.38395884
O       11.06619702      -9.19439022      -1.30945743    -114.19814187       1.09778518      -1.80410164      -1.72788505      -0.55217932
H       11.49037198      -8.60163129      -2.00593663     -11.87105050      -0.72922700      -1.42975939       1.20655641       0.27600141
H       11.23283321     -10.21111199      -1.55820777     -11.69426322      -0.36972235       3.23609428       0.52272830       0.27617791
47
Properties=species:S:1:pos:R:3:energies:R:1:forces:R:3:charge:R:1 energy=-2261.3021009415424 free_energy=-2261.3021009415424 dipole="0.03321271844662165 -1.8401472232984624 0.06255204370341841" pbc="F F F"
O       -3.60867532       0.63575375      -0.64734229    -112.50897106      -0.28675272       0.50783157       0.70021481      -0.37845040
O       -2.79695218      -1.03836722       1.05258211    -113.13589957      -0.75079909      -0.77906415      -0.12854608      -0.45792687
O       -0.69836301       3.11497932      -1.19958622    -112.85053602      -0.07951707      -1.47850176       0.27710540      -0.41858675
O       -1.86201618       1.57839361       3.42783654    -113.22281313       0.06198068       0.28454272      -0.41952548      -0.43724604
O        0.61521420      -4.61118064       0.47456226    -114.01896968      -3.39766919       3.92182385      -0.22382869      -0.52831832
O       -3.72968362       6.29434058      -1.55149067    -111.39573367       0.17069531      -0.47377609      -0.00821035      -0.29612768
C       -2.34840082       0.93985634      -0.18543035     -57.19753499       1.65586828      -0.30433313       0.10147071       0.05120745
C       -2.02499692       0.12529665       1.26795926     -58.66003270      -0.57977573      -0.43033131      -0.58392513       0.06929672
C       -1.85021657       3.18571939      -0.43661511     -58.13581088       0.61197718       1.22330293       0.05668358       0.12120870
C       -2.09406518       0.32502449       2.87460188     -58.98075226      -0.04646845      -0.24964145      -0.54672514       0.06935974
C       -2.78762781       4.12427296      -0.93751293     -57.03649503       0.49457348      -0.61394640       0.80280001      -0.12721674
C       -3.25173952       5.23691334      -1.30985086     -58.00153047      -0.08166391      -0.55836576       0.13756116       0.21695475
H       -1.52473022       0.48643262      -0.87765469     -13.34209420      -1.15567765       1.16487121       0.93524709       0.02111161
H       -0.99820338      -0.25840171       1.21946529     -13.02268562       0.08882307       0.50656624      -0.82855890       0.04565280
H       -1.47940546       3.45148452       0.59835883     -12.92325919      -1.21934776      -0.96019494      -0.37501787       0.05134408
H       -3.04799187      -0.06257023       3.26742925     -13.18107955      -0.05036287      -0.04389649      -0.43082856       0.03619232
H       -1.30033443      -0.36761686       3.25423930     -13.05780750      -0.51823810       0.59977621      -0.19264790       0.04870424
H       -3.76668655       0.28448235      -1.54108436     -11.38671366       0.83701251       0.36479659       0.35109613       0.30865937
H        6.99426707       5.77305067       4.17115264     -13.36284369      -0.08009688       0.85770456      -0.10849508       0.00012116
H        6.91971451       6.57725929       4.06875017     -13.36611262       0.07968021      -0.85795781       0.10844948      -0.00012116
H       -3.73133967      -0.84787813       0.76766513     -11.40125990       1.10037954       0.24830751       0.44066140       0.30707475
H       -0.06301721       2.52280621      -0.70076447     -11.12357744      -1.11169147       0.69393671      -1.09532901       0.32409311
H        3.53728994      -4.02676831      -2.61628030     -12.68084071      -1.62761884       0.68112196      -0.86907999       0.05275883
H       -2.61221224       2.10903168       3.13917122     -11.39331698       0.11213705       0.36128890       0.16131974       0.30466009
O        2.32159415      -4.85284693      -4.81863452    -112.25390700       1.05725136      -2.00579904       0.38155757      -0.34938133
O        0.29041702      -3.98956604      -4.53307171    -111.13890618       0.50263936       0.53794134       1.08136254      -0.28260986
O        2.07410277       1.66743339      -1.13570173    -111.55408468       0.19651366      -0.51723254      -0.53781209      -0.33731790
N        2.47619111      -3.35534781      -2.69038408     -78.82464023      15.57217199      -6.52180069      -3.29055328      -0.33981098
N        1.00732899       2.23268984       0.71152998     -81.17857467       0.11187578      -0.01884904      -0.25298300      -0.31256741
C        1.94239778      -2.23640906      -1.22335765     -55.68208123      -1.08551421       1.61293383      -1.04140289      -0.07039861
C        1.74025331      -1.10589878      -0.38768617     -57.97511399       0.59699904      -0.64329563       1.30009560      -0.12475582
C        1.44980898      -4.05305365      -4.26337640     -57.18352383       0.12750797      -1.24593872      -1.24442703       0.32846557
C        1.59700818       1.27815158      -0.10416702     -57.52173188       0.36121904      -0.73687841      -0.17760255       0.17090374
H        0.75748042      -2.23854895      -1.38332479      -9.64768185      -1.49252956      -0.63020050      -1.27526891       0.35685379
H        1.01766619      -1.49944573       0.33794796     -12.85186721      -0.47137455       1.22483327       0.10951992       0.07049492
H        2.62855453      -0.86352174       0.16093957     -13.02024903       0.59774699       0.02974478       0.14714745       0.07803352
H       -0.14275902      -3.78930206       1.09053832     -10.92902212       2.99190636      -3.35537809      -2.56869589       0.26335965
H        0.44031343      -4.39088924      -0.52972402     -11.77947862       0.27558610      -0.58659182       2.80231529       0.26233045
H        1.16948021       2.59578478       1.62814215     -12.18183821       0.07682974      -1.18277773       0.89430173       0.19184688
H        1.15491513       3.05689172       0.15056728     -11.65496244       0.16866824       1.08213432      -0.15624160       0.21472940
H        2.23141102      -5.85816555      -4.69308145     -10.51228303      -0.22859999       1.65579330      -0.56982709       0.34516307
O        1.39403998       1.30425184       4.86194703    -114.32996512       0.09341253      -0.01081942       0.24268284      -0.57076856
H        0.48872288       1.19800148       5.16048352     -11.78613440      -0.06124183       0.04362742      -0.06482354       0.29218980
H        1.38162048       1.32105545       3.90860760     -11.90438655      -0.10857442      -0.03370926      -0.22030578       0.27826276
O        1.05838457      -2.48824082      -2.57710575    -111.45408544     -12.88167935      10.33762986       4.87723410      -0.53890472
H        1.71751628      -3.72931032      -2.33228492     -10.63287346      -1.92157407      -4.49270234       2.46845632       0.28831981
H        2.04853504      -2.50262151      -3.12106214      -9.91803925       1.29331226       0.79147344      -1.16662102       0.40115609
47
Properties=species:S:1:pos:R:3:energies:R:1:forces:R:3:charge:R:1 energy=-2285.9464190058284 free_energy=-2285.9464190058284 dipole="-0.505147144580565 -0.41676365546670147 1.1798380979924101" pbc="F F F"
O       -2.99890730       0.57447257       0.35280229    -113.05774692       0.06150080       0.03907129       0.07386763      -0.43240813
O       -0.76687258       0.96552664       3.20262053    -113.07532396       0.34351542       0.01760759      -0.07030028      -0.43806529
O        0.10881445       0.11761007      -0.54233276    -112.97846879       0.02777280      -0.10154081       0.09066389      -0.42820802
O       -3.97905356       2.27180221       2.54530071    -113.24626643       0.01872784      -0.08441699      -0.17876501      -0.44941515
O       -1.85347095       1.42755537      -1.95020622    -111.69891288       0.00757521       0.39896868      -0.11320517      -0.28437060
O       -1.85915603       4.11885726      -1.79883633    -111.72211162       0.20767166      -0.00108539       0.15688593      -0.37434738
C       -1.75053029       0.61109334       0.98917890     -58.95320701       0.00991726      -0.01654164       0.01719101       0.08251187
C       -1.76031362       1.41015822       2.31128829     -59.12908687       0.09076920       0.03893961       0.04019995       0.09556281
C       -0.60658231       1.16546889       0.04100864     -59.18018877       0.06037519      -0.05640280       0.08149955       0.09570013
C       -3.10439246       1.28161878       3.04404835     -59.07236556       0.04681209      -0.01369964       0.00783429       0.07464995
C       -1.21272428       2.06204607      -0.98034132     -57.65614390       0.12222094      -0.07169886       0.01719976       0.10724389
C       -1.19583692       3.49062984      -0.97009649     -58.82895103       0.18884859      -0.03839190       0.08378035       0.14999351
H       -1.50271047      -0.43537995       1.20938978     -12.70140762       0.09438822       0.02308603       0.00944003       0.08429295
H       -1.62141785       2.46917937       2.05873655     -13.16765934      -0.08986159       0.15398996       0.10037864       0.03379772
H        0.12761986       1.73780899       0.61371640     -13.04033321      -0.00029814      -0.03927114       0.20270777       0.04878896
H       -3.52295065       0.27981767       2.89924970     -13.13017394       0.03405014      -0.04143419      -0.01887264       0.04420261
H       -2.89335310       1.42223651       4.10942051     -12.99929730      -0.07722328       0.06008201       0.05122841       0.05553683
H       -3.47728182       1.40019916       0.50886363     -11.40498220       0.05360585       0.07215679       0.14452648       0.30851243
H        0.11596526       1.32818950       3.00743565     -11.35068221      -0.49647831      -0.14091815      -0.06442558       0.30556021
H       -0.52756274       3.97873156      -0.21423713     -13.34341602      -0.49989019      -0.19661936      -0.37086114       0.01792928
H       -4.70815549      -0.64632983      -1.95409172     -11.88000879       0.00678491      -0.10663409      -0.08116092       0.28428223
H       -0.49147333      -0.38844136      -1.10517321     -11.15739483       0.06008033      -0.03609972      -0.11925532       0.33081400
H        3.89303481      -4.05216519      -0.97417340     -12.51148428      -0.06111415       0.04241201       0.12215509       0.16534442
H       -4.84753855       2.15452238       2.94391558     -11.44107559       0.02675237       0.02785700       0.04381133       0.30226208
O        3.26495805      -3.45044944      -3.13810145    -112.46878256      -0.06744450       0.05181907       0.06120736      -0.36599521
O        1.35635754      -2.29196304      -2.98260564    -112.13591816      -0.02304901      -0.02653865      -0.09176221      -0.39858206
O        3.75684256       0.17088147      -3.08841678    -112.26239779      -0.02428928      -0.10699229       0.03981253      -0.42032031
N        3.33831574      -3.45545572      -0.36836713     -81.09834628      -0.02240196      -0.00949802       0.16523890      -0.31980952
N        2.98743055       0.93900027      -1.11934886     -80.79170606       0.04283704      -0.00585618      -0.00728326      -0.26454837
C        2.85763789      -2.29674467      -1.09271658     -58.98264920      -0.05710135      -0.03449686      -0.03532233       0.03163266
C        3.98249608      -1.24571479      -1.13883037     -59.30936545       0.00971728      -0.00870072       0.01339539      -0.10365972
C        2.39821881      -2.65014720      -2.50731747     -58.89543134      -0.03869870       0.08659472      -0.00418983       0.35339807
C        3.57006642       0.00468457      -1.90553004     -59.19296893      -0.00523908      -0.05193077       0.02613239       0.28719718
H        1.99714895      -1.87001707      -0.56446002     -12.94490937      -0.05760176      -0.02711997       0.00471291       0.07112422
H        4.20351451      -0.98714515      -0.10608606     -12.99962343       0.15248895       0.00148083       0.05978956       0.06835230
H        4.85873545      -1.70727777      -1.58958546     -12.93059815       0.04791900       0.07971459      -0.12610488       0.08097416
H        2.57287314      -3.97562721       0.04892420     -12.62746223       0.09532179      -0.01942947      -0.13401961       0.15555515
H        0.60557999      -2.73603412       1.26787298     -12.25060145       0.02567559       0.02149932      -0.03572637      -0.14376774
H        2.79487663       0.76291056      -0.15020913     -12.24405637      -0.10290948      -0.04977342      -0.04379418       0.18728255
H        2.55806806       1.73758494      -1.55435560     -12.21797951       0.02461358       0.01865124      -0.03185810       0.19267112
H        2.96237208      -3.65864059      -4.03629426     -11.00621253      -0.01415039       0.09417295       0.03047182       0.33449203
O        2.34206581      -0.35993314       4.45450106    -114.37944563      -0.04737799       0.04988252      -0.06569529      -0.57076582
H        1.86293608      -0.85722490       5.12153536     -11.82634931       0.01941535       0.02864953      -0.05672837       0.28658419
H        2.04818962      -0.68192297       3.59872044     -11.83795939      -0.02309488      -0.07311653       0.06081906       0.28435738
O       -4.64854359       0.19950935      -2.40051443    -114.34330211      -0.06576096       0.01684964       0.07966000      -0.57301853
H       -2.18124154       2.11382756      -2.56426042     -10.63116403      -0.21757796      -0.02702421      -0.14971277       0.36028958
H       -4.31923793       0.80409752      -1.73413855     -11.84250063       0.11220557       0.06174639       0.01443322       0.28638539
47
Properties=species:S:1:pos:R:3:energies:R:1:forces:R:3:charge:R:1 energy=-2289.589347171317 free_energy=-2289.589347171317 dipole="-2.0570704396454182 1.2388815166949496 -0.6871824226057266" pbc="F F F"
O       -3.49314702       0.29282325       0.13487269    -113.30249501      -0.01055126       0.00485013      -0.02963124      -0.45486333
O       -2.16393662       1.20809463       3.39035332    -113.17413059       0.02575817       0.01139212       0.01040790      -0.45175769
O       -1.48229938      -1.64521363       0.63441453    -112.89480721       0.01451045      -0.00078802      -0.04059504      -0.42761840
O       -4.38155151       3.00991103       3.39489760    -113.04432122      -0.03433358       0.00072150       0.02431774      -0.43649611
O       -1.98379971       0.33623771      -2.23955608    -114.58196591      -0.03535342      -0.07538965      -0.06047067      -0.59160510
O        1.30614286       1.55576236       1.72518595    -111.17507242       0.05120575      -0.00929571       0.01400496      -0.25070339
C       -2.96740100       0.10571355       1.43487583     -58.91560509      -0.01075551       0.00937555      -0.02058643       0.09379318
C       -2.96735693       1.40283927       2.25494461     -59.13942335      -0.00451191       0.01687386      -0.02362136       0.08803152
C       -1.51850277      -0.41349172       1.28956804     -59.02185210      -0.02786936      -0.01131179       0.01274640       0.13116897
C       -4.38890667       1.79948380       2.67845026     -59.23822109      -0.00564695       0.00435828      -0.00390493       0.06022411
C       -0.66543292       0.63374306       0.59324069     -58.81357170       0.03010560       0.00861537       0.06829213      -0.16288204
C        0.37190611       1.13416898       1.17017853     -57.59184160       0.01958249      -0.03889015       0.02687152       0.24061184
H       -3.55180059      -0.65581602       1.97279123     -13.12810116       0.03559709      -0.02105048      -0.03468577       0.03838349
H       -2.53737787       2.20426546       1.62823320     -13.20365506      -0.00715705       0.03464900      -0.02638880       0.02683745
H       -1.13066152      -0.59596734       2.29293286     -12.90196286       0.00390560       0.00127548       0.02698837       0.06952954
H       -5.04614847       1.85783457       1.80145109     -13.30999494      -0.05890434       0.02878874       0.03399278       0.02742956
H       -4.77255800       1.04711988       3.37259749     -12.97681400      -0.02897164       0.01024168      -0.01472689       0.06433364
H       -4.36262076       0.70970358       0.16811166     -11.45061000      -0.01327831      -0.01062699       0.00972123       0.30762921
H       -2.36564914       1.91997611       4.01256401     -11.29762182      -0.05118496       0.01064553       0.04069351       0.31735790
H       -0.96116216       0.94297969      -0.39499860     -12.58594635       0.06084605      -0.05717498      -0.02244727       0.12384521
H       -5.52180942       2.30847552      -2.05611624     -11.71251903       0.05921807      -0.02244720       0.00218309       0.29164809
H       -1.87773607      -1.52999577      -0.23766097     -11.37450823      -0.04000826       0.01718972      -0.01648634       0.30759446
H        2.73900895      -0.41706445       0.23863596     -12.71215554      -0.06317793       0.02428148       0.07353912       0.14844663
H       -4.19963501       3.73766578       2.79091875     -11.53933900       0.03523607       0.02407393      -0.01594422       0.29417908
O        2.72932829      -2.33851206      -2.95608178    -112.51625507      -0.01431571       0.01505198      -0.04131590      -0.37165156
O        2.71627743      -3.07233291      -0.85070882    -112.16556549      -0.00777106      -0.10932394       0.06463501      -0.40783631
O        5.74063611      -2.06700453      -3.87620731    -112.23084560       0.03858672      -0.01916705      -0.04197860      -0.41792385
N        3.71583161      -0.57838418       0.02716797     -81.31998712      -0.00906568       0.05213757       0.06049322      -0.33837047
N        5.68564364       0.15387853      -3.50053227     -80.83399226      -0.00103458       0.00183268      -0.02784129      -0.27206577
C        3.85901108      -1.00790455      -1.34301349     -58.98815965      -0.00159831       0.04255196       0.02611448       0.03486774
C        5.34739320      -1.28949644      -1.62661975     -59.27965866      -0.00028847       0.01417864       0.00272015      -0.10033333
C        3.05168085      -2.25731198      -1.66751527     -58.95776592      -0.00663052      -0.02967957       0.03719259       0.34829318
C        5.61868775      -1.14111021      -3.11108213     -59.16672549       0.01328507      -0.00465946      -0.03131360       0.28873675
H        3.49718633      -0.20664529      -1.99621635     -13.05870656       0.01324251       0.06449724      -0.02999441       0.05353978
H        5.92912572      -0.56535244      -1.05725020     -12.92948062       0.02699126       0.01885665       0.01148042       0.07656269
H        5.61168299      -2.29382236      -1.29512268     -13.06932160      -0.02431627      -0.01701792      -0.02794835       0.07053318
H        4.04910216      -1.30019344       0.65792932     -12.48150042      -0.01639493       0.00152820       0.04950386       0.17154993
H       -1.92276767      -0.61286404      -2.38021400     -11.95200448      -0.00490020       0.13802716      -0.04928402       0.27639586
H        5.55975591       0.90301736      -2.84434570     -12.25205825      -0.00854700       0.01729800      -0.00577951       0.18674580
H        5.77512788       0.37678458      -4.47662419     -12.22217846       0.03619194      -0.02614936      -0.03798263       0.19226894
H        2.26791617      -3.17338352      -3.13326130     -10.98872200      -0.00046480      -0.01801930      -0.06398660       0.33501623
O        3.37270126      -0.72701368       3.24491597    -114.25192019      -0.00256659      -0.01574942       0.00479617      -0.57326475
H        2.71736373      -1.42723392       3.27069000     -11.97505839      -0.02153671       0.02510735      -0.02191024       0.27969201
H        2.93290969       0.06511577       2.92537902     -11.84432813       0.01202026       0.01113554      -0.02552048       0.29311521
O       -6.01419876       2.09660647      -1.25988015    -114.61011653       0.05769751      -0.01879793       0.06114864      -0.57868082
H       -2.64995451       0.47434156      -1.55153163     -11.65305265      -0.00595964      -0.08255514       0.01303673       0.30928015
H       -6.93319425       2.29297853      -1.45285899     -11.75540832      -0.01688565      -0.02144126       0.03946457       0.28841161
47
Properties=species:S:1:pos:R:3:energies:R:1:forces:R:3:charge:R:1 energy=-2291.0708102734925 free_energy=-2291.0708102734925 dipole="0.5668325814295896 1.4994262233640296 0.15469821281990984" pbc="F F F"
O       -2.81825730      -1.09645806       0.62844452    -113.28004663       0.00967605      -0.01357007       0.00865131      -0.47095947
O       -1.59442304       1.44634818       2.93708056    -113.28667903      -0.00349771       0.00273207      -0.00043923      -0.46519416
O       -0.59265205      -2.34310129       1.66100321    -113.05301211       0.01248105       0.00072390       0.01977339      -0.44526467
O       -4.18181866       2.31449655       3.06119392    -113.07040529      -0.00569667      -0.00104949      -0.01869967      -0.44097955
O       -1.86130234      -0.24904787      -1.80601040    -114.71154283      -0.01275027       0.01116735       0.00934198      -0.60488438
O        0.94800952       1.69720774      -0.53519507    -113.58860293       0.00154602      -0.00507481      -0.00114756      -0.47916616
C       -2.17351119      -0.59145653       1.75973371     -59.20801752       0.00665938      -0.00404930       0.00655208       0.09075548
C       -2.52261594       0.88131664       2.03506965     -59.12670356       0.00255094      -0.00313754      -0.00333444       0.08331012
C       -0.66173297      -0.93850982       1.73477364     -59.23519156       0.00819334       0.00093112       0.00931457       0.08777791
C       -3.93145124       0.99192024       2.63860009     -59.22435028      -0.00109322      -0.00249548      -0.01133929       0.06052967
C        0.17773454      -0.30340996       0.61964793     -58.73530927       0.00250656      -0.00435476       0.00158527       0.02304690
C        0.20386170       1.02448995       0.45441393     -58.33205702       0.00960850      -0.00097505       0.00883102       0.00178881
H       -2.57312381      -1.18183971       2.59720381     -12.95880470       0.00802545      -0.00026639       0.01015909       0.05168451
H       -2.50476581       1.43840315       1.08255972     -13.14101212       0.00789616      -0.00786698      -0.00631128       0.03470285
H       -0.23280100      -0.64721017       2.69926256     -12.97904670       0.00740732       0.01041571       0.00670884       0.05848181
H       -4.67948374       0.63932780       1.92253974     -13.22009199       0.00311144      -0.00715169      -0.01349990       0.04084380
H       -3.98779654       0.38348317       3.54486388     -13.03107646      -0.00467223       0.00155668      -0.00867095       0.05880896
H       -2.46946069      -0.69005272      -0.19660296     -11.35182519       0.00021194      -0.00675497       0.00765665       0.33277602
H       -2.09584186       2.06366572       3.49254186     -11.34624771      -0.00792771       0.00426826      -0.00606744       0.31656425
H       -0.34624330       1.68091946       1.10300233     -13.37831380       0.02359340       0.00036379       0.02277718       0.03962644
H       -0.48961428       2.32693433      -1.49208215     -11.50480062       0.00830139       0.00191252       0.00514550       0.32570823
H       -1.31100477      -2.61939727       1.06827951     -11.37396825       0.01036294      -0.00599912       0.02485082       0.31812029
H        1.82167197       1.89790065      -0.16339170     -11.50363408      -0.00075830       0.01116703      -0.00323196       0.30815136
H       -4.26023718       2.88247842       2.28626708     -11.57374808      -0.00309596      -0.00473260      -0.02173348       0.29453073
O        1.48040194      -1.59790329      -3.48439090    -112.54896588      -0.00063699       0.00000468      -0.01168498      -0.37069741
O        1.18501352      -3.23474619      -1.99044291    -112.09273873       0.00343053      -0.00351904      -0.01605222      -0.39446158
O        4.43937204      -1.61185767      -2.89442124    -112.35578562      -0.00387328       0.00126408       0.00175861      -0.42815506
N        0.90887261      -1.23077539      -0.06980946     -79.94795128      -0.01878718      -0.00945569      -0.01597093      -0.17339285
N        4.42950196       0.49100727      -2.09360859     -80.87102030      -0.00286030      -0.00039406       0.00552339      -0.27140964
C        1.75794590      -1.02791590      -1.20248113     -59.13575417      -0.00800835      -0.00389392      -0.00847383       0.01614633
C        3.25869114      -1.18750989      -0.83651833     -59.27741427      -0.00882384      -0.00115016      -0.00043862      -0.10876552
C        1.44628403      -2.09294450      -2.24896870     -58.93991713      -0.00093542      -0.00393914      -0.01302105       0.35485466
C        4.11097783      -0.82214729      -2.03904166     -59.17195907      -0.00454160      -0.00016106       0.00226087       0.28590977
H        1.59044862      -0.03707970      -1.62992867     -12.78087138      -0.00745895      -0.00294165      -0.00662034       0.08893411
H        3.49136872      -0.53730193       0.00509883     -12.99624856      -0.01360569      -0.00060251       0.00087282       0.07319881
H        3.44509900      -2.22615399      -0.56157993     -13.02939118      -0.00804411      -0.00096939       0.00017257       0.07437642
H        0.78733068      -2.18827481       0.23716659     -12.21662158      -0.01207100      -0.00874226      -0.01187538       0.19770096
H       -1.02275268      -0.62009347      -2.08561060     -11.97138118      -0.01428331       0.00832091       0.01005791       0.28128266
H        4.19189596       1.12451758      -1.35125658     -12.18665075      -0.00314975      -0.00142692       0.00645108       0.19345106
H        4.98252997       0.82657559      -2.86443567     -12.20964090      -0.00067369       0.00013710       0.00708372       0.19266763
H        1.38873475      -2.30503733      -4.14311470     -10.91308732       0.00180168       0.00135709      -0.01386783       0.34054286
O        3.14892814       1.52319027       1.21484575    -114.73314003       0.00222995       0.00682249       0.00138830      -0.57941512
H        2.54674557       0.92091008       1.66568327     -11.57764224      -0.00362776       0.01180834       0.00139811       0.30417848
H        3.40529160       2.18878078       1.85678933     -11.69906133       0.01005959       0.00387023       0.00232705       0.29266646
O       -1.29387350       2.42448027      -2.02682237    -114.71329660       0.00535098       0.00944787       0.00165061      -0.59565912
H       -1.78729725       0.71898856      -1.90534126     -11.59376058      -0.00596055       0.01546999       0.00951503       0.32228895
H       -1.01983961       2.74628891      -2.88710775     -11.89402247       0.01182923       0.00093285       0.00067260       0.28299738
