47
Properties=species:S:1:pos:R:3 pbc="F F F"
O       -3.06491668      -1.86981479      -2.07965073
O       -2.24257360       1.42275128       2.59429311
O       -2.76827004       9.30527934      -2.25380010
O        0.25450375       0.08578804       5.78669710
O        4.80003572     -10.43348909      -3.90065237
O       -6.72481319      10.28935977      -1.14897509
C       -8.89726555      -3.78468218      -0.06290368
C       -1.39306610       0.64692014       3.42473651
C       -3.70831138       9.90415221      -2.67110174
C       -0.90182407       0.80447894       5.09738811
C       -4.82127772      10.46475010      -2.51816680
C       -5.71694359      10.19365523      -1.66649861
H       -1.13332678      -1.72972950      -4.19040609
H       -1.82483996      -0.41644494       3.64392954
H        0.50665838       7.58863648       1.37537050
H       -1.72039496       0.17073462       5.24536058
H        0.64489871      -3.63837957       3.03822857
H       -3.83484455      -1.71375692      -2.51937748
H       14.80332763       7.40054681       5.01474874
H       11.57625881      12.21888557       9.18361132
H       -7.14208997      -0.87165424      -0.53250041
H       -0.43692441       5.33751848       3.72921696
H       20.80407943     -17.71151860      -2.66219658
H       -0.33389641       0.20670882       6.73561416
O       -2.85649280      -6.37249967     -14.47270570
O       -3.86328556      -8.43654443     -14.90169044
O        0.11977631       5.77462437       2.60576471
N       -9.29624706      -2.56892307      -0.21625794
N       -1.81924598       6.74607580       2.10894477
C       -0.11288980      -2.79616312       2.18295430
C        0.51237175      -3.22424512       1.13319030
C       -3.28210237      -7.43354594     -14.71225483
C       -0.44725702       6.95304830       2.01281324
H       -0.88377051      -2.07263677      -3.10003012
H        0.22625715      -2.94365184       4.06634209
H        0.01808204      -3.25438925       0.32018553
H       -9.15250653      -1.62831156       0.22303672
H        3.91970296     -10.02136994      -3.71586244
H       -3.04277824       6.88736996       1.70874307
H       -1.58755943       5.44116498       2.42067371
H        5.15071940      -9.78643017      -4.47162386
O        0.00915740       5.66360053       4.76424408
H       -0.40668508       4.88487782       5.12575234
H        1.01597869       5.57779318       4.92631945
O       11.06619702      -9.19439022      -1.30945743
H       11.49037198      -8.60163129      -2.00593663
H       11.23283321     -10.21111199      -1.55820777
