44
Properties=species:S:1:pos:R:3 reactant=T mapped=T (centered)=T charge=0 spin=1 pbc="F F F"
O       -3.15883035       1.11583596      -1.58177022
O       -3.26224100       0.58124515       1.95731115
O       -1.63725607      -1.17316791      -1.47599161
O       -5.18568957       2.53752943       1.82187530
O        0.06592300       0.77704692      -1.13813670
O        0.82431458       1.94699512       1.12664626
C       -3.12318266       0.33806566      -0.40423312
C       -3.43939530       1.28225989       0.73886608
C       -1.78569846      -0.41736247      -0.28835913
C       -4.86298585       1.80314856       0.64382985
C       -0.57577171       0.49613830      -0.15102548
C       -0.18635664       0.96073734       1.22458115
H       -3.89433723      -0.44310872      -0.43186889
H       -2.75134848       2.14027923       0.68165759
H       -1.82903109      -1.08515452       0.57375769
H       -4.99331449       2.39732794      -0.26101999
H       -5.55272592       0.95809108       0.61490408
H       -2.94661106       0.52671836      -2.31588734
H       -3.79492909       1.04564337       2.61780173
H       -1.06360343       1.31637283       1.76690802
H        0.17148587       0.05447597       1.72699880
H       -0.93050228      -0.72954708      -1.97439058
H        1.14818867       2.14541040       2.01021509
H       -4.85036282       3.43481416       1.73178615
O        3.49017663      -3.04391490      -1.90994335
O        2.67271915      -4.16284782      -0.14479294
O        5.17385666      -1.78645161       0.22781160
N        0.78294828      -2.09841245       0.24288958
N        4.69456227       0.22950447      -0.68417932
C        2.04648702      -1.85409374      -0.44057517
C        2.93688423      -0.99034001       0.46910576
C        2.75960496      -3.15282045      -0.78949535
C        4.37920455      -0.89022205      -0.00206885
H        1.85264656      -1.31033490      -1.36707799
H        2.47361826      -0.00688205       0.54820386
H        2.96124052      -1.45650440       1.45559041
H        0.94362479      -2.80407591       0.95649803
H        0.10977831      -2.49660217      -0.40481675
H        4.01864762       0.96465401      -0.86766423
H        5.63339107       0.30785334      -1.03623468
H        4.02136086      -3.85098488      -1.98559976
O        2.60915326       2.24614266      -1.16288049
H        2.06726438       1.94626631      -1.90068235
H        1.98709201       2.20027160      -0.41854388
44
Properties=species:S:1:pos:R:3 reactant=T mapped=T (centered)=T charge=0 spin=1 pbc="F F F"
O       -3.16032459       1.10508010      -1.56472533
O       -3.24363218       0.57781945       1.97188109
O       -1.68329232      -1.20853189      -1.46442132
O       -5.20140101       2.50470837       1.84252061
O        0.05739079       0.72744456      -1.18203831
O        0.85524378       1.93344515       1.06851055
C       -3.13047180       0.31876232      -0.38945849
C       -3.44589817       1.26406460       0.75114117
C       -1.79380872      -0.43432803      -0.28177557
C       -4.87889001       1.76652385       0.66707153
C       -0.56216704       0.45409253      -0.17444699
C       -0.18597947       0.98664478       1.16322713
H       -3.90097693      -0.46534310      -0.40832350
H       -2.77086848       2.12941087       0.67935688
H       -1.83431617      -1.09294755       0.58742822
H       -5.02827925       2.35090142      -0.24227157
H       -5.55887946       0.91260667       0.65418794
H       -3.05205509       0.51852740      -2.30623680
H       -3.77370418       1.04093738       2.63556535
H       -1.03172902       1.43661563       1.66032844
H        0.10044355       0.09979372       1.73270228
H       -1.02256853      -0.74923125      -2.00935727
H        1.20758327       2.07400956       1.95691492
H       -4.87822424       3.40534771       1.74276407
O        3.48685009      -3.01411718      -1.89447300
O        2.58244473      -4.13638848      -0.17181252
O        5.18315524      -1.82186988       0.27662653
N        0.77266871      -2.01416708       0.23177949
N        4.74711908       0.20340440      -0.64339678
C        2.05189487      -1.79989245      -0.42922379
C        2.95931417      -0.98583741       0.50134753
C        2.72569691      -3.11636214      -0.79313339
C        4.40864424      -0.91021040       0.04074439
H        1.89007312      -1.23664415      -1.35077078
H        2.52670043       0.00592634       0.59233074
H        2.96131997      -1.47095535       1.47818855
H        0.88178403      -2.74838255       0.91284464
H        0.09795023      -2.42356706      -0.53712004
H        4.08019445       0.94356483      -0.84524872
H        5.68843613       0.26446924      -0.98952130
H        3.99200495      -3.83814909      -1.97231697
O        2.68972745       2.23133928      -1.18510487
H        2.10271410       1.92648858      -1.87479555
H        2.08811240       2.28499628      -0.43748919
44
Properties=species:S:1:pos:R:3 reactant=T mapped=T (centered)=T charge=0 spin=1 pbc="F F F"
O       -3.16446799       1.08384986      -1.55254954
O       -3.22103354       0.57512784       1.98477418
O       -1.72382309      -1.24839405      -1.44961328
O       -5.20745131       2.47544808       1.86294106
O        0.04718062       0.67537543      -1.22884406
O        0.88267586       1.91925947       1.00838157
C       -3.13602468       0.29588944      -0.37535399
C       -3.44846194       1.24462478       0.76206558
C       -1.79960795      -0.45479154      -0.27616222
C       -4.88903357       1.73030557       0.69118469
C       -0.54953131       0.41234214      -0.19886210
C       -0.18807528       1.01270231       1.09829129
H       -3.90515427      -0.49104289      -0.38250002
H       -2.78645405       2.11634799       0.67461441
H       -1.83532181      -1.10317838       0.60047569
H       -5.05842907       2.30309064      -0.22242613
H       -5.55931487       0.86885143       0.69682542
H       -3.15676377       0.50841897      -2.28796529
H       -3.74532625       1.03987564       2.65174485
H       -1.00178976       1.54346388       1.53111369
H        0.02869879       0.15909714       1.72885182
H       -1.11636914      -0.77457087      -2.03774282
H        1.24908754       2.00679220       1.89823341
H       -4.89467936       3.37803562       1.75172810
O        3.47902889      -2.98177917      -1.88073782
O        2.49146781      -4.10128500      -0.20510898
O        5.18606861      -1.85869688       0.32273699
N        0.76374136      -1.93147611       0.22435249
N        4.79370246       0.17587316      -0.60100353
C        2.05520045      -1.74605807      -0.41635793
C        2.97745385      -0.98266053       0.53382517
C        2.69013485      -3.07625906      -0.79844466
C        4.43209834      -0.93196693       0.08272200
H        1.92487960      -1.16441319      -1.33047875
H        2.57544305       0.01558813       0.63938856
H        2.95671797      -1.48623768       1.49984027
H        0.82480236      -2.68974958       0.86992347
H        0.09249038      -2.34171793      -0.66529720
H        4.13751567       0.92204880      -0.81789593
H        5.73674826       0.21891988      -0.94273901
H        3.95782648      -3.82080996      -1.96350392
O        2.76770439       2.21924535      -1.19458383
H        2.13873114       1.91808677      -1.83504263
H        2.19771430       2.36642727      -0.45080110
44
Properties=species:S:1:pos:R:3 reactant=T mapped=T (centered)=T charge=0 spin=1 pbc="F F F"
O       -3.16702311       1.07449551      -1.54590162
O       -3.20938118       0.57392578       1.99159226
O       -1.74542235      -1.26726713      -1.44340239
O       -5.21179832       2.45945299       1.87427807
O        0.04231253       0.64984662      -1.25279762
O        0.89732303       1.91218497       0.97757467
C       -3.13934429       0.28494133      -0.36823940
C       -3.45046479       1.23483208       0.76786415
C       -1.80290050      -0.46424885      -0.27384708
C       -4.89523173       1.71127573       0.70410148
C       -0.54312339       0.39171153      -0.21171566
C       -0.18875386       1.02603051       1.06546861
H       -3.90772323      -0.50377449      -0.36959210
H       -2.79551646       2.11018894       0.67228826
H       -1.83624842      -1.10790401       0.60643669
H       -5.07524083       2.27837147      -0.21179264
H       -5.56024035       0.84557671       0.71914637
H       -3.21054963       0.50383467      -2.27965136
H       -3.73087432       1.03909743       2.66047978
H       -0.98638567       1.60048874       1.46662722
H       -0.00752663       0.18827894       1.72770592
H       -1.16375203      -0.78547012      -2.05347493
H        1.27132149       1.97279286       1.86877517
H       -4.90492067       3.36336962       1.75723487
O        3.47598191      -2.96623409      -1.87317483
O        2.44566849      -4.08460910      -0.22091490
O        5.18813886      -1.87742673       0.34713100
N        0.75904288      -1.88945316       0.21975398
N        4.81817465       0.16164477      -0.57932079
C        2.05716967      -1.71911226      -0.40996027
C        2.98710939      -0.98100550       0.55038179
C        2.67243997      -3.05655823      -0.80082118
C        4.44466199      -0.94308619       0.10451567
H        1.94311613      -1.12809024      -1.32076406
H        2.60066161       0.02078442       0.66269805
H        2.95448212      -1.49387060       1.51111371
H        0.79530986      -2.66033697       0.84767788
H        0.08991219      -2.30074552      -0.73100479
H        4.16744522       0.91084718      -0.80448526
H        5.76228062       0.19568966      -0.91829480
H        3.94132707      -3.81324674      -1.95785745
O        2.80787097       2.21220448      -1.20104189
H        2.15728569       1.91248481      -1.81656497
H        2.25338542       2.40808821      -0.45822561
44
Properties=species:S:1:pos:R:3 reactant=T mapped=T (centered)=T charge=0 spin=1 pbc="F F F"
O       -3.16985855       1.06220956      -1.54052055
O       -3.19711762       0.57303980       1.99787950
O       -1.76516139      -1.28785147      -1.43576252
O       -5.21330606       2.44538113       1.88486696
O        0.03681806       0.62328126      -1.27708119
O        0.91071672       1.90472477       0.94685860
C       -3.14202791       0.27299284      -0.36117259
C       -3.45115822       1.22492289       0.77327178
C       -1.80561061      -0.47504395      -0.27128515
C       -4.89957627       1.69316905       0.71663406
C       -0.53699907       0.37069291      -0.22439050
C       -0.19024780       1.03912982       1.03215865
H       -3.90965093      -0.51715463      -0.35615596
H       -2.80298912       2.10338323       0.66938672
H       -1.83618145      -1.11344113       0.61276165
H       -5.08979578       2.25414511      -0.20131612
H       -5.55967585       0.82378302       0.74155945
H       -3.26330657       0.49835410      -2.26911150
H       -3.71531744       1.03923245       2.66861594
H       -0.97163387       1.65265207       1.39725242
H       -0.04376471       0.22037706       1.72408584
H       -1.21157849      -0.79907309      -2.06673143
H        1.28931869       1.93934427       1.83859777
H       -4.91137296       3.35009958       1.76165762
O        3.47189891      -2.94986058      -1.86626886
O        2.40018308      -4.06573127      -0.23864565
O        5.18879567      -1.89598756       0.37033440
N        0.75478280      -1.84820558       0.21621314
N        4.84069809       0.14755761      -0.55747795
C        2.05866040      -1.69221616      -0.40326629
C        2.99545173      -0.97982522       0.56681333
C        2.65456886      -3.03579862      -0.80385545
C        4.45564341      -0.95416806       0.12584048
H        1.96051433      -1.09196762      -1.31009286
H        2.62443103       0.02502360       0.68691279
H        2.95121680      -1.50163869       1.52183193
H        0.76740220      -2.63063407       0.82575748
H        0.08847895      -2.25814970      -0.79548773
H        4.19559527       0.89988445      -0.78981670
H        5.78561440       0.17267313      -0.89422838
H        3.92371878      -3.80391977      -1.95398446
O        2.84636011       2.20600852      -1.20430909
H        2.17542998       1.90989190      -1.79441076
H        2.31003237       2.44871303      -0.46391883
44
Properties=species:S:1:pos:R:3 reactant=T mapped=T (centered)=T charge=0 spin=1 pbc="F F F"
O       -3.17607247       1.02809900      -1.53352524
O       -3.17157796       0.57222854       2.00910585
O       -1.79883442      -1.33536058      -1.41420125
O       -5.20821197       2.42368780       1.90271245
O        0.02422013       0.56745660      -1.32561809
O        0.93321159       1.88928457       0.88637869
C       -3.14528504       0.24606825      -0.34700862
C       -3.44857308       1.20555944       0.78218636
C       -1.80876131      -0.50032253      -0.26461415
C       -4.90248965       1.66004684       0.73999307
C       -0.52542908       0.32793411      -0.24811430
C       -0.19527917       1.06391119       0.96390926
H       -3.91118465      -0.54620417      -0.32667699
H       -2.81240695       2.08830551       0.66132494
H       -1.83295867      -1.12613795       0.62788938
H       -5.11232417       2.20722603      -0.18225966
H       -5.55387558       0.78525976       0.78602297
H       -3.36383208       0.48355737      -2.24196543
H       -3.68131931       1.04370677       2.68235544
H       -0.94481134       1.73968440       1.24730647
H       -0.11535569       0.29240274       1.70886777
H       -1.30747695      -0.83595302      -2.08429029
H        1.31435298       1.87430901       1.77686874
H       -4.91359317       3.32854974       1.76532999
O        3.46034955      -2.91228116      -1.85624679
O        2.31020438      -4.02139747      -0.28085780
O        5.18526524      -1.93297269       0.41184104
N        0.74672171      -1.76886838       0.21311936
N        4.88013370       0.12011910      -0.51316803
C        2.05944806      -1.63865503      -0.38974948
C        3.00842945      -0.97830800       0.59904680
C        2.61828138      -2.99109889      -0.81249106
C        4.47226157      -0.97687582       0.16625557
H        1.99187135      -1.02024100      -1.28601048
H        2.66720571       0.03101968       0.73781919
H        2.94218403      -1.51828748       1.54137483
H        0.71693747      -2.57096497       0.78318598
H        0.08671163      -2.16866783      -0.91959887
H        4.24653815       0.87924336      -0.75674245
H        5.82563666       0.12777548      -0.84712532
H        3.88559991      -3.77864546      -1.95290971
O        2.91841413       2.19830272      -1.19937855
H        2.21057718       1.91232171      -1.74020899
H        2.42509673       2.52518271      -0.47013258
44
Properties=species:S:1:pos:R:3 reactant=T mapped=T (centered)=T charge=0 spin=1 pbc="F F F"
O       -3.18159736       0.99446829      -1.52653897
O       -3.14807088       0.57062258       2.01978780
O       -1.83407271      -1.38393537      -1.39197117
O       -5.20265966       2.40408551       1.91926425
O        0.01073044       0.51096110      -1.37345053
O        0.95415467       1.87331932       0.82664812
C       -3.14864377       0.21964747      -0.33303586
C       -3.44592255       1.18704333       0.79068613
C       -1.81301083      -0.52659931      -0.25763232
C       -4.90478821       1.62968475       0.76182066
C       -0.51455432       0.28427767      -0.27102162
C       -0.20067315       1.08695022       0.89662384
H       -3.91369557      -0.57388862      -0.29836756
H       -2.82055627       2.07333287       0.65427627
H       -1.83088096      -1.13971641       0.64317620
H       -5.13175524       2.16420346      -0.16435509
H       -5.54857046       0.75026856       0.82756174
H       -3.46301766       0.46981963      -2.21527760
H       -3.65030853       1.04684138       2.69532028
H       -0.91921737       1.81907930       1.10262132
H       -0.18608958       0.36263810       1.69400058
H       -1.40556420      -0.87454667      -2.10104383
H        1.33822182       1.80948464       1.71538194
H       -4.91353228       3.30880975       1.76958619
O        3.44936334      -2.87486496      -1.84597695
O        2.22678555      -3.97795408      -0.32016215
O        5.18288904      -1.96791603       0.45208958
N        0.73916781      -1.69077909       0.21040785
N        4.91856807       0.09359609      -0.47078051
C        2.06041814      -1.58585171      -0.37607329
C        3.02219731      -0.97652559       0.63082770
C        2.58288939      -2.94647117      -0.82110334
C        4.48919801      -0.99833304       0.20522984
H        2.02236923      -0.94945202      -1.26168882
H        2.71002974       0.03706627       0.78832403
H        2.93416449      -1.53440072       1.56035428
H        0.66826708      -2.51239421       0.74080180
H        0.08532873      -2.08041186      -1.04167912
H        4.29643549       0.85911603      -0.72553947
H        5.86448014       0.08433557      -0.80272963
H        3.84810664      -3.75307047      -1.95220287
O        2.98893355       2.19100971      -1.19391849
H        2.24454297       1.91544648      -1.68487319
H        2.53993990       2.60100326      -0.47536800
44
Properties=species:S:1:pos:R:3 reactant=T mapped=T (centered)=T charge=0 spin=1 pbc="F F F"
O       -3.18879071       0.94852078      -1.52371100
O       -3.12184621       0.57113402       2.02911366
O       -1.86033547      -1.43879931      -1.36197430
O       -5.18835624       2.39100910       1.93216486
O       -0.00428214       0.45232103      -1.42206612
O        0.97128267       1.85706597       0.76800030
C       -3.14899535       0.18977927      -0.31844667
C       -3.43893720       1.16874852       0.79737947
C       -1.81360363      -0.55620053      -0.24851939
C       -4.90145817       1.60134546       0.78257620
C       -0.50376955       0.24115668      -0.29291379
C       -0.20818937       1.10952081       0.82617908
H       -3.91250322      -0.60463979      -0.26626234
H       -2.82303688       2.05711325       0.64368205
H       -1.82383441      -1.15362480       0.66210318
H       -5.14545970       2.12079281      -0.14777450
H       -5.53763952       0.71888089       0.87075034
H       -3.55679073       0.45160233      -2.17958843
H       -3.61425017       1.05550212       2.70594537
H       -0.89657681       1.88092551       0.94172270
H       -0.25519647       0.44485270       1.66679922
H       -1.50309995      -0.92528664      -2.10463705
H        1.35078275       1.74669878       1.65136062
H       -4.90277929       3.29398952       1.76733094
O        3.43395249      -2.83155645      -1.84040868
O        2.14626608      -3.92726875      -0.36742650
O        5.17394066      -2.00370041       0.48796913
N        0.73164251      -1.61585613       0.21082220
N        4.95022904       0.06707241      -0.42581720
C        2.05851030      -1.53342786      -0.36273531
C        3.03025998      -0.97641572       0.66174673
C        2.54620000      -2.89781984      -0.83363683
C        4.49909250      -1.02117022       0.24294546
H        2.04881703      -0.87888298      -1.23430896
H        2.74637730       0.03920597       0.84229933
H        2.92122451      -1.55255593       1.57666095
H        0.62429615      -2.45425847       0.69868666
H        0.08425823      -1.98350508      -1.16197959
H        4.34022932       0.83976497      -0.68805411
H        5.89581169       0.04139042      -0.75651230
H        3.80674148      -3.71862757      -1.96071818
O        3.05423730       2.18805679      -1.17577942
H        2.27844271       1.92676063      -1.61767447
H        2.65713653       2.67038577      -0.47529330
44
Properties=species:S:1:pos:R:3 reactant=T mapped=T (centered)=T charge=0 spin=1 pbc="F F F"
O       -3.19526680       0.90287159      -1.52075942
O       -3.09623095       0.57144504       2.03826701
O       -1.88563698      -1.49346575      -1.33168298
O       -5.17386242       2.37885447       1.94403523
O       -0.01927603       0.39363073      -1.46970861
O        0.98751089       1.84067895       0.71069963
C       -3.14903820       0.16016193      -0.30399414
C       -3.43167830       1.15096923       0.80370632
C       -1.81411526      -0.58582649      -0.23915892
C       -4.89756623       1.57409294       0.80247903
C       -0.49290037       0.19762841      -0.31383467
C       -0.21567660       1.13106214       0.75657480
H       -3.91109536      -0.63471996      -0.23470729
H       -2.82465969       2.04125897       0.63293708
H       -1.81705228      -1.16747594       0.68118915
H       -5.15789713       2.07882300      -0.13193006
H       -5.52661236       0.68888174       0.91244860
H       -3.64847879       0.43385772      -2.14461355
H       -3.57902720       1.06405614       2.71599329
H       -0.87426228       1.93917907       0.78420103
H       -0.32383333       0.52582418       1.63918716
H       -1.59982400      -0.97683546      -2.10750442
H        1.36351135       1.68354965       1.58846323
H       -4.89120797       3.27998540       1.76458688
O        3.41845481      -2.78771843      -1.83525806
O        2.06752445      -3.87697621      -0.41378979
O        5.16540907      -2.03873705       0.52272498
N        0.72403805      -1.54182754       0.21188487
N        4.98114359       0.04127645      -0.38165769
C        2.05661995      -1.48124920      -0.34946128
C        3.03817479      -0.97624996       0.69212932
C        2.50982350      -2.84908864      -0.84631575
C        4.50877460      -1.04351897       0.27975866
H        2.07433278      -0.80889858      -1.20700636
H        2.78232027       0.04135856       0.89610826
H        2.90890396      -1.57058693       1.59260143
H        0.58128640      -2.39670745       0.65769649
H        0.08153200      -1.88871262      -1.27997277
H        4.38297838       0.82100380      -0.65104591
H        5.92617126      -0.00055351      -0.71168918
H        3.76548028      -3.68335075      -1.97009915
O        3.11814326       2.18543889      -1.15745073
H        2.31130263       1.93777593      -1.55064915
H        2.77176227       2.73883448      -0.47538255
44
Properties=species:S:1:pos:R:3 reactant=T mapped=T (centered)=T charge=0 spin=1 pbc="F F F"
O       -3.20081257       0.84540064      -1.52122940
O       -3.06906767       0.57465187       2.04578961
O       -1.89830409      -1.55332805      -1.29198549
O       -5.15251425       2.37407993       1.94861392
O       -0.03463538       0.33419543      -1.51411080
O        0.99957322       1.82356555       0.65968611
C       -3.14480850       0.12786074      -0.28908644
C       -3.41996822       1.13465824       0.80691365
C       -1.81026155      -0.61837074      -0.22557822
C       -4.88792667       1.55036350       0.81818920
C       -0.48124522       0.15453359      -0.33043141
C       -0.22484284       1.15094574       0.68641278
H       -3.90511659      -0.66664118      -0.20053145
H       -2.82015748       2.02506185       0.61761160
H       -1.80557816      -1.18076415       0.70616180
H       -5.16282047       2.03810364      -0.12064203
H       -5.51023319       0.66417618       0.95208928
H       -3.73019478       0.41127386      -2.10308671
H       -3.54131604       1.07852112       2.72244560
H       -0.85480027       1.97599398       0.61885345
H       -0.39005086       0.61422194       1.60040481
H       -1.69067032      -1.04211436      -2.09352626
H        1.36789436       1.61946768       1.52747145
H       -4.87030232       3.27183775       1.75234675
O        3.39684989      -2.73672800      -1.83662811
O        1.99418949      -3.82079276      -0.46575819
O        5.15114742      -2.07361686       0.54852677
N        0.71617136      -1.47226528       0.21764775
N        5.00380666       0.01620041      -0.33848843
C        2.05141614      -1.43021645      -0.33663245
C        3.04086909      -0.97792978       0.72032292
C        2.47200570      -2.79629199      -0.86305243
C        4.51152898      -1.06615683       0.31206384
H        2.09373147      -0.73928310      -1.17725568
H        2.81059927       0.03905093       0.95200556
H        2.89366962      -1.59137135       1.60439040
H        0.54342069      -2.34142217       0.62011717
H        0.07314729      -1.78792754      -1.39206040
H        4.41778822       0.80414727      -0.60959320
H        5.94759755      -0.04033806      -0.66964946
H        3.71954723      -3.63741039      -1.99116829
O        3.17419565       2.18748519      -1.12672128
H        2.34209483       1.95665139      -1.47047375
H        2.88438332       2.80052062      -0.47037453
44
Properties=species:S:1:pos:R:3 reactant=T mapped=T (centered)=T charge=0 spin=1 pbc="F F F"
O       -3.20464893       0.81733899      -1.52088157
O       -3.05683090       0.57691657       2.04999166
O       -1.90796041      -1.58574009      -1.27032526
O       -5.14490154       2.37137192       1.95089130
O       -0.04393729       0.30566587      -1.53594708
O        1.00643662       1.81562961       0.63396110
C       -3.14407651       0.11196626      -0.28113984
C       -3.41569331       1.12711644       0.80867618
C       -1.80964280      -0.63454261      -0.21840159
C       -4.88510535       1.53842784       0.82596536
C       -0.47618803       0.13264728      -0.33811950
C       -0.22904479       1.16157773       0.65115282
H       -3.90359730      -0.68232319      -0.18262413
H       -2.81995887       2.01771815       0.60998867
H       -1.80027676      -1.18629788       0.71948709
H       -5.16811570       2.01773149      -0.11515252
H       -5.50423927       0.65155494       0.97169236
H       -3.77227040       0.40021960      -2.08274674
H       -3.52552835       1.08523745       2.72599844
H       -0.84566505       1.99628544       0.53876601
H       -0.42254028       0.65915639       1.58182572
H       -1.74194845      -1.07975546      -2.08723715
H        1.37223092       1.58814662       1.49679345
H       -4.86369502       3.26780915       1.74621057
O        3.38831024      -2.71235738      -1.83725076
O        1.95714259      -3.79300567      -0.49271781
O        5.14542910      -2.09223418       0.56201676
N        0.71285583      -1.43612926       0.21917696
N        5.01799975       0.00280132      -0.31665232
C        2.04978105      -1.40388846      -0.33135651
C        3.04411506      -0.97855170       0.73408185
C        2.45359639      -2.76991079      -0.87279288
C        4.51502653      -1.07839509       0.32820354
H        2.10425260      -0.70365134      -1.16334533
H        2.82733392       0.03865806       0.97985251
H        2.88738467      -1.60195815       1.60979024
H        0.52512615      -2.31273584       0.60034237
H        0.06945125      -1.73666240      -1.45089105
H        4.43802459       0.79465770      -0.58986673
H        5.96111779      -0.06176021      -0.64870172
H        3.69847952      -3.61632159      -2.00058704
O        3.20650509       2.18916119      -1.11133534
H        2.36118036       1.96662291      -1.43030740
H        2.94408530       2.83180235      -0.46648468
44
Properties=species:S:1:pos:R:3 reactant=T mapped=T (centered)=T charge=0 spin=1 pbc="F F F"
O       -3.20770117       0.78648913      -1.52104281
O       -3.04435770       0.58015521       2.05369943
O       -1.91389505      -1.61886338      -1.24632605
O       -5.13611624       2.37053515       1.95063048
O       -0.05301406       0.27721398      -1.55646518
O        1.01221267       1.80766500       0.61047106
C       -3.14200550       0.09556126      -0.27295252
C       -3.41042549       1.11993360       0.80967806
C       -1.80780721      -0.65129806      -0.20988819
C       -4.88090633       1.52739003       0.83232587
C       -0.47064215       0.11097489      -0.34423459
C       -0.23342702       1.17150297       0.61607978
H       -3.90059514      -0.69822469      -0.16409858
H       -2.81837526       2.01043546       0.60089578
H       -1.79378928      -1.19128376       0.73451215
H       -5.17152737       1.99754098      -0.11141044
H       -5.49699878       0.64024628       0.99028446
H       -3.81091270       0.38785422      -2.06145151
H       -3.50947582       1.09371170       2.72838856
H       -0.83686468       2.01094876       0.45814361
H       -0.45456720       0.70545650       1.56029789
H       -1.79077561      -1.12111988      -2.07555012
H        1.37499822       1.55618091       1.46731282
H       -4.85541329       3.26511247       1.73698317
O        3.37803631      -2.68586663      -1.83981020
O        1.92140890      -3.76392097      -0.52086090
O        5.13850824      -2.11087371       0.57246809
N        0.70939543      -1.40122581       0.22215224
N        5.03003637      -0.01043747      -0.29566444
C        2.04739977      -1.37784360      -0.32617763
C        3.04628933      -0.97962743       0.74712067
C        2.43470415      -2.74228656      -0.88377755
C        4.51688317      -1.09076765       0.34263663
H        2.11300476      -0.66816796      -1.14889737
H        2.84218359       0.03688763       1.00803966
H        2.88084080      -1.61336520       1.61393011
H        0.50807648      -2.28469892       0.58201138
H        0.06269797      -1.68453448      -1.50717733
H        4.45613914       0.78564102      -0.56936758
H        5.97213279      -0.08263123      -0.62931396
H        3.67587313      -3.59222917      -2.01343825
O        3.23654923       2.19206705      -1.09252689
H        2.37923220       1.97815380      -1.38643331
H        3.00299042       2.86160858      -0.46119652
44
Properties=species:S:1:pos:R:3 reactant=T mapped=T (centered)=T charge=0 spin=1 pbc="F F F"
O       -3.20986413       0.75305955      -1.52190730
O       -3.03172769       0.58447314       2.05696486
O       -1.91579957      -1.65223429      -1.21988402
O       -5.12654431       2.37134580       1.94777312
O       -0.06174648       0.24899877      -1.57535714
O        1.01720376       1.79939637       0.58973942
C       -3.13861786       0.07889535      -0.26469574
C       -3.40429912       1.11328834       0.80979712
C       -1.80467367      -0.66836238      -0.20007959
C       -4.87555349       1.51728569       0.83693012
C       -0.46464307       0.08939901      -0.34853139
C       -0.23800052       1.18074587       0.58155572
H       -3.89620721      -0.71422888      -0.14525664
H       -2.81546824       2.00335147       0.59060618
H       -1.78621444      -1.19579111       0.75123325
H       -5.17312010       1.97762292      -0.10931522
H       -5.48864435       0.63036222       1.00735285
H       -3.84568480       0.37495383      -2.03938214
H       -3.49340468       1.10389643       2.72967924
H       -0.82841815       2.02044574       0.37744312
H       -0.48617033       0.75255915       1.53632913
H       -1.83649341      -1.16549502      -2.05830758
H        1.37640524       1.52350249       1.43923087
H       -4.84615670       3.26367478       1.72460844
O        3.36597588      -2.65769232      -1.84427456
O        1.88722283      -3.73373183      -0.54970945
O        5.13076619      -2.12921138       0.57965793
N        0.70591042      -1.36764963       0.22674468
N        5.03988260      -0.02337082      -0.27606852
C        2.04444256      -1.35212105      -0.32100108
C        3.04755451      -0.98132311       0.75936386
C        2.41549919      -2.71400480      -0.89561818
C        4.51702209      -1.10320348       0.35482612
H        2.11997558      -0.63309523      -1.13378025
H        2.85540453       0.03377334       1.03656885
H        2.87426447      -1.62566154       1.61670444
H        0.49244205      -2.25750796       0.56525359
H        0.05298656      -1.63174286      -1.56133034
H        4.47185876       0.77716878      -0.54871993
H        5.98055213      -0.10262837      -0.61230864
H        3.65194388      -3.56568624      -2.02926191
O        3.26397165       2.19582478      -1.07077386
H        2.39562636       1.99097295      -1.33854945
H        3.06054111       2.88974552      -0.45424995
44
Properties=species:S:1:pos:R:3 reactant=T mapped=T (centered)=T charge=0 spin=1 pbc="F F F"
O       -3.21106178       0.71729984      -1.52294947
O       -3.01905212       0.58979210       2.05967289
O       -1.91400105      -1.68543640      -1.19165963
O       -5.11631244       2.37369679       1.94217521
O       -0.07002154       0.22093487      -1.59255643
O        1.02125945       1.79088261       0.57199247
C       -3.13400763       0.06185375      -0.25632160
C       -3.39735746       1.10722166       0.80890500
C       -1.80019192      -0.68551644      -0.18884323
C       -4.86921875       1.50787341       0.83985776
C       -0.45803833       0.06802534      -0.35101478
C       -0.24271604       1.18921926       0.54792123
H       -3.89037301      -0.73009671      -0.12630841
H       -2.81140980       1.99650684       0.57888435
H       -1.77757607      -1.19952242       0.76957760
H       -5.17304542       1.95788304      -0.10911836
H       -5.47928997       0.62166383       1.02299813
H       -3.87667246       0.36155573      -2.01687706
H       -3.47738823       1.11576360       2.72964902
H       -0.82006868       2.02424467       0.29753072
H       -0.51706404       0.80018357       1.50946559
H       -1.87829212      -1.21207390      -2.03589952
H        1.37644447       1.49002911       1.41284809
H       -4.83594787       3.26340248       1.70913091
O        3.35220863      -2.62766946      -1.85038331
O        1.85456794      -3.70246490      -0.57872848
O        5.12227032      -2.14733771       0.58330972
N        0.70233435      -1.33533095       0.23291783
N        5.04759113      -0.03597902      -0.25808097
C        2.04085140      -1.32690909      -0.31578028
C        3.04798259      -0.98370025       0.77067126
C        2.39592784      -2.68492050      -0.90810102
C        4.51583513      -1.11573504       0.36486807
H        2.12522207      -0.59834267      -1.11810952
H        2.86710627       0.02916387       1.06521492
H        2.86788719      -1.63879413       1.61805659
H        0.47795704      -2.23128295       0.55062563
H        0.03930889      -1.57901934      -1.61215424
H        4.48533877       0.76915822      -0.52795165
H        5.98662907      -0.12177824      -0.59765071
H        3.62633126      -3.53603286      -2.04839734
O        3.28877310       2.20057674      -1.04613705
H        2.41046844       2.00486838      -1.28658387
H        3.11681138       2.91614327      -0.44666607
44
Properties=species:S:1:pos:R:3 reactant=T mapped=T (centered)=T charge=0 spin=1 pbc="F F F"
O       -3.21383684       0.64964171      -1.52468251
O       -2.99371383       0.59929401       2.06531800
O       -1.91382418      -1.74990585      -1.13876810
O       -5.09686803       2.37624090       1.93379936
O       -0.08634129       0.16462170      -1.62783256
O        1.03020711       1.77375879       0.53461754
C       -3.12582199       0.02891184      -0.24033371
C       -3.38418164       1.09481196       0.80793831
C       -1.79252114      -0.71919756      -0.16806075
C       -4.85760816       1.48838533       0.84708289
C       -0.44509566       0.02525901      -0.35785097
C       -0.25175004       1.20622199       0.48090916
H       -3.88006209      -0.76110752      -0.08971564
H       -2.80467451       1.98283950       0.55683929
H       -1.76176660      -1.20761211       0.80381214
H       -5.17457081       1.91870085      -0.10696369
H       -5.46170075       0.60297192       1.05500287
H       -3.94117130       0.33710146      -1.97323069
H       -3.44573431       1.13698540       2.73055395
H       -0.80282065       2.03633954       0.14010434
H       -0.57914045       0.89294786       1.45856003
H       -1.96376560      -1.30034467      -1.99719996
H        1.37820062       1.42392799       1.35934027
H       -4.81684152       3.26125823       1.68171997
O        3.32635318      -2.56986700      -1.86045998
O        1.78861569      -3.64142872      -0.63463643
O        5.10643400      -2.18297085       0.59345352
N        0.69519996      -1.27005037       0.24404466
N        5.06480582      -0.06100480      -0.22154417
C        2.03435396      -1.27647286      -0.30516488
C        3.04991347      -0.98780735       0.79405405
C        2.35750909      -2.62781944      -0.93157153
C        4.51495567      -1.14015150       0.38643805
H        2.13706648      -0.52939288      -1.08757591
H        2.89194513       0.02141626       1.12181398
H        2.85567734      -1.66390178       1.62230315
H        0.44789279      -2.17814810       0.52066217
H        0.01380654      -1.47720223      -1.71351303
H        4.51395176       0.75294129      -0.48744249
H        6.00062338      -0.16011080      -0.56741801
H        3.57698120      -3.47980830      -2.08266154
O        3.33940153       2.20876015      -1.00073680
H        2.44078672       2.03067421      -1.18645121
H        3.22912995       2.97029274      -0.43455312
44
Properties=species:S:1:pos:R:3 reactant=T mapped=T (centered)=T charge=0 spin=1 pbc="F F F"
O       -3.21349380       0.57527073      -1.52666795
O       -2.96703170       0.61277030       2.06821289
O       -1.90115353      -1.81152751      -1.08169457
O       -5.07500999       2.38333163       1.91685724
O       -0.10008431       0.10839487      -1.65703325
O        1.03500831       1.75499798       0.50928830
C       -3.11308690      -0.00378063      -0.22446208
C       -3.36816963       1.08445793       0.80343316
C       -1.78019823      -0.75239235      -0.14289336
C       -4.84222187       1.47187684       0.84897348
C       -0.42965929      -0.01740229      -0.35892573
C       -0.26046987       1.21866416       0.41628310
H       -3.86497942      -0.79063381      -0.05354746
H       -2.79434433       1.97058962       0.52961978
H       -1.74280341      -1.21271479       0.84232219
H       -5.17096778       1.88073399      -0.11046822
H       -5.44023812       0.58887900       1.08190227
H       -3.99091433       0.31442044      -1.92896086
H       -3.41305506       1.16385147       2.72655361
H       -0.78438759       2.02868054      -0.01329331
H       -0.63891263       0.98446237       1.39496684
H       -2.03471318      -1.39372045      -1.94116358
H        1.37499473       1.35497216       1.31213668
H       -4.79483050       3.26232924       1.64479964
O        3.29557570      -2.50561705      -1.87522135
O        1.72808255      -3.57821229      -0.68946563
O        5.08902034      -2.21648195       0.59145997
N        0.68739683      -1.21014585       0.26055338
N        5.07423083      -0.08392072      -0.19130903
C        2.02610167      -1.22834699      -0.29411472
C        3.04938829      -0.99411683       0.81440127
C        2.31841204      -2.56860204      -0.95632661
C        4.50961516      -1.16376318       0.40010131
H        2.14299515      -0.46267904      -1.05520443
H        2.91131017       0.00801035       1.17870412
H        2.84436026      -1.69254843       1.62135288
H        0.42135882      -2.12909554       0.49790837
H       -0.02775697      -1.37893862      -1.80221464
H        4.53382454       0.73916344      -0.44733040
H        6.00586216      -0.19355569      -0.54664689
H        3.52375579      -3.41330815      -2.12568177
O        3.37834776       2.21934073      -0.94563762
H        2.46339081       2.05851348      -1.06797699
H        3.33545054       3.01779293      -0.42359005
44
Properties=species:S:1:pos:R:3 reactant=T mapped=T (centered)=T charge=0 spin=1 pbc="F F F"
O       -3.21214238       0.50333217      -1.52859047
O       -2.94046649       0.62522947       2.07078619
O       -1.88917855      -1.87102086      -1.02706497
O       -5.05338922       2.38924391       1.90059455
O       -0.11324858       0.05224091      -1.68515436
O        1.03988728       1.73594596       0.48598814
C       -3.10026338      -0.03534810      -0.20949149
C       -3.35212036       1.07401373       0.79905927
C       -1.76821560      -0.78503940      -0.11865876
C       -4.82678972       1.45563609       0.85045304
C       -0.41407661      -0.06032541      -0.35997246
C       -0.26889397       1.23039688       0.35340199
H       -3.85028133      -0.81897704      -0.01945880
H       -2.78392058       1.95829877       0.50314422
H       -1.72447134      -1.21803738       0.87942443
H       -5.16667173       1.84409617      -0.11376723
H       -5.41916644       0.57487974       1.10727624
H       -4.03950661       0.29484875      -1.88613785
H       -3.38150980       1.18812801       2.72247370
H       -0.76518499       2.02010025      -0.16274807
H       -0.69875979       1.07310334       1.33138985
H       -2.10437930      -1.48294826      -1.88634883
H        1.37238312       1.28689678       1.26719070
H       -4.77274499       3.26241826       1.60961320
O        3.26520966      -2.44294790      -1.88880924
O        1.66830103      -3.51560795      -0.74233997
O        5.07217442      -2.24813724       0.58973195
N        0.67947680      -1.15101161       0.27717233
N        5.08330569      -0.10600982      -0.16239023
C        2.01798579      -1.18073917      -0.28279210
C        3.04900913      -1.00004689       0.83447348
C        2.27972449      -2.51003861      -0.97990972
C        4.50438797      -1.18620193       0.41326997
H        2.14870976      -0.39704232      -1.02313559
H        2.93052683      -0.00504736       1.23471218
H        2.83386283      -1.72027656       1.62061495
H        0.39471171      -2.08046297       0.47579361
H       -0.07037929      -1.28334365      -1.88851618
H        4.55318888       0.72572319      -0.40882107
H        6.01049582      -0.22592277      -0.52763365
H        3.47223737      -3.34871881      -2.16517777
O        3.41515146       2.22835415      -0.89489349
H        2.48423619       2.08562560      -0.94584669
H        3.44079479       3.06473993      -0.41890498
44
Properties=species:S:1:pos:R:3 reactant=T mapped=T (centered)=T charge=0 spin=1 pbc="F F F"
O       -3.20837410       0.42973943      -1.52988343
O       -2.91214680       0.63955390       2.07031394
O       -1.86807800      -1.92436787      -0.97418507
O       -5.02952304       2.39703058       1.87957350
O       -0.12279574      -0.00390178      -1.70811291
O        1.04061431       1.71429987       0.47470906
C       -3.08394460      -0.06500546      -0.19615543
C       -3.33353521       1.06544493       0.79197817
C       -1.75293966      -0.81612236      -0.09280147
C       -4.80823666       1.44183058       0.84848938
C       -0.39585103      -0.10288314      -0.35787672
C       -0.27654638       1.23690379       0.29329104
H       -3.83219856      -0.84402466       0.01132938
H       -2.77077029       1.94710538       0.47385692
H       -1.70491126      -1.22158065       0.91668587
H       -5.15792656       1.81031962      -0.12001935
H       -5.39499011       0.56470375       1.12786631
H       -4.07399504       0.28270456      -1.84557830
H       -3.34897047       1.21373535       2.71459459
H       -0.74221648       1.99347002      -0.30320003
H       -0.75683178       1.15473600       1.25685900
H       -2.16021468      -1.56893740      -1.82102548
H        1.36607472       1.21700723       1.22902404
H       -4.74793623       3.26360624       1.57030333
O        3.23240008      -2.37579620      -1.90333731
O        1.61361432      -3.45211511      -0.79161034
O        5.05530933      -2.27598853       0.57939911
N        0.67044546      -1.09729156       0.29773258
N        5.08560897      -0.12461746      -0.13837626
C        2.00893054      -1.13615615      -0.26959173
C        3.04700073      -1.00829203       0.85325713
C        2.24172827      -2.45024177      -1.00205970
C        4.49582020      -1.20664824       0.42058673
H        2.14996812      -0.33435852      -0.98850492
H        2.94499342      -0.02357460       1.29094270
H        2.82449511      -1.75097697       1.61610766
H        0.37006683      -2.03627074       0.45954103
H       -0.12810675      -1.19274019      -1.96174601
H        4.56403302       0.71500326      -0.37104809
H        6.00755665      -0.25145911      -0.51594548
H        3.42006705      -3.27637738      -2.20767970
O        3.43709995       2.23723309      -0.84109349
H        2.49842848       2.11233801      -0.79890420
H        3.53678388       3.10296232      -0.43770605
44
Properties=species:S:1:pos:R:3 reactant=T mapped=T (centered)=T charge=0 spin=1 pbc="F F F"
O       -3.20478558       0.35764822      -1.53118575
O       -2.88341147       0.65338296       2.06977488
O       -1.84769114      -1.97676781      -0.92327227
O       -5.00530495       2.40426579       1.85964337
O       -0.13203330      -0.06040846      -1.73119247
O        1.04115505       1.69230477       0.46350263
C       -3.06762331      -0.09399279      -0.18322113
C       -3.31481244       1.05670840       0.78527304
C       -1.73786708      -0.84695997      -0.06783879
C       -4.78952788       1.42811711       0.84692501
C       -0.37787877      -0.14550176      -0.35671245
C       -0.28401100       1.24264873       0.23416120
H       -3.81439000      -0.86856182       0.04121745
H       -2.75743627       1.93600219       0.44507831
H       -1.68569993      -1.22564632       0.95280355
H       -5.14902852       1.77725530      -0.12554093
H       -5.37067326       0.55455783       1.14848663
H       -4.10826073       0.27207539      -1.80553351
H       -3.31596942       1.23838843       2.70686919
H       -0.71881275       1.96711513      -0.44177162
H       -0.81463117       1.23400896       1.18223004
H       -2.21582392      -1.65242640      -1.75771766
H        1.36007007       1.14793523       1.19118958
H       -4.72273568       3.26447249       1.53243592
O        3.20034385      -2.30902723      -1.91707422
O        1.55949980      -3.38894409      -0.84013650
O        5.03859372      -2.30297328       0.57010211
N        0.66106696      -1.04406078       0.31768832
N        5.08767754      -0.14256555      -0.11381074
C        1.99987576      -1.09191910      -0.25619647
C        3.04467749      -1.01653579       0.87227335
C        2.20430981      -2.39085558      -1.02339988
C        4.48734442      -1.22646254       0.42879888
H        2.15126515      -0.27206772      -0.95374575
H        2.95888091      -0.04212194       1.34707956
H        2.81484866      -1.78146946       1.61190061
H        0.34511206      -1.99253284       0.44298440
H       -0.18545667      -1.10321755      -2.03403591
H        4.57448795       0.70465335      -0.33302916
H        6.00436999      -0.27613814      -0.50360092
H        3.36909381      -3.20440864      -2.24872030
O        3.45707061       2.24525814      -0.78920759
H        2.51283253       2.13851052      -0.64959412
H        3.63128914       3.14025663      -0.46387988
44
Properties=species:S:1:pos:R:3 reactant=T mapped=T (centered)=T charge=0 spin=1 pbc="F F F"
O       -3.19833070       0.28885212      -1.53207089
O       -2.85244358       0.66718821       2.06617456
O       -1.82153785      -2.02227815      -0.87886110
O       -4.97817862       2.41204590       1.83811117
O       -0.13652419      -0.11795648      -1.74999592
O        1.03768499       1.66675518       0.46589112
C       -3.04822627      -0.11982686      -0.17298083
C       -3.29354749       1.04944792       0.77664879
C       -1.72011876      -0.87525449      -0.04421011
C       -4.76749239       1.41715687       0.84320757
C       -0.35679431      -0.18709173      -0.35463056
C       -0.28979918       1.24369952       0.17971212
H       -3.79417103      -0.88902124       0.06561355
H       -2.74151586       1.92597706       0.41534826
H       -1.66626036      -1.22915715       0.98586268
H       -5.13581189       1.74842940      -0.13210598
H       -5.34353665       0.54753577       1.16461802
H       -4.12983588       0.27178762      -1.76931570
H       -3.28099329       1.26189800       2.69622339
H       -0.68847603       1.92752046      -0.56733599
H       -0.87058833       1.30205243       1.09888159
H       -2.25932011      -1.72721119      -1.68937586
H        1.35147887       1.07679388       1.16321350
H       -4.69419472       3.26550737       1.49480646
O        3.16895430      -2.23716477      -1.92926127
O        1.50995385      -3.32536060      -0.88687991
O        5.02280279      -2.32523505       0.55511218
N        0.65020024      -0.99641488       0.34028076
N        5.08378675      -0.15546371      -0.08979363
C        1.99048000      -1.05155264      -0.23917138
C        3.04075605      -1.02812856       0.89196645
C        2.16878103      -2.33097837      -1.04263271
C        4.47643948      -1.24362002       0.43432331
H        2.14952126      -0.21284235      -0.91382630
H        2.96837991      -0.06775061       1.40582465
H        2.80542986      -1.81682750       1.60482271
H        0.32074680      -1.95368180       0.42920625
H       -0.25260740      -1.01368819      -2.09499219
H        4.57694153       0.69858110      -0.29186092
H        5.99485291      -0.29173952      -0.49336937
H        3.32100408      -3.12410481      -2.28964387
O        3.45459568       2.24926284      -0.74223232
H        2.52691597       2.16260799      -0.45576533
H        3.70059851       3.15925100      -0.55553696
