44
Properties=species:S:1:pos:R:3:forces:R:3 reactant=T mapped=T (centered)=T charge=0 spin=1 energy=-34183.14058744302 free_energy=-34183.14058744302 stress="-0.2910644264462527 0.16550310457076645 0.019984138347907347 0.16550310457076645 -0.21904179152141032 -0.0025236278784151376 0.019984138347907347 -0.0025236278784151376 -0.06946474838917495" pbc="F F F"
O       -3.15883035       1.11583596      -1.58177024      -0.00490052      -0.00045027       0.00013434
O       -3.26224100       0.58124515       1.95731113      -0.00384003       0.00003744      -0.00066265
O       -1.63725607      -1.17316791      -1.47599163      -0.00442666       0.00266918      -0.00047178
O       -5.18568957       2.53752943       1.82187527      -0.00164055       0.00442935       0.00237637
O        0.06592300       0.77704692      -1.13813672       0.00020725      -0.00494171      -0.00953882
O        0.82431458       1.94699512       1.12664623      -0.00473127      -0.00158982      -0.00353218
C       -3.12318266       0.33806566      -0.40423314       0.00055466      -0.00054021      -0.00038832
C       -3.43939530       1.28225989       0.73886606      -0.00234915       0.00050049      -0.00145471
C       -1.78569846      -0.41736247      -0.28835916       0.00161785       0.00285857      -0.00374881
C       -4.86298585       1.80314856       0.64382983      -0.00426162       0.00079876       0.00250302
C       -0.57577171       0.49613830      -0.15102550       0.00099376       0.00475727      -0.00868734
C       -0.18635664       0.96073734       1.22458113      -0.00374545      -0.00074860       0.00205438
H       -3.89433723      -0.44310872      -0.43186891       0.00023557       0.00093711       0.00177855
H       -2.75134848       2.14027923       0.68165757      -0.00264843       0.00233361       0.00059141
H       -1.82903109      -1.08515452       0.57375767       0.00553380       0.00487828      -0.00234247
H       -4.99331449       2.39732794      -0.26102001      -0.00477934       0.00121430       0.00453663
H       -5.55272592       0.95809107       0.61490406      -0.00739414       0.00201450      -0.00446512
H       -2.94661106       0.52671835      -2.31588736      -0.00393413       0.00252587      -0.00164058
H       -3.79492909       1.04564337       2.61780171      -0.00217199      -0.00101454       0.00190197
H       -1.06360344       1.31637283       1.76690800      -0.00043402      -0.00140416       0.01097275
H        0.17148587       0.05447597       1.72699878      -0.00959011      -0.00295386       0.00531748
H       -0.93050228      -0.72954708      -1.97439060      -0.00598065      -0.00464415      -0.00779938
H        1.14818867       2.14541040       2.01021506      -0.00074179       0.01022176      -0.00865282
H       -4.85036282       3.43481415       1.73178613      -0.00358715       0.00591379       0.00278691
O        3.49017663      -3.04391490      -1.90994337       0.00339306      -0.00097407       0.00241457
O        2.67271915      -4.16284782      -0.14479296       0.00350420      -0.00928892       0.00329470
O        5.17385666      -1.78645161       0.22781158      -0.00357056       0.01027300      -0.00390515
N        0.78294828      -2.09841245       0.24288955       0.00492031      -0.00129479       0.00644413
N        4.69456227       0.22950447      -0.68417934      -0.00334632       0.00006251      -0.00699157
C        2.04648702      -1.85409374      -0.44057519       0.00618596      -0.00767304      -0.00041522
C        2.93688423      -0.99034001       0.46910574       0.00354604      -0.00356142       0.00187798
C        2.75960496      -3.15282045      -0.78949537       0.00801027      -0.00073443       0.00023030
C        4.37920455      -0.89022205      -0.00206887       0.01341392      -0.01327157       0.00299883
H        1.85264656      -1.31033490      -1.36707801       0.00740605       0.00055666       0.00225204
H        2.47361826      -0.00688205       0.54820384      -0.00466545      -0.00649571       0.00925505
H        2.96124052      -1.45650440       1.45559039       0.01144120      -0.00670265       0.00201234
H        0.94362479      -2.80407591       0.95649801       0.00694134      -0.01035242      -0.00119974
H        0.10977831      -2.49660217      -0.40481677       0.00524155       0.00085230       0.00402247
H        4.01864762       0.96465401      -0.86766425      -0.00054629      -0.00023145       0.00567495
H        5.63339107       0.30785334      -1.03623471       0.00030324       0.00281047       0.00340751
H        4.02136086      -3.85098489      -1.98559978      -0.00844117      -0.00633373      -0.00885566
O        2.60915326       2.24614266      -1.16288051       0.00788263      -0.01234606       0.00247843
H        2.06726438       1.94626631      -1.90068237       0.00054521       0.01727416      -0.00441146
H        1.98709201       2.20027160      -0.41854390      -0.00015124       0.01962808      -0.00215286
44
Properties=species:S:1:pos:R:3:forces:R:3 reactant=T mapped=T (centered)=T charge=0 spin=1 energy=-34183.14660624799 free_energy=-34183.14660624799 stress="-0.0061282070276703 0.0025621256443331773 0.0012473076213825982 0.0025621256443331773 0.0011685102465277283 -0.003017729111862544 0.0012473076213825982 -0.003017729111862544 0.000984726187673747" pbc="F F F"
O       -3.23284500       1.12838119      -1.57533807       0.00006484      -0.00000962      -0.00004733
O       -3.25733243       0.58853724       1.96394925      -0.00017008      -0.00000658      -0.00002814
O       -1.67321576      -1.14455012      -1.49447366       0.00007835      -0.00005187       0.00008142
O       -5.23806936       2.48782470       1.87427933      -0.00016965      -0.00005687      -0.00014456
O        0.02691277       0.81337160      -1.19409095       0.00067091       0.00031965      -0.00095644
O        0.82141181       1.99284012       1.04194972      -0.00013613       0.00021803       0.00010238
C       -3.16138334       0.34915807      -0.40018285       0.00003400      -0.00002198      -0.00000840
C       -3.47990341       1.28454643       0.75023853      -0.00007144      -0.00000412      -0.00004423
C       -1.80869176      -0.38307248      -0.30899937       0.00002892       0.00006008       0.00003111
C       -4.91972945       1.76653553       0.68668408      -0.00007343       0.00001195      -0.00014191
C       -0.60567294       0.54348429      -0.19836206      -0.00072311      -0.00024008       0.00122012
C       -0.20370427       1.02576380       1.16757029      -0.00007422       0.00004330      -0.00000710
H       -3.91704400      -0.44729497      -0.41692357       0.00001030      -0.00001585      -0.00005706
H       -2.81785100       2.16165262       0.67901895      -0.00006026      -0.00000284       0.00001320
H       -1.82422366      -1.04665100       0.55751522      -0.00000066       0.00005914       0.00010289
H       -5.08531501       2.36082775      -0.21223942       0.00002465       0.00006845      -0.00013311
H       -5.58750622       0.90360995       0.66746479      -0.00006904       0.00002024      -0.00026725
H       -3.03312451       0.54335316      -2.31609302       0.00007897      -0.00001536      -0.00002154
H       -3.78808065       1.03763048       2.63647535      -0.00023859      -0.00003272      -0.00007786
H       -1.07177195       1.40642548       1.70804150      -0.00011182      -0.00002292       0.00006688
H        0.14166702       0.12406949       1.68721993       0.00004034       0.00011193       0.00003886
H       -0.98154189      -0.69680655      -2.01005534       0.00004703      -0.00006142       0.00009876
H        1.12574788       2.24060115       1.91976338      -0.00026527       0.00029708       0.00005272
H       -4.94251947       3.39817240       1.77664765      -0.00017437      -0.00004761      -0.00006179
O        3.50696964      -3.03052958      -1.92016021      -0.00028828       0.00030314      -0.00036906
O        2.64391566      -4.17792417      -0.19612096       0.00047672       0.00449242      -0.00261092
O        5.24977709      -1.83811846       0.27123928      -0.00031552       0.00040415      -0.00064099
N        0.81606187      -2.06137388       0.24028778       0.00021230       0.00005686       0.00021370
N        4.74886095       0.17695951      -0.63095056      -0.00003748       0.00010369      -0.00026111
C        2.09850606      -1.83951829      -0.41556484      -0.00010329       0.00038309       0.00002430
C        3.01109479      -1.05332563       0.54017320       0.00025863      -0.00006806       0.00007478
C        2.76740271      -3.15033261      -0.80675039      -0.00046279      -0.00523225       0.00273860
C        4.44804490      -0.94557122       0.05363293       0.00074805      -0.00076541      -0.00004966
H        1.94044802      -1.24986342      -1.32048926       0.00001075       0.00008365       0.00019090
H        2.56344702      -0.06975030       0.68745445       0.00028860      -0.00015251       0.00019154
H        3.04108012      -1.58205710       1.49418263       0.00043605      -0.00022556      -0.00005779
H        0.94220669      -2.79079730       0.93695591       0.00018170       0.00005702       0.00022564
H        0.14359198      -2.42399680      -0.42898255       0.00005553       0.00006215       0.00029274
H        4.06289711       0.90047779      -0.82245989       0.00007417      -0.00003331       0.00002338
H        5.68057110       0.25709939      -1.00094575       0.00001247      -0.00004425      -0.00036248
H        3.99667681      -3.85967161      -2.03011495      -0.00039010      -0.00031577      -0.00015314
O        2.67553403       2.18503951      -1.18026325       0.00004241       0.00004670       0.00024990
H        2.17936135       1.96531679      -1.97554379       0.00005646       0.00016187       0.00021679
H        1.99733870       2.14952705      -0.48564040       0.00000330       0.00006255       0.00025087
44
Properties=species:S:1:pos:R:3:forces:R:3 reactant=T mapped=T (centered)=T charge=0 spin=1 energy=-34183.145461046 free_energy=-34183.145461046 stress="0.014438161515239184 0.004362007976095642 0.0012759815609373747 0.004362007976095642 -0.01028316835322639 -0.0029900221452375084 0.0012759815609373747 -0.0029900221452375084 0.004414479910026255" pbc="F F F"
O       -3.28339905       1.14471880      -1.56605000       0.00036053       0.00013221       0.00003772
O       -3.22182955       0.58852952       1.96942707      -0.00051600      -0.00027042       0.00001149
O       -1.69145826      -1.11277426      -1.51711791      -0.00000340      -0.00024231       0.00015121
O       -5.27241522       2.42004982       1.93434277       0.00006313       0.00023581      -0.00020155
O        0.00236632       0.84674981      -1.24521644       0.00054979       0.00012325      -0.00077714
O        0.84946027       2.01882536       0.96511114      -0.00068756       0.00057944       0.00016858
C       -3.18186038       0.35775549      -0.39808860       0.00011757       0.00001943       0.00002460
C       -3.50325317       1.27766209       0.76407883       0.00009790       0.00001771       0.00003650
C       -1.81689658      -0.35202485      -0.32995604       0.00000966      -0.00012823       0.00010754
C       -4.96108464       1.70562327       0.74093085       0.00027089       0.00056483      -0.00035296
C       -0.62061895       0.58679951      -0.24082878      -0.00061240      -0.00046774       0.00118418
C       -0.20911519       1.09243032       1.11392827       0.00009480      -0.00046156       0.00011519
H       -3.92242632      -0.45287297      -0.41240022      -0.00003349       0.00015191      -0.00010009
H       -2.87635382       2.17865663       0.67650285       0.00046682      -0.00019910       0.00036440
H       -1.80796876      -1.01481898       0.53712749      -0.00012501      -0.00012274       0.00017341
H       -5.17476655       2.28878080      -0.15531397       0.00080583       0.00099007      -0.00022370
H       -5.59592530       0.81796516       0.74444583      -0.00009940       0.00079593      -0.00093133
H       -3.08955493       0.56774304      -2.31463471       0.00036208       0.00014968       0.00003022
H       -3.74703243       1.01867838       2.65836294      -0.00069211      -0.00026733      -0.00010386
H       -1.06607231       1.52179230       1.63533176      -0.00005554      -0.00144531       0.00079652
H        0.10087867       0.19753782       1.66575530       0.00113802      -0.00047468      -0.00042173
H       -1.00999399      -0.65969154      -2.04184973      -0.00001681      -0.00029173       0.00015255
H        1.15262267       2.28936330       1.83654627      -0.00060349       0.00043427       0.00009743
H       -5.01424308       3.34036323       1.82504880       0.00039868       0.00020431       0.00021383
O        3.53742643      -2.96962306      -1.91223537      -0.00006936       0.00009903      -0.00023157
O        2.57541385      -4.16226458      -0.27360549       0.00176014       0.00733804      -0.00319502
O        5.27013423      -1.88886191       0.38410010      -0.00078197       0.00108490      -0.00095394
N        0.81500470      -2.00269430       0.21884323       0.00020328      -0.00049114       0.00007965
N        4.80805924       0.11449671      -0.56432778      -0.00040510       0.00058776      -0.00049286
C        2.11493686      -1.79819115      -0.40614054      -0.00028968       0.00028022      -0.00014694
C        3.03420284      -1.07575815       0.59255801      -0.00006103       0.00017424      -0.00022397
C        2.75265751      -3.11341823      -0.83263792      -0.00085129      -0.00901560       0.00438080
C        4.48208326      -0.99294724       0.13358019       0.00071319      -0.00073573      -0.00013664
H        1.99175087      -1.17194680      -1.29186322      -0.00021551      -0.00058504      -0.00012216
H        2.61370998      -0.08460978       0.76725008      -0.00026942       0.00002385      -0.00056057
H        3.03269294      -1.63786972       1.52752130       0.00014182       0.00032642      -0.00019989
H        0.91063653      -2.74391444       0.90777741       0.00023333      -0.00045346       0.00010562
H        0.15039984      -2.34432872      -0.46931677       0.00001387      -0.00054477       0.00018731
H        4.12499119       0.82592124      -0.80442830      -0.00026807       0.00043935      -0.00000023
H        5.74289299       0.17126041      -0.93066006      -0.00029056       0.00051934      -0.00036818
H        4.00132412      -3.81033617      -2.04406839       0.00006362      -0.00081906       0.00044138
O        2.72716642       2.07286624      -1.23908387      -0.00030254       0.00060877       0.00040333
H        2.24533399       1.86658798      -2.04641281      -0.00008324       0.00069736       0.00019909
H        2.03012276       2.07778959      -0.56233452      -0.00053196       0.00043775       0.00028189
44
Properties=species:S:1:pos:R:3:forces:R:3 reactant=T mapped=T (centered)=T charge=0 spin=1 energy=-34183.13992259117 free_energy=-34183.13992259117 stress="0.006305788972898795 0.023013050273666066 0.017020767201294567 0.023013050273666066 -0.03279962083611226 0.007923743002256555 0.017020767201294567 0.007923743002256555 -0.004733533150387545" pbc="F F F"
O       -3.30013809       1.17881698      -1.56553789       0.00054376       0.00026966       0.00042001
O       -3.17445590       0.59147491       1.96138772      -0.00176897      -0.00093840       0.00036362
O       -1.68597705      -1.07284085      -1.54355026       0.00028960      -0.00011266       0.00058352
O       -5.30918934       2.33456143       1.98000114      -0.00020340       0.00061469      -0.00043223
O        0.01254748       0.87347652      -1.28025450      -0.00131942       0.00184115       0.00069546
O        0.89971528       2.02322857       0.93265838      -0.00265857       0.00288778      -0.00048890
C       -3.18238253       0.37581505      -0.40980576       0.00001895       0.00001555       0.00031748
C       -3.51882347       1.27153242       0.76725730       0.00001396      -0.00002990       0.00036055
C       -1.80815204      -0.31457457      -0.35462014      -0.00012088      -0.00020509       0.00062426
C       -4.99551225       1.62809626       0.78278360       0.00035765       0.00154996      -0.00084021
C       -0.61513609       0.63159119      -0.27429263      -0.00058433       0.00024553       0.00070203
C       -0.21772959       1.16733593       1.07353546       0.00049948      -0.00124896       0.00102532
H       -3.90804769      -0.44794082      -0.43706120      -0.00024017       0.00025485       0.00002818
H       -2.93877934       2.20211089       0.66869639       0.00116877      -0.00062767       0.00128983
H       -1.78427007      -0.97781769       0.51161425      -0.00031267      -0.00024355       0.00060270
H       -5.26232431       2.19340511      -0.11094055       0.00191857       0.00277406      -0.00052384
H       -5.58494149       0.71001587       0.80935358      -0.00067537       0.00212823      -0.00246341
H       -3.10969294       0.61410553      -2.32428882       0.00103929       0.00049420       0.00037144
H       -3.69650639       0.99726631       2.66711656      -0.00231518      -0.00097250      -0.00000704
H       -1.06545046       1.67412695       1.53767040      -0.00004126      -0.00522748       0.00457587
H        0.01378086       0.28548425       1.68044455       0.00541528      -0.00201915      -0.00169717
H       -1.00380156      -0.62079952      -2.06844408      -0.00008034       0.00042625       0.00058238
H        1.16746851       2.32834380       1.80428546      -0.00138318       0.00307268      -0.00089761
H       -5.09907187       3.26554121       1.85887995       0.00067982       0.00056582       0.00070145
O        3.54357538      -2.93227585      -1.90099011      -0.00046686      -0.00145971      -0.00020858
O        2.50008868      -4.14539483      -0.32884653       0.00309551       0.00625191      -0.00050308
O        5.29106828      -1.92479457       0.46139638      -0.00022841      -0.00061900      -0.00264117
N        0.81332684      -1.94160547       0.21776928       0.00040336      -0.00097934       0.00019786
N        4.84375520       0.04866717      -0.55458413       0.00010708       0.00091558      -0.00025185
C        2.12356894      -1.76261317      -0.39211789      -0.00008573      -0.00029839      -0.00023125
C        3.05738330      -1.09394869       0.62987202       0.00014635       0.00033957      -0.00083357
C        2.72550909      -3.08500543      -0.84724176      -0.00073148      -0.00886571       0.00439119
C        4.50862114      -1.03416858       0.17721588      -0.00017256       0.00053772      -0.00136675
H        2.02678768      -1.11138878      -1.26310586      -0.00030360      -0.00161856      -0.00058558
H        2.66151627      -0.09753869       0.83046368      -0.00017718       0.00036758      -0.00168798
H        3.03888459      -1.68091919       1.54905477       0.00040288       0.00111967      -0.00042875
H        0.88675538      -2.68171368       0.91049084       0.00052138      -0.00111509       0.00005539
H        0.15266034      -2.27675867      -0.47761353       0.00001927      -0.00068969       0.00038530
H        4.16135870       0.74689852      -0.83240711       0.00060087       0.00259043       0.00221948
H        5.77667047       0.08207417      -0.92851427       0.00030551       0.00171411       0.00027973
H        3.97942321      -3.78457010      -2.05253333       0.00000221      -0.00220073       0.00114817
O        2.75870692       1.97839418      -1.28928503       0.00014103       0.00200790       0.00485534
H        2.18841765       1.71794170      -2.02020248       0.00984402       0.00663520      -0.01209693
H        2.12879225       2.06636419      -0.55571065      -0.01366503      -0.01014868       0.00140939
44
Properties=species:S:1:pos:R:3:forces:R:3 reactant=T mapped=T (centered)=T charge=0 spin=1 energy=-34183.114562016475 free_energy=-34183.114562016475 stress="0.12090755398029707 0.040488413889131526 0.011787109720709205 0.040488413889131526 -0.060740978343209885 -0.015772068654124574 0.011787109720709205 -0.015772068654124574 0.004795826799216716" pbc="F F F"
O       -3.28006450       1.20649751      -1.57110694       0.00293080       0.00191207       0.00044223
O       -3.15293432       0.59151024       1.94998523      -0.00140468      -0.00096248       0.00019168
O       -1.67767404      -1.06102743      -1.55579972       0.00091117      -0.00032320       0.00078594
O       -5.32389212       2.29416103       1.98555701      -0.00001292       0.00026626      -0.00096030
O        0.05285758       0.84578742      -1.28934370       0.00078749       0.00123163      -0.00161810
O        0.93753170       1.99927846       0.95755564      -0.00188140       0.00384926       0.00155270
C       -3.16774728       0.39082939      -0.42365971       0.00156858       0.00099599       0.00000104
C       -3.51812050       1.27069678       0.76163795       0.00098858       0.00044248       0.00026481
C       -1.79433692      -0.30067720      -0.36812420       0.00107436       0.00014877       0.00055351
C       -5.00232122       1.59401249       0.78690798       0.00123901       0.00187650      -0.00155781
C       -0.59085109       0.63431380      -0.28512829       0.00028745      -0.00025447       0.00162408
C       -0.21862894       1.19217543       1.06006996       0.00188507      -0.00205202       0.00069524
H       -3.88988781      -0.43546267      -0.46649333       0.00107682       0.00148850      -0.00112188
H       -2.96023120       2.21482287       0.66575000       0.00213066      -0.00005577       0.00188406
H       -1.77317748      -0.96303001       0.49888092       0.00054028       0.00036498       0.00078356
H       -5.28806203       2.15225196      -0.10556766       0.00321023       0.00357478      -0.00112481
H       -5.57047197       0.66275359       0.81846720       0.00029549       0.00237075      -0.00398366
H       -3.09775317       0.64772061      -2.33622729       0.00280169       0.00236532       0.00012053
H       -3.67657889       0.98471716       2.66156070      -0.00249474      -0.00148400      -0.00034620
H       -1.06657513       1.74487576       1.46964442       0.00010425      -0.00765097       0.00484446
H       -0.05582720       0.32047767       1.70261239       0.00752644      -0.00379115      -0.00273547
H       -0.98493827      -0.62256055      -2.07815347       0.00049030      -0.00017600       0.00039043
H        1.16692499       2.30143827       1.84132972      -0.00688673       0.00891430       0.00137553
H       -5.13519329       3.22950109       1.86274406       0.00050458       0.00036777       0.00067665
O        3.54330249      -2.93587813      -1.88605797      -0.00054043      -0.00447907       0.00094887
O        2.47237650      -4.14713716      -0.33111389       0.00176773      -0.00602789       0.00771617
O        5.29851354      -1.90569300       0.48986822      -0.00060420       0.00135118      -0.00335118
N        0.80706587      -1.92995514       0.22215800      -0.00002477      -0.00171638      -0.00004185
N        4.82879658       0.02387431      -0.59770365      -0.00114881       0.00127500      -0.00371493
C        2.11794100      -1.76022678      -0.38843788      -0.00013446      -0.00220490      -0.00073714
C        3.05566513      -1.09292373       0.63072504      -0.00070152       0.00159597      -0.00269949
C        2.71232707      -3.08653710      -0.84219329       0.00198282       0.00345608      -0.00025058
C        4.50558208      -1.03546431       0.17398834      -0.00113235       0.00188795      -0.00337962
H        2.02439787      -1.11238969      -1.26237997      -0.00120243      -0.00392266      -0.00233183
H        2.66184505      -0.09523850       0.82984258      -0.00150099       0.00175401      -0.00477451
H        3.03886546      -1.67858983       1.55075085       0.00006725       0.00374170      -0.00125390
H        0.87891078      -2.66027735       0.92526748       0.00068501      -0.00106045       0.00059843
H        0.14799260      -2.27560390      -0.46965159      -0.00022167      -0.00246733       0.00058345
H        4.13596748       0.69484188      -0.91423607      -0.00079614       0.00249702      -0.00219903
H        5.75565396       0.04277409      -0.98757492      -0.00093189       0.00197963      -0.00315533
H        3.97010351      -3.79213452      -2.04074555       0.00070447      -0.00364302       0.00273826
O        2.74634484       1.95640851      -1.38257556      -0.00131081       0.00383528       0.00429305
H        1.92592834       1.56953529      -1.71869148      -0.00046580      -0.00112855      -0.01015045
H        2.44037296       2.32555138      -0.54433850      -0.01216380      -0.01014291       0.01842374
44
Properties=species:S:1:pos:R:3:forces:R:3 reactant=T mapped=T (centered)=T charge=0 spin=1 energy=-34183.110300042434 free_energy=-34183.110300042434 stress="0.18359474464002845 0.01925947053149315 0.03196384176682506 0.01925947053149315 -0.03582466222539151 -0.004121329768023197 0.03196384176682506 -0.004121329768023197 -0.011459218596012484" pbc="F F F"
O       -3.28400941       1.21382606      -1.57457073       0.00447115       0.00297677       0.00074618
O       -3.15827792       0.57905410       1.94201367      -0.00184732      -0.00217166       0.00005677
O       -1.67923102      -1.04959224      -1.56877488       0.00189494       0.00074840       0.00006238
O       -5.34563114       2.26687443       1.98788740      -0.00018620      -0.00026279      -0.00126057
O        0.07637218       0.82311096      -1.25502968       0.00165822       0.00188646       0.00126111
O        0.94720277       1.95107043       0.96049102       0.00010074      -0.00059362       0.00386061
C       -3.17739318       0.38986606      -0.43262583       0.00203611       0.00120503      -0.00024459
C       -3.53471229       1.25966312       0.75812799       0.00116083      -0.00001815       0.00037532
C       -1.80406912      -0.30095886      -0.37472527       0.00130676      -0.00021840       0.00064090
C       -5.02200671       1.56698768       0.78963626       0.00143511       0.00170501      -0.00195491
C       -0.59796763       0.62563951      -0.26684185       0.00061304      -0.00098470       0.00343027
C       -0.24418164       1.20395074       1.07415934       0.00193089      -0.00427128       0.00332711
H       -3.89812864      -0.43708365      -0.48639661       0.00126084       0.00206480      -0.00244172
H       -2.98772359       2.21019921       0.66465464       0.00256436      -0.00058912       0.00274512
H       -1.79012200      -0.97140952       0.48653203      -0.00021501      -0.00101279       0.00007682
H       -5.31804742       2.11986576      -0.10298339       0.00388755       0.00377062      -0.00146560
H       -5.57991260       0.62977429       0.82649240       0.00032342       0.00227215      -0.00494269
H       -3.09439167       0.66057480      -2.34208346       0.00521064       0.00399308       0.00024234
H       -3.67713895       0.96914583       2.65865803      -0.00312783      -0.00292854      -0.00042462
H       -1.07660483       1.81041811       1.43899660       0.00090044      -0.00820226       0.00717050
H       -0.13973698       0.35087386       1.75176357       0.00600398      -0.00646934      -0.00006067
H       -0.96918746      -0.61951738      -2.07476007       0.00206500       0.00115417       0.00092444
H        1.25223578       2.16825063       1.84588143      -0.00932535       0.01203949       0.00760573
H       -5.16329581       3.20321715       1.86295895       0.00030646      -0.00011729       0.00068991
O        3.53888267      -2.92420138      -1.87918953      -0.00039824      -0.00086363       0.00037520
O        2.44162472      -4.14603767      -0.35129023       0.01193934       0.03785488      -0.01144631
O        5.30666994      -1.90993612       0.51613590      -0.00298638       0.00381292      -0.00345245
N        0.80292008      -1.91951155       0.23406991      -0.00023657      -0.00294492       0.00002335
N        4.82270008       0.00107558      -0.59826375      -0.00305034       0.00141662      -0.00481230
C        2.11448283      -1.75379305      -0.37639021      -0.00236196       0.00110233      -0.00093511
C        3.05880738      -1.10542213       0.64918977      -0.00167415       0.00206575      -0.00203763
C        2.69720453      -3.07993587      -0.84490504      -0.00812146      -0.04737832       0.02106509
C        4.50741320      -1.04987359       0.18933702      -0.00060941       0.00058742      -0.00238636
H        2.02549817      -1.09645418      -1.24390884      -0.00255815      -0.00429129      -0.00170218
H        2.67248340      -0.10675926       0.85835674      -0.00318458       0.00183766      -0.00508472
H        3.04036527      -1.70082735       1.56283316      -0.00093489       0.00422639      -0.00112379
H        0.87196681      -2.65151839       0.93561794       0.00026113      -0.00202945       0.00087661
H        0.14431188      -2.26350704      -0.45912629      -0.00083223      -0.00412020       0.00080879
H        4.11825528       0.64843546      -0.93716342      -0.00219079       0.00266653      -0.00268792
H        5.74038336       0.00545783      -1.00993917      -0.00253165       0.00169372      -0.00397429
H        3.95344280      -3.78417025      -2.04580730       0.00049957      -0.00555349       0.00471981
O        2.74632531       1.90508556      -1.49053629      -0.00029226       0.00486962      -0.00036467
H        1.83168520       1.61418541      -1.33231717       0.00424354       0.00506015      -0.00984171
H        2.83053637       2.69390687      -0.94616570      -0.00940907      -0.00598855       0.00156028
44
Properties=species:S:1:pos:R:3:forces:R:3 reactant=T mapped=T (centered)=T charge=0 spin=1 energy=-34183.149932140004 free_energy=-34183.149932140004 stress="-0.17998680831277003 0.14789948318813656 0.03943010330764704 0.14789948318813656 -0.12272792808078885 0.10515988766690695 0.03943010330764704 0.10515988766690695 0.1530357941834837" pbc="F F F"
O       -3.29768858       1.20710841      -1.57617240       0.00347311       0.00247618       0.00066334
O       -3.18624263       0.57515706       1.94019558      -0.00754651      -0.00342297      -0.00024219
O       -1.64815956      -1.03141311      -1.54428565       0.00567212       0.00325687       0.00362666
O       -5.38628379       2.24531018       1.98012436      -0.00561814      -0.00115902      -0.00383503
O        0.07571887       0.86743580      -1.21679926      -0.00088651       0.00921716       0.00895290
O        0.78399297       2.17657105       1.08740946      -0.01607923       0.01189692       0.01894353
C       -3.18701574       0.38811221      -0.43062290       0.00075420       0.00132446       0.00005558
C       -3.56603388       1.25331598       0.75671262      -0.00275266      -0.00043703       0.00009369
C       -1.80044642      -0.27540845      -0.35761635       0.00105468       0.00266219       0.00346380
C       -5.05603004       1.54466791       0.78434252      -0.00249268       0.00096546      -0.00417090
C       -0.61891779       0.68046000      -0.23771064      -0.00192616       0.00524225       0.00802023
C       -0.31137232       1.30014129       1.10446979      -0.00164104       0.00009588       0.01036657
H       -3.89261302      -0.45126469      -0.48811714       0.00185032       0.00085655      -0.00296656
H       -3.03223513       2.21155384       0.66582466      -0.00133701      -0.00085409       0.00392817
H       -1.78171391      -0.93968239       0.50866558      -0.00004125       0.00270075       0.00343813
H       -5.35660411       2.09238340      -0.11003379       0.00073085       0.00311062      -0.00388379
H       -5.60479681       0.60237699       0.82479157      -0.00362902       0.00148194      -0.00774087
H       -3.10816125       0.65190120      -2.34205792       0.00435928       0.00315910       0.00045280
H       -3.69738351       0.96999973       2.65972876      -0.00824308      -0.00340233      -0.00078250
H       -1.17574560       1.86285285       1.44960543      -0.00332223      -0.00839279       0.01711822
H       -0.18631295       0.46864428       1.80553942       0.00536699      -0.00324762       0.00406621
H       -0.94619464      -0.58775647      -2.04940081       0.00497915       0.00543863       0.00471302
H        1.60148552       1.66864975       1.08084483       0.01606240      -0.02240687      -0.10894860
H       -5.19441519       3.18041040       1.85875094      -0.00263628      -0.00136242      -0.00069981
O        3.52266903      -2.91720198      -1.89536099      -0.00245920      -0.00614023       0.00035144
O        2.40882432      -4.14061688      -0.37989540      -0.00113463      -0.00544159       0.00667112
O        5.34503317      -1.97986475       0.48414006       0.00405024      -0.00668259      -0.00744236
N        0.82991250      -1.87880278       0.25977878       0.00282982       0.00165973       0.00287945
N        4.87540641      -0.03194476      -0.57183756       0.00346601      -0.00380329      -0.00253752
C        2.13906332      -1.74170819      -0.36012091       0.00264620      -0.00219492       0.00167373
C        3.11296836      -1.14660864       0.66911544       0.00486458      -0.00342220      -0.00011767
C        2.68496094      -3.07383250      -0.85786416       0.00077522       0.00156504       0.00065731
C        4.55659122      -1.09959102       0.19159588       0.00303672      -0.00356920      -0.00368532
H        2.06193062      -1.06577498      -1.21449048       0.00315084      -0.00287692       0.00092899
H        2.75680147      -0.14640532       0.91892464       0.00684031      -0.00370630       0.00274691
H        3.09276824      -1.76263056       1.56824619       0.00600998      -0.00384482      -0.00070664
H        0.88101242      -2.62287964       0.94999358       0.00156479       0.00246613       0.00378589
H        0.15354442      -2.18900410      -0.43252210       0.00131552       0.00298392       0.00379679
H        4.17836781       0.64100039      -0.86585677       0.00528974       0.00157483       0.00616015
H        5.79029398      -0.01883285      -0.98876306       0.00306732      -0.00178558      -0.00289830
H        3.91920720      -3.78203304      -2.08024647      -0.00299913      -0.00598111       0.00129176
O        2.72536986       1.86092740      -1.25627035      -0.00818609       0.00074921       0.04174729
H        1.77587687       1.64576393      -1.28758031      -0.01005974       0.01002423       0.00473548
H        2.76256734       2.78851301      -1.00517560      -0.01021976       0.01922591      -0.01467143
44
Properties=species:S:1:pos:R:3:forces:R:3 reactant=T mapped=T (centered)=T charge=0 spin=1 energy=-34183.13893331272 free_energy=-34183.13893331272 stress="0.19249333296023718 0.17892858333039716 -0.000688190273896676 0.17892858333039716 0.0980481557535268 -0.03198593924143088 -0.000688190273896676 -0.03198593924143088 -0.03999152182309428" pbc="F F F"
O       -3.48428347       1.16796739      -1.57040660       0.00717101       0.00621790      -0.00170150
O       -3.17445330       0.55894631       1.94011283      -0.00081390       0.00089356      -0.00221477
O       -1.78003010      -1.03436945      -1.60657091       0.00762091       0.00683640      -0.00127670
O       -5.39560860       2.19806946       2.08567449      -0.00410785      -0.00325712      -0.00324229
O       -0.02069401       0.84326390      -1.35760950       0.00914442       0.00601536       0.00841020
O        0.88272005       1.97732013       0.93900775      -0.00146111       0.01253628       0.01011605
C       -3.29250854       0.36233415      -0.42611038       0.00375021       0.00408744      -0.00256978
C       -3.62514624       1.22634032       0.77621140      -0.00021703       0.00175806      -0.00185536
C       -1.88860369      -0.26444092      -0.42574432       0.00401586       0.00376568       0.00055514
C       -5.11630570       1.49621797       0.87754490      -0.00094166      -0.00075466      -0.00402858
C       -0.71672459       0.70922030      -0.37025724       0.00373705       0.00237452       0.00978861
C       -0.39298482       1.40003549       0.93279732       0.00138400      -0.00282627       0.01180716
H       -3.97996709      -0.49388200      -0.43809791       0.00391915       0.00397784      -0.00646793
H       -3.11341051       2.19258107       0.65795452      -0.00180503       0.00297976       0.00033779
H       -1.80809545      -0.91411956       0.44953089       0.00012512       0.00106294      -0.00078616
H       -5.46867854       2.03628001      -0.00255068      -0.00013370       0.00039329      -0.00368847
H       -5.65026941       0.54732597       0.94910180       0.00017486      -0.00162967      -0.00672542
H       -3.31752959       0.60995327      -2.33978527       0.00782742       0.00726655      -0.00230544
H       -3.65071647       0.95107604       2.68449849      -0.00293444      -0.00122009      -0.00230631
H       -1.11017467       2.20713950       1.08897050      -0.00895319      -0.00818877       0.02036704
H       -0.54125028       0.68041308       1.74126443       0.00902466      -0.01272482       0.00867834
H       -1.08242904      -0.61125731      -2.13477997       0.00852169       0.00824349       0.00149777
H        1.52511310       1.29140361       0.71725859       0.01032580       0.01725451       0.00344105
H       -5.21964928       3.13464224       1.95200254      -0.00492029      -0.00275678      -0.00111267
O        3.53998594      -2.78114837      -1.90288721       0.00085275       0.00348470       0.00202739
O        2.20216527      -4.00007716      -0.57583645       0.04657292       0.11320510      -0.03091509
O        5.50599781      -2.09908538       0.55721850       0.00162667       0.00753251      -0.00162016
N        0.92973363      -1.62801639       0.30679346       0.00179329      -0.00162927       0.00089834
N        5.04402778      -0.10832314      -0.41955019      -0.00378166       0.00051548      -0.00905296
C        2.25806517      -1.60130656      -0.28843036      -0.00139053       0.00608324       0.00024230
C        3.28263186      -1.24746710       0.79930751       0.00203816       0.00033553      -0.00008537
C        2.64060816      -2.93349463      -0.91790232      -0.04790318      -0.13309066       0.03824526
C        4.72018576      -1.20635717       0.30309899       0.00281492       0.00021293      -0.00265582
H        2.28255302      -0.84157381      -1.07258437      -0.00087979      -0.00354812       0.00031869
H        3.00517915      -0.28225233       1.22708660       0.00009317       0.00039216      -0.00247135
H        3.23882210      -1.99920219       1.58787551       0.00369041       0.00139823      -0.00074670
H        0.91557258      -2.34112188       1.03035404       0.00117906      -0.00004443       0.00315073
H        0.25620406      -1.93971252      -0.38833929       0.00016423      -0.00359355       0.00260900
H        4.33492160       0.53908207      -0.73625618      -0.00593351      -0.00326140      -0.01081377
H        5.94745137      -0.10191132      -0.86149416      -0.00408377       0.00103461      -0.01005565
H        3.81477348      -3.66633520      -2.18590667      -0.00237684      -0.01071174       0.00538781
O        2.79239457       1.72656905      -1.24389875      -0.01096981      -0.00749053      -0.00783621
H        1.83962217       1.59919571      -1.38881102      -0.01665640      -0.01521668      -0.02492990
H        2.87078474       2.64007730      -0.94985624      -0.01730374      -0.00791357       0.01358585
44
Properties=species:S:1:pos:R:3:forces:R:3 reactant=T mapped=T (centered)=T charge=0 spin=1 energy=-34183.1183225553 free_energy=-34183.1183225553 stress="-0.5971632798114499 0.21391501879145564 -0.05489670210113515 0.21391501879145564 0.2874763947273538 0.03627195874867461 -0.05489670210113515 0.03627195874867461 0.01951439115305811" pbc="F F F"
O       -3.62234536       1.11263211      -1.52613074      -0.00504062       0.00275339      -0.00000314
O       -3.18422542       0.47587937       1.97491782      -0.00951315      -0.00790973      -0.00065113
O       -1.98573982      -1.16233240      -1.62756997      -0.00475559       0.00254185      -0.00459874
O       -5.30682221       2.23378817       2.18850134      -0.00310821      -0.00042703      -0.00013580
O       -0.18998541       0.68503925      -1.58578819      -0.00469138       0.00518464      -0.00844540
O        0.96079436       1.56113484       0.74473942       0.00357527      -0.03645344       0.01339822
C       -3.38626474       0.30237777      -0.39170141      -0.00492239       0.00032919      -0.00154057
C       -3.62502943       1.17695357       0.82585922      -0.00350364      -0.00203118       0.00036956
C       -2.00000261      -0.34621436      -0.47584844      -0.00491991       0.00111194      -0.00393529
C       -5.09624667       1.52560024       0.97020721      -0.00263381       0.00324171      -0.00220291
C       -0.83721262       0.63230764      -0.56509928      -0.01070092       0.00315695       0.00182943
C       -0.44304167       1.44138233       0.65636850      -0.00479250       0.00074858      -0.00242849
H       -4.09465411      -0.53547189      -0.35989653      -0.00529715       0.00063839      -0.00270237
H       -3.05935538       2.11213010       0.70284700       0.00147113      -0.00407602       0.00483628
H       -1.84802091      -0.95286853       0.42236927      -0.00361878       0.00053100      -0.00410634
H       -5.44578205       2.08597005       0.10218369       0.00137396       0.00754838      -0.00114340
H       -5.67339428       0.60306358       1.05230531      -0.00603934       0.00478237      -0.00697916
H       -3.47684503       0.55865341      -2.30313071      -0.00415562       0.00458527      -0.00113174
H       -3.61685084       0.89307753       2.73225887      -0.00901903      -0.00782070      -0.00038007
H       -0.85570534       2.44713430       0.55598158       0.02051547       0.01478064      -0.01498020
H       -0.86549176       0.98703807       1.55368413      -0.02857737       0.01369329      -0.00238001
H       -1.29255574      -0.79083387      -2.20113279      -0.00458635       0.00265205      -0.00373808
H        1.27651890       0.65470363       0.88502080      -0.02346322      -0.06043916      -0.01114003
H       -5.10363900       3.16378780       2.04911457      -0.00171006      -0.00024561       0.00317838
O        3.57490995      -2.68589351      -1.90459171      -0.00043095       0.00354757       0.00152708
O        2.18965919      -3.91802410      -0.63867326       0.03972241       0.11695682      -0.02216645
O        5.47337132      -2.14755765       0.59697800       0.01306769       0.00266441      -0.00889667
N        0.93977891      -1.56142902       0.29570639       0.01184694       0.01605333       0.00762296
N        5.11296353      -0.09250868      -0.28909854       0.00880927       0.00000239      -0.01020866
C        2.27543877      -1.53010476      -0.29039311       0.00861553       0.01468311       0.00397190
C        3.28259714      -1.21796148       0.82665545       0.01575611       0.00164459       0.00245437
C        2.65187144      -2.85077173      -0.94618706      -0.04924868      -0.12085892       0.03521113
C        4.73247471      -1.20990742       0.36823448       0.01440017      -0.00046966      -0.00523518
H        2.30999751      -0.74886580      -1.05379358       0.01254430       0.00592730       0.00434877
H        3.03173527      -0.24906806       1.26303549       0.01865938       0.00133865       0.00445057
H        3.19493912      -1.97901696       1.60262151       0.01701532      -0.00024398      -0.00086975
H        0.90838207      -2.31242195       0.98027824       0.00789075       0.01869436       0.01121056
H        0.26811307      -1.83059221      -0.41896095       0.00746760       0.01629922       0.01068299
H        4.44241966       0.61221062      -0.57377030       0.00742458       0.00117816      -0.00406522
H        6.03139924      -0.09310706      -0.69840185       0.00743246       0.00113018      -0.01357867
H        3.85155728      -3.56647022      -2.19995118      -0.01006903      -0.01151178       0.00405201
O        3.03561177       1.85428855      -1.20120734      -0.00371015      -0.00661633       0.00777424
H        2.17171858       1.89269022      -0.75535701       0.00350708      -0.00543752       0.02540540
H        3.29295862       2.76957846      -1.34318532      -0.01258728      -0.00385862      -0.00468049
44
Properties=species:S:1:pos:R:3:forces:R:3 reactant=T mapped=T (centered)=T charge=0 spin=1 energy=-34183.006975329976 free_energy=-34183.006975329976 stress="-0.09038101692934197 0.29431474479573866 -0.015695718721378184 0.29431474479573866 0.19629069181784475 0.03062386662004742 -0.015695718721378184 0.03062386662004742 -0.020104849701306698" pbc="F F F"
O       -3.56431421       1.10382907      -1.52489242       0.00053836       0.00316212      -0.00253472
O       -3.07191744       0.56853697       1.97767839      -0.00158427       0.00155074      -0.00247034
O       -1.93702444      -1.16948284      -1.59019874       0.00815372       0.01011402      -0.00402769
O       -5.27051140       2.23268836       2.20473963      -0.00554236      -0.00451657      -0.00187444
O       -0.11709598       0.66116345      -1.54808034       0.01003063       0.01158745       0.00218405
O        0.91322992       1.96941739       0.59185713      -0.00285868       0.00772274       0.01648997
C       -3.33253681       0.31210779      -0.37683589       0.00127230       0.00300839      -0.00259905
C       -3.58703031       1.20655506       0.82337621      -0.00214539       0.00146032      -0.00221277
C       -1.94734912      -0.34840517      -0.43930433       0.00313140       0.00658387      -0.00165644
C       -5.06725301       1.49241454       1.00404839      -0.00297561      -0.00239749      -0.00277718
C       -0.75738583       0.60439744      -0.52305397      -0.00242582       0.00838880       0.01245987
C       -0.37996385       1.41517791       0.69614034      -0.00260775       0.00601146       0.00867479
H       -4.04017642      -0.52681122      -0.33940099       0.00317672       0.00132378      -0.00402620
H       -3.08002992       2.16649503       0.65132984      -0.00422099       0.00287894      -0.00102613
H       -1.81511019      -0.95911243       0.45726593       0.00182890       0.00387412      -0.00288847
H       -5.46485881       2.01022578       0.12970968      -0.00388773      -0.00222560      -0.00228266
H       -5.60444697       0.55180363       1.13452703      -0.00062682      -0.00394725      -0.00424665
H       -3.42883302       0.53370771      -2.29175010       0.00016041       0.00305585      -0.00253636
H       -3.50979351       0.97822851       2.73604498      -0.00247127       0.00045317      -0.00230508
H       -1.08330653       2.24433663       0.78526595      -0.00214144       0.00656101       0.00809884
H       -0.50018675       0.79355505       1.58341227      -0.00643115       0.00525091       0.00802019
H       -1.25251897      -0.79435857      -2.17120515       0.00911901       0.01297512      -0.00047324
H        1.53322191       1.37753922       1.02840711       0.01077666      -0.03656208      -0.00661536
H       -5.08399422       3.16138906       2.03489705      -0.00815552      -0.00375241      -0.00052169
O        3.63074626      -2.60197859      -1.92932189      -0.00058060       0.00400094       0.00115908
O        2.28726264      -3.97712677      -0.77215565       0.04128985       0.11990255      -0.01902942
O        5.30780431      -2.16762194       0.72051051       0.00738340       0.00500054      -0.00372460
N        0.82719104      -1.75632527       0.18686275       0.00552165       0.00379746       0.00402276
N        5.02698305      -0.08170845      -0.11598465      -0.00002494       0.00070199      -0.00683968
C        2.17506909      -1.60165077      -0.33961140       0.00219216       0.00809232       0.00285788
C        3.10944506      -1.24127126       0.82613658       0.00736212      -0.00290844       0.00290755
C        2.68104461      -2.86751083      -1.01830932      -0.04182396      -0.13621324       0.02755466
C        4.58816290      -1.21887249       0.46983697       0.00783742      -0.00235457      -0.00158386
H        2.18121349      -0.79733842      -1.07929806       0.00541144       0.00002230       0.00388364
H        2.80111236      -0.27241905       1.22275532       0.00726476      -0.00456142       0.00545071
H        2.98846017      -1.98607761       1.61307629       0.00950565      -0.00533941      -0.00059116
H        0.82261308      -2.54560198       0.82689797       0.00222823       0.00259104       0.00299286
H        0.19596610      -2.02114581      -0.56471743       0.00209908       0.00712186       0.00468521
H        4.38295949       0.61622728      -0.46767833      -0.00356061      -0.00339374      -0.00672750
H        5.97087184      -0.09021526      -0.46411216      -0.00095233       0.00241951      -0.00992283
H        3.97993764      -3.45104065      -2.23952386      -0.00468625      -0.01079556       0.00252513
O        3.05742349       1.84490692      -1.26672964      -0.01805878      -0.01896236      -0.01000041
H        2.12692098       1.93655985      -1.00364863      -0.01689737      -0.00762806      -0.00642534
H        3.30799824       2.69481268      -1.63896431      -0.01162427      -0.00405507      -0.00204786
44
Properties=species:S:1:pos:R:3:forces:R:3 reactant=T mapped=T (centered)=T charge=0 spin=1 energy=-34183.02147910413 free_energy=-34183.02147910413 stress="0.049099377655772346 0.32835650576127734 -0.007307549484409056 0.32835650576127734 0.026273770922696366 -0.10366447756355013 -0.007307549484409056 -0.10366447756355013 -0.13622945646130463" pbc="F F F"
O       -3.49341778       1.07527518      -1.51747938       0.00386724       0.01782703       0.00304487
O       -3.06922464       0.58936856       1.99607627       0.00157535       0.00305459      -0.00140339
O       -1.97841651      -1.28896108      -1.51119102       0.00370104       0.02352373      -0.01840346
O       -5.23115928       2.32058429       2.15141203      -0.00335054      -0.00164571       0.00202604
O       -0.17907482       0.58037680      -1.56162748       0.02118450       0.00536797       0.00736079
O        0.98690361       1.77888893       0.47513012      -0.00343139       0.01412262       0.01547102
C       -3.31872239       0.28579895      -0.35775432       0.00272365       0.00930593      -0.00220776
C       -3.55589267       1.21192545       0.82128639       0.00000181       0.00525000       0.00016231
C       -1.96315018      -0.43555046      -0.38296271       0.00394157       0.01094092      -0.00688302
C       -5.02977355       1.54176053       0.97531471      -0.00108469       0.00056757       0.00094624
C       -0.75046256       0.48441328      -0.49993441       0.00517380       0.00840886       0.00777540
C       -0.28321494       1.21590713       0.73001396       0.00047129       0.00260284       0.01004954
H       -4.06250397      -0.52173256      -0.32472062       0.00424184       0.00743033      -0.00439116
H       -3.01751424       2.15144896       0.62834726      -0.00249873       0.00711713       0.00221650
H       -1.86160523      -1.02652981       0.52877296       0.00293578       0.00123519      -0.01179419
H       -5.40204515       2.04353079       0.08053964      -0.00279805       0.00068113       0.00163494
H       -5.59257788       0.61876937       1.12338293       0.00190036      -0.00148873      -0.00019795
H       -3.31018609       0.51148006      -2.27817887      -0.03641028      -0.03879924      -0.02335095
H       -3.51449022       1.01867031       2.73903527       0.00156599       0.00114590      -0.00011539
H       -1.01620541       1.98846618       0.97719195      -0.00481001      -0.00565727       0.01874748
H       -0.25827125       0.49793099       1.55228323       0.00603234      -0.00559512       0.00299722
H       -1.31883625      -0.92510802      -2.12539238       0.03283386       0.02301214      -0.00133517
H        1.26820011       2.28148735       1.24505532      -0.00684972       0.00697111       0.01599827
H       -5.02255222       3.23945471       1.95631437      -0.00789422      -0.00043401       0.00261982
O        3.61395170      -2.48559050      -1.98301732      -0.00035879       0.00050886      -0.00134023
O        2.29421564      -3.95018016      -0.91398028       0.03452996       0.06215604       0.00069697
O        5.19988536      -2.18328687       0.70166275       0.00078460       0.00449078      -0.00540244
N        0.77182040      -1.83531662       0.15270828       0.00273848      -0.00908295       0.00218489
N        4.99389643      -0.06266830      -0.05743820      -0.00234591       0.00322128      -0.00391020
C        2.10930645      -1.60120097      -0.37018857      -0.00069810      -0.00076722       0.00166477
C        3.02330944      -1.20872918       0.80264774       0.00127239       0.00026608      -0.00002115
C        2.66246674      -2.82008551      -1.09437896      -0.01749173      -0.08586662       0.01326634
C        4.50840998      -1.20594530       0.47505087       0.00208850       0.00008868      -0.00234228
H        2.07248989      -0.77781564      -1.08790193      -0.00274373      -0.00769583      -0.00032595
H        2.69422427      -0.23240523       1.15957771      -0.00096636       0.00052784      -0.00367565
H        2.89179834      -1.94144913       1.59981701       0.00365171       0.00211105       0.00153820
H        0.81776832      -2.59909382       0.82048654       0.00355178      -0.01391531      -0.00260379
H        0.16448646      -2.16913969      -0.59056709       0.00053429      -0.00468766       0.00156065
H        4.39119384       0.68495083      -0.37970949      -0.00428273       0.00124296      -0.00355243
H        5.95098934      -0.08131094      -0.36695808      -0.00252612       0.00423572      -0.00534159
H        3.98815727      -3.31095787      -2.32583593       0.00209080      -0.00788898       0.00208962
O        3.24578883       2.12450901      -1.08904182      -0.01146400      -0.01031119      -0.00847478
H        2.30949442       1.97715565      -0.87786495      -0.00906053      -0.00317472       0.00701176
H        3.27054038       2.44090434      -1.99598443      -0.02232736      -0.03040368      -0.01399063
44
Properties=species:S:1:pos:R:3:forces:R:3 reactant=T mapped=T (centered)=T charge=0 spin=1 energy=-34182.86935321155 free_energy=-34182.86935321155 stress="-0.3271313509863045 0.42148332957829204 -0.02644536172411014 0.42148332957829204 -0.16007566134588178 -0.006770658132377979 -0.02644536172411014 -0.006770658132377979 -0.03428636735942269" pbc="F F F"
O       -3.47964283       0.77499094      -1.62521039      -0.00013098      -0.00451813      -0.00675227
O       -3.12492716       0.61085949       1.98257562       0.00095470       0.01251111      -0.00536628
O       -1.89043531      -1.60008037      -1.20152572       0.00783738       0.00932453      -0.00187489
O       -5.24238978       2.36946644       1.99460583      -0.00696056       0.00163301      -0.00632320
O       -0.37865283       0.60478500      -1.55681787       0.00173526       0.01895753       0.01265136
O        1.00978366       1.65858583       0.46849758      -0.00545452       0.01563105       0.00981443
C       -3.31182984       0.15728897      -0.36029004      -0.00059392       0.00304350      -0.00298580
C       -3.56068226       1.16876864       0.75547115      -0.00344197       0.00643856      -0.00684190
C       -1.96269143      -0.56944633      -0.24430510       0.00086812       0.00620026       0.00107033
C       -5.02773459       1.54533049       0.85143562      -0.00523053       0.00058366      -0.00526513
C       -0.79746304       0.39873387      -0.43791373      -0.00046395       0.00993104       0.01036944
C       -0.27598093       1.15205163       0.76202183       0.00262357      -0.00515654       0.01916637
H       -4.06987765      -0.62828705      -0.30119435       0.00045211       0.00225104      -0.00219622
H       -2.98980877       2.08334499       0.52810655      -0.00674632       0.00788915      -0.01146295
H       -1.89959937      -1.02693570       0.74004418      -0.00206968       0.00203364      -0.00057273
H       -5.36033952       2.02483306      -0.07056193      -0.00926575      -0.00261097      -0.00575896
H       -5.62092410       0.64438302       1.01482579      -0.00111701      -0.00173744      -0.00230363
H       -2.63708465       1.14384444      -1.92121595      -0.00345155       0.02486430       0.00827104
H       -3.59860737       1.07941103       2.68340143      -0.00004315       0.01287661      -0.00616826
H       -0.97789888       1.96784570       0.96680117      -0.00851654      -0.01608616       0.04517125
H       -0.27037944       0.48394055       1.62226415       0.02230514      -0.02431681       0.00889368
H       -1.70838866      -1.18973977      -2.05796830      -0.01269641       0.01557559      -0.00526148
H        1.31738122       2.18113561       1.21509005      -0.00323287       0.00746618       0.01514404
H       -4.99171459       3.27374692       1.78172546      -0.01272379       0.00280100      -0.00877164
O        3.52676900      -2.37229800      -2.04704315       0.00077075      -0.00442174      -0.00465517
O        2.12250388      -3.82764964      -1.07943749       0.02492164      -0.01242242       0.01494902
O        5.24012142      -2.21171719       0.59593959       0.00620575       0.00285101      -0.00715585
N        0.77572776      -1.72842756       0.21185909       0.00596507      -0.01089212       0.00333888
N        5.01305879      -0.07158927      -0.09879683       0.00087101       0.00360383      -0.00420845
C        2.09854907      -1.52125713      -0.35111972       0.00418976      -0.00737019       0.00074029
C        3.07214823      -1.23521864       0.80285930       0.00490751       0.00011240      -0.00047723
C        2.56376759      -2.71453609      -1.17305127       0.00921026      -0.01365100       0.00476117
C        4.54308258      -1.22872372       0.41889796       0.00393459       0.00264289      -0.00407126
H        2.07157071      -0.65754624      -1.02166663      -0.00074459      -0.00940610      -0.00161699
H        2.77804730      -0.28303088       1.24578645       0.00243676       0.00135698      -0.00322193
H        2.96059568      -2.02240416       1.54970457       0.00885638       0.00208822       0.00269099
H        0.83574234      -2.43003529       0.94259427       0.00702743      -0.03188354      -0.00978127
H        0.15041097      -2.11893830      -0.48808879      -0.00194160       0.00701174      -0.00524456
H        4.40302409       0.68611932      -0.37960623      -0.00223906       0.00163787      -0.00417104
H        5.95759012      -0.08504296      -0.44476946      -0.00038808       0.00500952      -0.00782776
H        3.83385934      -3.18929127      -2.46753124       0.00683578      -0.00621594      -0.00050968
O        3.26226827       2.17748352      -1.02571775      -0.00943184      -0.00832755      -0.01043397
H        2.32390262       1.98770647      -0.86576004      -0.00858367      -0.00247633       0.00192285
H        3.31714836       2.53753963      -1.91491660      -0.01744048      -0.02483323      -0.01767457
44
Properties=species:S:1:pos:R:3:forces:R:3 reactant=T mapped=T (centered)=T charge=0 spin=1 energy=-34182.73424609892 free_energy=-34182.73424609892 stress="-0.8318180673956781 0.5450968291957918 -0.0035567967467275575 0.5450968291957918 -0.211698939978638 0.07144504423161845 -0.0035567967467275575 0.07144504423161845 -0.14482395426234393" pbc="F F F"
O       -3.30795544       0.77502101      -1.59445202      -0.01424248       0.01208330      -0.00355517
O       -3.21374402       0.50364151       2.01506379      -0.00603415       0.00372523      -0.00487124
O       -1.85618954      -1.75215091      -1.06995916       0.00275306       0.02197016      -0.02185163
O       -5.23520056       2.38754767       1.84901662      -0.01142491       0.00051363      -0.00051929
O       -0.26995365       0.37417071      -1.54758441       0.00899251       0.02285301       0.01164679
O        1.08215888       1.46118883       0.62901955      -0.00092091       0.00768977       0.00102776
C       -3.22486087       0.09589529      -0.35140954      -0.00786811       0.00772451      -0.00528118
C       -3.51475259       1.09716343       0.76316401      -0.00943294       0.00502423      -0.00360557
C       -1.90269736      -0.66431318      -0.17655951      -0.00298839       0.01291065      -0.01033723
C       -4.96488281       1.53972078       0.73491201      -0.01099212       0.00162612      -0.00141325
C       -0.71348210       0.25910992      -0.41939088      -0.00907264       0.02300479       0.00130945
C       -0.30941514       1.20524644       0.69141920      -0.00118851       0.00297906       0.01834160
H       -3.99925970      -0.67812846      -0.33572269      -0.00424888       0.00381481      -0.00493087
H       -2.88990601       1.98710312       0.60347547      -0.01169526       0.00670604      -0.00373194
H       -1.87049485      -1.05287113       0.83926317      -0.00216824       0.00447123      -0.01309135
H       -5.19529659       2.02285939      -0.21593867      -0.01376206       0.00145187      -0.00113478
H       -5.60977774       0.66803414       0.85521995      -0.00865056      -0.00007261      -0.00072718
H       -2.44063386       0.78871719      -2.01922331      -0.02019657       0.00295982      -0.01575350
H       -3.71552892       0.99500933       2.67938505      -0.00514667       0.00251927      -0.00287470
H       -0.86816377       2.13203261       0.51782217      -0.01260019       0.00794129       0.04417407
H       -0.60622112       0.79269496       1.65552722       0.01279525      -0.01927382       0.01838782
H       -1.42734216      -1.44492133      -1.88143634       0.02548641       0.02490199      -0.00941005
H        1.30714613       2.08614559       1.32562609       0.00573847       0.00891928      -0.00104934
H       -4.91334002       3.27256008       1.65116650      -0.01609490       0.00200540      -0.00189325
O        3.28482311      -2.20053381      -2.11601219       0.00188995      -0.00636648       0.00311296
O        1.62879435      -3.50557487      -1.35813169       0.01155111      -0.01592483       0.00714010
O        5.25101904      -2.29747673       0.36503450       0.01485547       0.00281437      -0.01408018
N        0.74102082      -1.54610354       0.37025259       0.01029257      -0.01849685       0.01722143
N        5.01546470      -0.12504941      -0.21563133       0.00248981       0.00425991      -0.00514676
C        2.03083921      -1.37893899      -0.28238323       0.00496689      -0.01422513       0.00998229
C        3.12860367      -1.29709831       0.78813242       0.01319683      -0.00671001       0.00272876
C        2.27574594      -2.49504801      -1.28278673       0.00658825      -0.01342861       0.00779906
C        4.56257671      -1.29666874       0.28254834       0.00970265       0.00095076      -0.00636941
H        2.02751718      -0.45214487      -0.86654336      -0.00056642      -0.01402060       0.00917905
H        2.93128849      -0.39652523       1.37324064       0.01198261      -0.00643424       0.00326257
H        3.04300441      -2.16775061       1.43896266       0.02266495      -0.00713570       0.00410275
H        0.86333493      -1.86078608       1.32459180       0.01778202      -0.03168389       0.01620837
H        0.19887769      -2.26005974      -0.11022238       0.00476023      -0.01395310       0.01236651
H        4.41054725       0.66632978      -0.39677400      -0.00257998       0.00166645      -0.00204766
H        5.93535376      -0.13495494      -0.62233609      -0.00065534       0.00836719      -0.01234124
H        3.42482517      -2.97238904      -2.68431609       0.00383192      -0.00579269       0.00210871
O        3.27378391       2.24019882      -0.83597175      -0.00648852      -0.00353679      -0.01214042
H        2.35156819       1.99138633      -0.65909774      -0.00617436      -0.00528435      -0.00998723
H        3.28080526       2.63771099      -1.71096159      -0.00712768      -0.02351421      -0.02195592
44
Properties=species:S:1:pos:R:3:forces:R:3 reactant=T mapped=T (centered)=T charge=0 spin=1 energy=-34182.535634332075 free_energy=-34182.535634332075 stress="-0.8145231513859102 0.46346583217493886 -0.02112867895331103 0.46346583217493886 -0.12218224390896862 -0.00159057465038283 -0.02112867895331103 -0.00159057465038283 -0.05932317534912785" pbc="F F F"
O       -2.90073732       0.61357312      -1.56348679      -0.02088355      -0.00245835      -0.00615399
O       -3.22022301       0.48985558       2.04793153      -0.00805113       0.00716273      -0.00606393
O       -1.75771447      -2.06812771      -0.65833890       0.00359159       0.01690260      -0.01494543
O       -5.18579468       2.38081790       1.61828178      -0.01034198       0.00385643      -0.00817721
O       -0.24518764       0.02129711      -1.54390027       0.00240264       0.03019578       0.01178614
O        1.09535949       1.36283731       0.91841666       0.00154860      -0.00128340       0.00687862
C       -3.01916298      -0.02253470      -0.30618617      -0.01029006       0.00225254      -0.00350822
C       -3.38929524       1.02889472       0.74342885      -0.00988489       0.00427337      -0.00636181
C       -1.78439217      -0.84825319       0.05860291      -0.00403213       0.01077149      -0.00761635
C       -4.82191684       1.48853349       0.56452293      -0.01034282       0.00198135      -0.00609546
C       -0.46722975      -0.10164514      -0.27365640      -0.01272414       0.02495091       0.00018558
C       -0.28765424       1.16580930       0.58537894      -0.00001455       0.00244794       0.02359007
H       -3.84035011      -0.74810429      -0.35436011      -0.00596395      -0.00261765       0.00280782
H       -2.73743498       1.90216131       0.60894281      -0.01065955       0.00456983      -0.00901024
H       -1.84689248      -1.10674056       1.11764052      -0.00221714       0.00512923      -0.00972607
H       -4.95288919       1.93995651      -0.42029683      -0.01199820      -0.00070542      -0.00670943
H       -5.49044385       0.63123712       0.65426971      -0.00895992       0.00118002      -0.00350572
H       -1.96768705       0.52410037      -1.85615478      -0.02139731       0.01062033      -0.00695342
H       -3.79028026       1.00783923       2.63202194      -0.00687341       0.00835104      -0.00650537
H       -0.64650649       1.99205653      -0.03112496      -0.00744208       0.01249432       0.05056150
H       -0.87435464       1.10195126       1.50484911       0.01289048      -0.01990780       0.02449587
H       -1.45148425      -1.84405739      -1.55306312       0.01975244       0.02148551      -0.01150633
H        1.14309982       1.99833640       1.63912828       0.00529783       0.02227509       0.00066682
H       -4.80573660       3.24564287       1.43485757      -0.01563665       0.00509935      -0.01249752
O        2.90843737      -1.94674843      -2.32057087      -0.00057642       0.00073711      -0.00304009
O        1.24065171      -3.13143384      -1.39512289       0.02294243      -0.01560704       0.00715930
O        5.05504976      -2.44199392       0.11306079       0.00666091       0.00212224      -0.02465613
N        0.63498374      -1.17628525       0.33008428       0.00966639      -0.01980003       0.00960710
N        4.98427556      -0.22229066      -0.33002358       0.00379575       0.00419851      -0.00505979
C        1.94803193      -1.09471613      -0.34120923       0.00531368      -0.01394468       0.00469795
C        3.05451835      -1.28381569       0.70141683       0.01115917      -0.00630058      -0.00216179
C        1.96943274      -2.17538127      -1.40434181       0.00474527      -0.01783909       0.00406610
C        4.46205757      -1.38027601       0.12471469       0.00778944      -0.00140670      -0.01142625
H        2.01975409      -0.13449142      -0.84559319      -0.00019778      -0.01427671       0.00379786
H        2.99375891      -0.44226813       1.39512701       0.01082146      -0.00635783      -0.00373573
H        2.88553781      -2.21243990       1.24736455       0.01887797      -0.00607040      -0.00041147
H        0.73057241      -1.08238449       1.33669752       0.02381379      -0.01817935       0.02156327
H        0.21123289      -2.08698831       0.09693402       0.01014794      -0.02482368       0.03850171
H        4.44363929       0.63148456      -0.40586325       0.00197224       0.00254965       0.00287835
H        5.88643147      -0.27264747      -0.77183681      -0.00011380       0.00803591      -0.01318698
H        2.92106065      -2.70482198      -2.92460707       0.00263224       0.00081121      -0.00281371
O        3.30133269       2.23808656      -0.55747284      -0.00129219      -0.00124660       0.00016118
H        2.40500017       2.03572809      -0.23934426      -0.00038878      -0.00958455      -0.00303037
H        3.18914982       2.72824651      -1.37712003      -0.00553969      -0.03204464      -0.01854593
44
Properties=species:S:1:pos:R:3:forces:R:3 reactant=T mapped=T (centered)=T charge=0 spin=1 energy=-34183.09908843478 free_energy=-34183.09908843478 stress="-0.601690213745419 -0.0740941047436503 -0.14312250886392497 -0.0740941047436503 0.058663440652644505 0.30643019154922924 -0.14312250886392497 0.30643019154922924 -0.1557072926894362" pbc="F F F"
O       -2.92537311       0.43627783      -1.50526600      -0.00301537      -0.02577101       0.01194162
O       -3.17473080       0.57512729       2.11620387      -0.00088713       0.01788166       0.00826607
O       -1.75921771      -2.11850582      -0.48747711       0.00436787      -0.00778059       0.03996835
O       -5.18295937       2.38468940       1.62993793      -0.00891670       0.00022426      -0.01288915
O       -0.19780307      -0.15858465      -1.51014803       0.00604024      -0.01856029       0.00910529
O        1.00968945       1.69616878       0.71192864      -0.01081941       0.04490884      -0.01659508
C       -2.97084689      -0.06508991      -0.17532280       0.00698903      -0.00661008       0.02027599
C       -3.35853494       1.05149806       0.79458057       0.00028475       0.00388603       0.00429015
C       -1.72429819      -0.87696001       0.20337588       0.01035085       0.00022133       0.02663491
C       -4.80409818       1.47508439       0.59876881      -0.00141215      -0.00549134      -0.00437013
C       -0.35403567      -0.21213792      -0.08682684       0.01603853      -0.01003814       0.02922756
C       -0.30320425       1.21201726       0.47008521      -0.00139508       0.01031451      -0.01008114
H       -3.78483258      -0.79864201      -0.14210991       0.01030540      -0.00994121       0.03266106
H       -2.72940344       1.93154814       0.61364645      -0.00377364       0.00515258      -0.00316365
H       -1.78337563      -1.10823885       1.26615486       0.01038112       0.01050885       0.02837372
H       -4.94690362       1.90187049      -0.39572659      -0.00061246      -0.01365795      -0.00761083
H       -5.45879574       0.60959027       0.71026655       0.00226785      -0.00763683      -0.00014766
H       -1.99765201       0.49554341      -1.78427125      -0.01660570      -0.01755643       0.00313546
H       -3.74856429       1.10696273       2.68385333      -0.00332182       0.02131403       0.00200640
H       -0.75807942       1.90703845      -0.23346541      -0.01007631      -0.00679196      -0.02376994
H       -0.86575707       1.22335709       1.40576519      -0.00235613       0.02155445      -0.01042721
H       -2.10341371      -1.96396264      -1.37596092      -0.05979367      -0.02367214       0.03496559
H        1.34896814       1.23925265       1.48912631       0.02617078      -0.10429612      -0.01533046
H       -4.81655213       3.25250011       1.43225753      -0.01399424       0.00100706      -0.01815026
O        3.07344567      -1.95339322      -2.07849164       0.01017788       0.01055059       0.02287173
O        1.16020373      -2.92274174      -1.44833040      -0.01765394       0.02805946      -0.00361191
O        5.14414555      -2.40311560       0.30486440       0.00673840      -0.00539256      -0.00011297
N        0.69972134      -1.00471079       0.52506101       0.01151043       0.02674167       0.02899819
N        5.01494380      -0.20551462      -0.21593895       0.00564950      -0.00430854       0.00650997
C        1.98102319      -1.02981163      -0.17589946       0.00582048       0.01082738       0.02267975
C        3.10287393      -1.27981296       0.84275625       0.01016038      -0.00511017       0.01385177
C        2.00592500      -2.07978229      -1.28258032       0.00541241       0.02422936       0.01641079
C        4.51292865      -1.36336722       0.27308357       0.00613370      -0.00454280       0.00618438
H        2.14301638      -0.07311743      -0.66880532       0.02121361       0.01192050       0.02866933
H        3.05663639      -0.46719613       1.57009321       0.01957769      -0.01250924       0.02187528
H        2.91684472      -2.21473436       1.36980581       0.00729369      -0.00774368       0.00700691
H        0.37972466      -1.95426687       0.67110522      -0.04110777      -0.10581870      -0.07844672
H       -0.15326538      -1.09836846      -1.75800456      -0.03550090       0.13277249      -0.23243231
H        4.43991352       0.60974105      -0.38580383       0.00369630      -0.00564150       0.00487930
H        5.90804275      -0.26251327      -0.67526550       0.00083085      -0.00508008      -0.00217307
H        3.05621090      -2.68978532      -2.70918681       0.00367054       0.01525423       0.01971020
O        3.26125603       2.14016370      -0.80806088       0.00691228      -0.00211143      -0.00270499
H        2.38493883       2.15706248      -0.38478128       0.00458453       0.01944093       0.00012396
H        3.30124453       2.89886012      -1.39499768       0.00866332      -0.00070703      -0.00860610
44
Properties=species:S:1:pos:R:3:forces:R:3 reactant=T mapped=T (centered)=T charge=0 spin=1 energy=-34182.952151737496 free_energy=-34182.952151737496 stress="0.0666028602802792 -0.08642715486503243 0.23670425621234534 -0.08642715486503243 0.016407406160833 -0.004993092759241438 0.23670425621234534 -0.004993092759241438 0.04768242452536477" pbc="F F F"
O       -2.99711326       0.88426497      -1.39629986      -0.00585435      -0.00766040       0.00017905
O       -3.03236344       0.44490107       2.15726353      -0.00672139       0.00243056       0.00242496
O       -1.88510091      -2.00475523      -0.72749930       0.00105794      -0.01111953       0.02629109
O       -5.16418705       2.21202845       2.00945279      -0.00583542       0.00114577      -0.00491865
O       -0.22218437      -0.07249843      -1.73391993      -0.01384296      -0.00516576      -0.00059926
O        1.02972263       1.70317997       0.46375922      -0.00084477      -0.00049094      -0.00243775
C       -3.01347078       0.07965145      -0.22270579      -0.00126665      -0.00287026       0.00279019
C       -3.36130962       1.04040490       0.91572211      -0.00341120       0.00011046       0.00024436
C       -1.76603852      -0.78909669       0.00076688      -0.00154219      -0.00069757       0.01078341
C       -4.83844232       1.39101467       0.89094759      -0.00326316       0.00030113      -0.00370918
C       -0.38628201      -0.16221216      -0.30635898      -0.00347972      -0.00155282       0.00246736
C       -0.30386600       1.25628982       0.25304232      -0.00108720      -0.00005943      -0.00108232
H       -3.82577274      -0.65608648      -0.29132232      -0.00101722      -0.00339119       0.00441547
H       -2.79079251       1.96662017       0.77123103      -0.00261051      -0.00039634       0.00015111
H       -1.77425157      -1.08146588       1.04971173      -0.00014421       0.01119399       0.01445705
H       -5.10227970       1.86581061      -0.05627370      -0.00107702      -0.00076754      -0.00481834
H       -5.42651453       0.47934969       1.00695226      -0.00343706       0.00036417      -0.00430550
H       -2.47496630       0.45761878      -2.08352561       0.12311751       0.01275041       0.01579837
H       -3.54357979       0.91389218       2.83006030      -0.00982157       0.00257165       0.00001614
H       -0.77140679       1.95213617      -0.43964763      -0.00088449      -0.00044751      -0.00167814
H       -0.83461682       1.27248036       1.20646896      -0.00107625       0.00255681      -0.00110564
H       -1.87013882      -1.80667705      -1.67116008      -0.02098239      -0.02462584       0.02183089
H        1.38480609       1.17936776       1.19154933      -0.00080588       0.00125438      -0.00113472
H       -4.88511614       3.11438679       1.82508585      -0.00604601       0.00116728      -0.00509590
O        3.21164625      -2.20324223      -1.89490995       0.00469059       0.00619752      -0.00161031
O        1.34476220      -3.19766324      -1.16101833      -0.01022533       0.01684834      -0.02773135
O        5.03298200      -2.34535444       0.65807113       0.00057496      -0.00277383      -0.00063008
N        0.60933198      -1.00764291       0.32825516      -0.00058344      -0.00012090      -0.00220693
N        5.00809688      -0.20641421      -0.08279418       0.00036823      -0.00126732       0.00093742
C        1.95743084      -1.05433765      -0.22986123      -0.00113295       0.00294689      -0.00374434
C        2.98945644      -1.12908330       0.91428829      -0.00133777      -0.00308794      -0.00392933
C        2.11461401      -2.27221665      -1.13229080      -0.00334740       0.00835587      -0.01232486
C        4.43928073      -1.29857968       0.47782213      -0.00136374      -0.00023181      -0.00195292
H        2.14992646      -0.17323698      -0.84036715      -0.00156807       0.00623981       0.00097150
H        2.90004169      -0.21696325       1.50786692      -0.00160572      -0.00561895       0.00010486
H        2.74658268      -1.97244954       1.55897311      -0.00249128      -0.00542324      -0.00749636
H        0.25516546      -1.95863910       0.38132738       0.00048475      -0.00058575      -0.00318230
H        0.07239943      -0.93672433      -2.04807248      -0.01804234      -0.00943151       0.00206107
H        4.46340206       0.59861750      -0.36873364       0.00041147      -0.00085322       0.00027872
H        5.92524510      -0.33002742      -0.47743346       0.00116238       0.00004113       0.00289980
H        3.30752082      -3.05510999      -2.34777843       0.00070494       0.00981818      -0.00938622
O        3.30896088       2.05419057      -1.05422790       0.00083771       0.00021855      -0.00021432
H        2.42884006       2.10180887      -0.63876683       0.00117688       0.00286541      -0.00007240
H        3.58957929       2.96246208      -1.19365136       0.00216226      -0.00073829      -0.00373555
44
Properties=species:S:1:pos:R:3:forces:R:3 reactant=T mapped=T (centered)=T charge=0 spin=1 energy=-34182.8619271559 free_energy=-34182.8619271559 stress="-0.04749377058418433 -0.011786172661028601 -0.008463736301436615 -0.011786172661028601 0.027737146236697374 -0.01313215182465186 -0.008463736301436615 -0.01313215182465186 -0.0010944676294064035" pbc="F F F"
O       -2.99129175       0.82161210      -1.45530001      -0.00312876      -0.00341236       0.00056135
O       -2.95389358       0.44151069       2.12294320       0.00102610       0.00346092       0.00041774
O       -1.85204840      -1.90784418      -0.96936604       0.00002178      -0.00158229       0.00333612
O       -5.10037082       2.19782908       2.02924480      -0.00025088       0.00156173      -0.00154039
O       -0.06092076      -0.03787991      -1.71008551      -0.00066808      -0.00221158      -0.00002265
O        1.04039461       1.72630951       0.48210906      -0.00017531       0.00055936      -0.00063879
C       -2.99677365       0.06582362      -0.24463010      -0.00053900      -0.00135202       0.00142571
C       -3.31585405       1.03585115       0.89077204      -0.00012196       0.00076359      -0.00049206
C       -1.73310813      -0.79384652      -0.09393675       0.00019034      -0.00025452       0.00168558
C       -4.79559441       1.38154677       0.90319092      -0.00032961      -0.00010815      -0.00031922
C       -0.33885301      -0.14448443      -0.32017175      -0.00006338      -0.00013408       0.00022466
C       -0.28673199       1.26802096       0.25236762      -0.00008594       0.00056982      -0.00137974
H       -3.80262049      -0.67674655      -0.27033076      -0.00000692      -0.00197270       0.00410852
H       -2.75418858       1.96437894       0.72837557      -0.00071587       0.00071897      -0.00275732
H       -1.74868012      -1.19975156       0.91757022       0.00088212       0.00113908       0.00229567
H       -5.08356275       1.86091412      -0.03522968      -0.00104222      -0.00186740      -0.00097615
H       -5.37929824       0.46805909       1.03021468       0.00031906      -0.00027385       0.00142550
H       -3.57714799       0.41440988      -2.09729364      -0.00049738      -0.00702165      -0.00037486
H       -3.44316497       0.91170390       2.81111779       0.00103638       0.00442344      -0.00027019
H       -0.74842466       1.96136123      -0.44793077       0.00067833      -0.00011526      -0.00253312
H       -0.82682451       1.27264361       1.19999955      -0.00082469       0.00184213      -0.00182650
H       -1.93231592      -1.55594521      -1.86470808       0.00041855      -0.00367432       0.00304049
H        1.39804411       1.17613951       1.18968056      -0.00070059       0.00068111      -0.00031635
H       -4.82633878       3.10158223       1.84376068      -0.00128604       0.00146566      -0.00333349
O        3.19812250      -2.21845181      -1.86131751       0.00104230       0.00492583      -0.00134332
O        1.37775702      -3.23286838      -1.04183175      -0.00316231       0.00739705      -0.00997410
O        5.06754029      -2.33595831       0.70050204       0.00017417      -0.00227506      -0.00041759
N        0.63421168      -0.98466130       0.38020646       0.00059423       0.00109358       0.00099461
N        5.01590054      -0.20536405      -0.06191897       0.00073417      -0.00144598       0.00229508
C        1.98268349      -1.06067704      -0.17477734       0.00037429       0.00150171       0.00048338
C        3.01577259      -1.13399061       0.96678868       0.00018368      -0.00272352       0.00028509
C        2.12746811      -2.29136641      -1.05972704      -0.00133462       0.00400442      -0.00409991
C        4.46199520      -1.29615914       0.51703298       0.00040547      -0.00234936       0.00056442
H        2.18386847      -0.19154735      -0.79792448       0.00096378       0.00322394       0.00321527
H        2.92611863      -0.22176904       1.56051027       0.00042401      -0.00445786       0.00294861
H        2.78120874      -1.97885215       1.61253223      -0.00033261      -0.00446372      -0.00219267
H        0.27534225      -1.93219653       0.45195101       0.00099204       0.00101414       0.00172448
H        0.04895793      -0.93548438      -2.04942308      -0.00134926      -0.00268414       0.00151701
H        4.46134877       0.59001925      -0.35653660       0.00096285      -0.00129230       0.00254133
H        5.92746604      -0.32904673      -0.46929036       0.00088592      -0.00117262       0.00250357
H        3.29081609      -3.07700708      -2.30173244      -0.00096889       0.00672412      -0.00536941
O        3.31445016       2.04335696      -1.05888867       0.00181784      -0.00034762       0.00225376
H        2.43118919       2.08521828      -0.64846791       0.00145836       0.00108074       0.00128813
H        3.58735116       2.95360779      -1.20005206       0.00199859      -0.00095875      -0.00095839
44
Properties=species:S:1:pos:R:3:forces:R:3 reactant=T mapped=T (centered)=T charge=0 spin=1 energy=-34182.898015001694 free_energy=-34182.898015001694 stress="-0.08300027052784768 -0.005993938102548047 -0.03485093409216314 -0.005993938102548047 0.0066170015579278775 -0.004189696412916697 -0.03485093409216314 -0.004189696412916697 0.03295720849386959" pbc="F F F"
O       -3.01179827       0.53007012      -1.55048705      -0.00066550      -0.00846328      -0.00177777
O       -2.98437830       0.49045893       2.08423489      -0.00054498       0.00308529      -0.00046308
O       -1.74808740      -1.91307514      -0.98238559       0.00228230      -0.00152754       0.00294132
O       -5.10068503       2.25342007       1.88027089      -0.00075856       0.00189318      -0.00447395
O       -0.02604312       0.03421846      -1.65001322       0.00020530      -0.00002601       0.00138528
O        1.05276541       1.71441519       0.61359075       0.00030687       0.00024089       0.00210523
C       -2.99246370      -0.03193090      -0.23941723       0.00009526      -0.00270960       0.00106858
C       -3.31384873       1.02392025       0.81582894      -0.00013405       0.00023558      -0.00180017
C       -1.68829720      -0.81810022      -0.07630189       0.00113477      -0.00069785       0.00206097
C       -4.78934966       1.39263777       0.79178938      -0.00022990       0.00008218      -0.00287422
C       -0.31281420      -0.11909952      -0.27514541       0.00059249       0.00027262       0.00133587
C       -0.27290347       1.27642135       0.34236080       0.00039821       0.00043280       0.00117881
H       -3.76373736      -0.80868888      -0.15726413       0.00105411      -0.00355617       0.00437787
H       -2.73289351       1.93105788       0.61002000      -0.00004748      -0.00025636      -0.00382332
H       -1.69844132      -1.23355740       0.93187289       0.00163311       0.00047045       0.00255941
H       -5.06360846       1.84814619      -0.16451557      -0.00017515      -0.00145762      -0.00367118
H       -5.39001974       0.49356216       0.94149341      -0.00014757       0.00024867      -0.00153776
H       -3.91799552       0.57425004      -1.86785395      -0.00799209       0.00126582       0.00561015
H       -3.48057498       0.99852875       2.73987138      -0.00094483       0.00437514      -0.00169270
H       -0.70814911       1.99314245      -0.35160452       0.00114866       0.00038080       0.00063383
H       -0.83542844       1.26222033       1.27692655      -0.00031869       0.00085383       0.00076652
H       -2.12278457      -1.56663131      -1.80346930      -0.00436281      -0.00282495       0.00411409
H        1.40422208       1.09339986       1.26488367       0.00009708      -0.00078724       0.00141397
H       -4.78928062       3.14176105       1.67868097      -0.00056855       0.00157025      -0.00571744
O        3.10544459      -2.21350351      -1.93652153      -0.00138634       0.00476780      -0.00339928
O        1.42584230      -3.27876558      -0.90523184       0.00008034       0.00306717      -0.00323941
O        5.07647105      -2.37004626       0.56078391      -0.00046862      -0.00187099      -0.00360573
N        0.67305376      -0.96209450       0.41719027       0.00120500       0.00083361       0.00141024
N        5.05142407      -0.21870188      -0.14466644       0.00131032      -0.00109060       0.00049532
C        2.00464226      -1.05280758      -0.17482877       0.00072679       0.00118599       0.00034383
C        3.07040930      -1.11931932       0.93708446       0.00109287      -0.00160365      -0.00022731
C        2.11929363      -2.30431941      -1.03296103      -0.00084224       0.00216952      -0.00222110
C        4.49389140      -1.30893502       0.43110297       0.00124834      -0.00286473      -0.00110441
H        2.19204743      -0.19512434      -0.81692243       0.00087103       0.00225809       0.00193311
H        3.01495503      -0.19573748       1.51720314       0.00198478      -0.00263696       0.00141690
H        2.84685503      -1.95288116       1.60113710       0.00078882      -0.00269182      -0.00165116
H        0.31675465      -1.90900856       0.50632324       0.00159197       0.00069567       0.00160387
H       -0.12286707      -0.83833432      -2.05465264      -0.00446480       0.00005474       0.00090496
H        4.50474729       0.60085574      -0.38250160       0.00176951      -0.00073520       0.00183176
H        5.94152559      -0.35192484      -0.59394619       0.00103093      -0.00139153      -0.00033184
H        3.20029087      -3.08572192      -2.34868977      -0.00214163       0.00547928      -0.00530254
O        3.32637333       2.09017107      -0.93168185       0.00139171       0.00019914       0.00340515
H        2.44706754       2.09600362      -0.51008980       0.00124649       0.00081160       0.00313388
H        3.59837317       3.00964777      -0.99149881       0.00090707       0.00026204       0.00088330
44
Properties=species:S:1:pos:R:3:forces:R:3 reactant=T mapped=T (centered)=T charge=0 spin=1 energy=-34182.91573319923 free_energy=-34182.91573319923 stress="-0.029489549306534222 0.0024547163055197384 -0.0007663194679458103 0.0024547163055197384 0.0043976718485992045 -0.008572839448444353 -0.0007663194679458103 -0.008572839448444353 0.014498027303128743" pbc="F F F"
O       -3.07250562       0.33865213      -1.54176680      -0.00029220      -0.00418025       0.00065373
O       -2.99402556       0.61848125       2.08355071      -0.00115946       0.00312409       0.00014062
O       -1.73502314      -1.99429319      -0.82050903       0.00071914      -0.00197126       0.00534899
O       -5.10125744       2.36271435       1.74299123      -0.00093218       0.00231337      -0.00410088
O       -0.08070493      -0.00990374      -1.63399452      -0.00105581      -0.00074956       0.00131726
O        1.05738987       1.68345173       0.65815632       0.00028234      -0.00054685       0.00220229
C       -3.00608789      -0.09532246      -0.18434497       0.00007985      -0.00118242       0.00158131
C       -3.32049862       1.04810610       0.77548477      -0.00027999       0.00072976      -0.00087231
C       -1.68338357      -0.84221397       0.01214733       0.00037617      -0.00028023       0.00302701
C       -4.79439913       1.42126485       0.72206437      -0.00025309       0.00075086      -0.00247768
C       -0.32158688      -0.13840976      -0.24752171       0.00006821      -0.00033949       0.00158715
C       -0.26768285       1.26808186       0.35069500       0.00036933      -0.00015933       0.00131355
H       -3.76005529      -0.87338926      -0.00681965       0.00038098      -0.00103684       0.00340606
H       -2.73424052       1.93164328       0.49493746       0.00001917       0.00011125      -0.00215695
H       -1.67155105      -1.19047755       1.04586894       0.00062698       0.00176386       0.00370756
H       -5.06619249       1.80600178      -0.26530945       0.00048518      -0.00072547      -0.00325744
H       -5.39959285       0.53880599       0.93843309      -0.00048609       0.00111756      -0.00156493
H       -3.99049187       0.35751833      -1.82673627      -0.00034790      -0.00541770       0.00071249
H       -3.48851700       1.18063768       2.69491199      -0.00160703       0.00419950      -0.00123032
H       -0.66604868       1.98267325      -0.36705530       0.00117850      -0.00017164       0.00085381
H       -0.85788943       1.28338547       1.26784192      -0.00032351       0.00040612       0.00086385
H       -2.15779407      -1.71816563      -1.64486427       0.00059028      -0.00387034       0.00479753
H        1.38717501       1.03707774       1.29695636      -0.00005911      -0.00107222       0.00187910
H       -4.78982243       3.23274134       1.47317150      -0.00098350       0.00193389      -0.00534140
O        3.06310742      -2.09630748      -2.04544904      -0.00042216       0.00477893      -0.00266964
O        1.41885471      -3.22251177      -1.02173065      -0.00187533       0.00246365      -0.00578812
O        5.05380403      -2.42853599       0.39973213       0.00034351      -0.00185542      -0.00339519
N        0.68857536      -0.96658666       0.42658257       0.00062347      -0.00012701       0.00088840
N        5.07862513      -0.23635807      -0.16702260       0.00052360      -0.00077729       0.00019077
C        2.00743751      -1.03210514      -0.19802338       0.00027372       0.00065381       0.00000255
C        3.09139618      -1.14954509       0.89135362       0.00061984      -0.00209530      -0.00068193
C        2.10407336      -2.23885245      -1.11966919       0.00009727       0.00407847      -0.00314969
C        4.50071611      -1.34504446       0.34981042       0.00023808      -0.00117847      -0.00150911
H        2.18360518      -0.14438464      -0.80098461       0.00030322       0.00209496       0.00203584
H        3.05852961      -0.24440789       1.50148286       0.00106927      -0.00338874       0.00132907
H        2.86731542      -2.00236309       1.53041328       0.00053425      -0.00338683      -0.00241734
H        0.34766798      -1.92004961       0.51100879       0.00093757      -0.00032267       0.00032928
H       -0.20137024      -0.88732621      -2.02151732      -0.00096701      -0.00091176       0.00168831
H        4.55117268       0.61228758      -0.33617390       0.00043785      -0.00055324       0.00118466
H        5.95598000      -0.36411940      -0.64219559       0.00020481      -0.00024582      -0.00048676
H        3.15116092      -2.94677311      -2.50212287      -0.00111608       0.00611091      -0.00510448
O        3.40116356       2.16708747      -0.74352393       0.00019962      -0.00023872       0.00212934
H        2.50294894       2.13674354      -0.36529218       0.00042115       0.00021931       0.00274756
H        3.69002256       3.08009089      -0.66496834       0.00015663      -0.00006550       0.00028615
44
Properties=species:S:1:pos:R:3:forces:R:3 reactant=T mapped=T (centered)=T charge=0 spin=1 energy=-34182.88631766859 free_energy=-34182.88631766859 stress="-0.012963311587101607 -0.0020387805995365276 0.04812772723172073 -0.0020387805995365276 0.05921797817207292 0.07462400081808629 0.04812772723172073 0.07462400081808629 0.015968661827570375" pbc="F F F"
O       -3.18752760       0.35740385      -1.54010596       0.00791953      -0.00099473      -0.00016710
O       -2.85953514       0.62423423       2.06979278      -0.00701986      -0.00099643       0.00109059
O       -1.83023999      -1.98199005      -0.94970676       0.00487935      -0.00306553       0.01022672
O       -4.97200853       2.38998718       1.88307536      -0.00717479      -0.00159587      -0.00761024
O       -0.12737269      -0.06397908      -1.75348831       0.00218700      -0.00162163       0.00580098
O        1.04634496       1.64460822       0.52186543      -0.00033590       0.00508292      -0.00037985
C       -3.04793883      -0.09326150      -0.19322387       0.00222890      -0.00065907       0.00043290
C       -3.29068734       1.04841825       0.79004767      -0.00192938      -0.00082181      -0.00047540
C       -1.72575966      -0.86149029      -0.08013472       0.00201426       0.00047580       0.00623763
C       -4.76244879       1.42422106       0.85964654      -0.00226889      -0.00131827      -0.00676043
C       -0.35603805      -0.17377786      -0.36208633       0.00140746       0.00092768       0.00599975
C       -0.28234069       1.23968234       0.21573114      -0.00017517       0.00202866       0.00354823
H       -3.80044846      -0.86410082       0.01786108       0.00165804      -0.00086824      -0.00249272
H       -2.73065469       1.93160775       0.45850568      -0.00082109      -0.00061189       0.00210365
H       -1.68016956      -1.24677562       0.93901911       0.00028214       0.00416561       0.00765682
H       -5.12295304       1.78742420      -0.10718200       0.00189372      -0.00126059      -0.00831154
H       -5.34621929       0.54931121       1.15139523      -0.00332578      -0.00152025      -0.00957048
H       -4.11776351       0.35402881      -1.78285679       0.00875304       0.00299729      -0.00283356
H       -3.28760043       1.20257775       2.71521898      -0.01099070      -0.00228846      -0.00041376
H       -0.67209823       1.94856664      -0.51242221      -0.00333473       0.00025004       0.00351732
H       -0.86793544       1.27423926       1.13305235       0.00152823       0.00211838       0.00482096
H       -2.26138774      -1.65947829      -1.75329233       0.00595004      -0.00704320       0.00817235
H        1.35214471       1.03163568       1.20269626       0.00320134       0.00592478      -0.00109687
H       -4.68027246       3.25144600       1.56735360      -0.00359369      -0.00196241      -0.00517021
O        3.16456445      -2.19980599      -1.97879057      -0.00768304       0.00717381      -0.00368947
O        1.49229305      -3.30744964      -0.97896786      -0.00626111       0.00977364      -0.00778799
O        5.00361577      -2.37596619       0.51188803       0.00317561      -0.00624099      -0.00548339
N        0.64145509      -1.01077088       0.31348296       0.00226507       0.00419484       0.00794747
N        5.08303862      -0.18814778      -0.06662114      -0.00000243      -0.00460024      -0.00428054
C        1.98460104      -1.05769660      -0.26002528       0.00098362       0.00033470       0.00412966
C        3.02856436      -1.07584968       0.87703775       0.00298537      -0.00560751       0.00195534
C        2.15875093      -2.31343058      -1.10090312      -0.00508058       0.00715172      -0.00242030
C        4.46532580      -1.28740433       0.42094355       0.00023176      -0.00231831      -0.00306182
H        2.15318278      -0.20008084      -0.90807137       0.00186816       0.00525770       0.00846646
H        2.95980917      -0.13098319       1.41936091       0.00483988      -0.00831451       0.00755821
H        2.78382404      -1.88410212       1.56436492       0.00380122      -0.00895023      -0.00162513
H        0.30499065      -1.96796836       0.37155123       0.00273380       0.00395162       0.01112222
H       -0.24758928      -0.94802636      -2.12610258       0.00276161      -0.00230590       0.00770563
H        4.58317768       0.67513796      -0.24548577      -0.00199559      -0.00422817      -0.00341384
H        5.99543545      -0.31850048      -0.46914595      -0.00298810      -0.00390336      -0.00874215
H        3.31261764      -3.07647131      -2.36504900      -0.01143748       0.01142586      -0.01130933
O        3.47399567       2.24653525      -0.65479536       0.00116230      -0.00126046      -0.00312733
H        2.54413373       2.15772536      -0.37617084       0.00069147       0.00317870      -0.00374016
H        3.72512384       3.14871682      -0.43926335       0.00501540      -0.00205566      -0.00452944
