44
Properties=species:S:1:pos:R:3:forces:R:3 reactant=T mapped=T (centered)=T charge=0 spin=1 energy=-34182.561910429846 free_energy=-34182.561910429846 stress="-0.44114123721104676 0.350272768334816 -0.007535401578509864 0.350272768334816 -0.1118902562128794 -0.01638770311159114 -0.007535401578509864 -0.01638770311159114 -0.11938822876836484" pbc="F F F"
O       -2.91547086       0.55806241      -1.57536832      -0.01227293       0.00042144      -0.00471521
O       -3.24432566       0.52854671       2.04015028      -0.00533796       0.00488757      -0.00484311
O       -1.73205461      -2.06090750      -0.63260305       0.00194805       0.01188305      -0.01226946
O       -5.21711942       2.39737121       1.55049913      -0.00639480       0.00365335      -0.00703051
O       -0.23456143       0.07388235      -1.49583763      -0.00003306       0.02586271       0.00845019
O        1.10734456       1.35854794       0.97327988       0.00449584      -0.00977447       0.01029637
C       -3.02034523      -0.03611563      -0.29691794      -0.00721902       0.00240797      -0.00394289
C       -3.40111340       1.03927133       0.72296195      -0.00620102       0.00318407      -0.00505563
C       -1.77580186      -0.84022582       0.08313838      -0.00369483       0.00734966      -0.00683704
C       -4.83481940       1.48750942       0.51864387      -0.00627620       0.00197757      -0.00503568
C       -0.46324259      -0.07825090      -0.23337680      -0.01006151       0.01809115      -0.00206250
C       -0.27949499       1.16542954       0.65736769       0.00146766      -0.00130265       0.02130160
H       -3.83347447      -0.77166008      -0.32083300      -0.00489275      -0.00013279      -0.00084785
H       -2.74994063       1.91136060       0.57615726      -0.00620237       0.00309286      -0.00650631
H       -1.84585096      -1.09911747       1.14150252      -0.00275433       0.00278365      -0.00829771
H       -4.95826299       1.91831829      -0.47620812      -0.00707720      -0.00046478      -0.00569607
H       -5.49859492       0.62734399       0.61741439      -0.00530703       0.00142258      -0.00303190
H       -1.97180771       0.52271967      -1.84244718      -0.01251067       0.00842554      -0.00419878
H       -3.82118906       1.05792873       2.60714847      -0.00416210       0.00601437      -0.00514757
H       -0.64885280       2.00685690       0.06811306      -0.00257175       0.00895238       0.04269605
H       -0.85653937       1.07680693       1.58123175       0.01069685      -0.01898856       0.02240578
H       -1.45739594      -1.83376731      -1.53589820       0.02097099       0.01633758      -0.01135538
H        1.16666286       1.99680269       1.69057941       0.00261929       0.02523698       0.00622220
H       -4.85362472       3.26484519       1.34764595      -0.01095679       0.00459303      -0.01113628
O        2.88339303      -1.91171000      -2.33874656       0.00163494       0.00026251      -0.00538762
O        1.24453293      -3.12270237      -1.39650207       0.01868053      -0.00767492       0.00080137
O        5.05988088      -2.45358330       0.01840278       0.00380395       0.00181022      -0.01396028
N        0.65020255      -1.17930378       0.35334853       0.00430470      -0.01699586       0.00001632
N        4.99499464      -0.21994285      -0.35044297       0.00155688       0.00272397      -0.00449083
C        1.95659050      -1.09428904      -0.32863617       0.00260517      -0.00964261      -0.00151372
C        3.08147173      -1.30123652       0.69167661       0.00518816      -0.00351856      -0.00446641
C        1.96519027      -2.16040800      -1.40656979       0.00013162      -0.01756626      -0.00185640
C        4.47528861      -1.38894250       0.07936191       0.00373958       0.00020513      -0.00809531
H        2.02726594      -0.12774147      -0.82072473      -0.00327485      -0.00992692      -0.00221106
H        3.03703712      -0.47142722       1.40054390       0.00314709      -0.00295398      -0.00634368
H        2.92418299      -2.23915999       1.22507725       0.00974562      -0.00307718      -0.00314683
H        0.75423959      -1.11158208       1.36091984       0.02113600       0.00165681       0.02488584
H        0.21478491      -2.07927125       0.10204044       0.01247313      -0.03525652       0.05583679
H        4.45098307       0.63385427      -0.40020487       0.00002905       0.00167294      -0.00105345
H        5.88100569      -0.26385923      -0.82471259       0.00011595       0.00527517      -0.00741899
H        2.89223655      -2.66375289      -2.95026937       0.00502209      -0.00032680      -0.00502091
O        3.28977212       2.22093009      -0.55671119      -0.00402424      -0.00052222      -0.00176069
H        2.40223728       2.01936016      -0.21407584      -0.00288293      -0.00885755      -0.00292835
H        3.15458515       2.64320853      -1.41011987      -0.01140490      -0.02320165      -0.01524772
