44
Properties=species:S:1:pos:R:3 reactant=T mapped=T (centered)=T charge=0 spin=1 pbc="F F F"
O       -2.90073732       0.61357312      -1.56348679
O       -3.22022301       0.48985558       2.04793153
O       -1.75771447      -2.06812771      -0.65833890
O       -5.18579468       2.38081790       1.61828178
O       -0.24518764       0.02129711      -1.54390027
O        1.09535949       1.36283731       0.91841666
C       -3.01916298      -0.02253470      -0.30618617
C       -3.38929524       1.02889472       0.74342885
C       -1.78439217      -0.84825319       0.05860291
C       -4.82191684       1.48853349       0.56452293
C       -0.46722975      -0.10164514      -0.27365640
C       -0.28765424       1.16580930       0.58537894
H       -3.84035011      -0.74810429      -0.35436011
H       -2.73743498       1.90216131       0.60894281
H       -1.84689248      -1.10674056       1.11764052
H       -4.95288919       1.93995651      -0.42029683
H       -5.49044385       0.63123712       0.65426971
H       -1.96768705       0.52410037      -1.85615478
H       -3.79028026       1.00783923       2.63202194
H       -0.64650649       1.99205653      -0.03112496
H       -0.87435464       1.10195126       1.50484911
H       -1.45148425      -1.84405739      -1.55306312
H        1.14309982       1.99833640       1.63912828
H       -4.80573660       3.24564287       1.43485757
O        2.90843737      -1.94674843      -2.32057087
O        1.24065171      -3.13143384      -1.39512289
O        5.05504976      -2.44199392       0.11306079
N        0.63498374      -1.17628525       0.33008428
N        4.98427556      -0.22229066      -0.33002358
C        1.94803193      -1.09471613      -0.34120923
C        3.05451835      -1.28381569       0.70141683
C        1.96943274      -2.17538127      -1.40434181
C        4.46205757      -1.38027601       0.12471469
H        2.01975409      -0.13449142      -0.84559319
H        2.99375891      -0.44226813       1.39512701
H        2.88553781      -2.21243990       1.24736455
H        0.73057241      -1.08238449       1.33669752
H        0.21123289      -2.08698831       0.09693402
H        4.44363929       0.63148456      -0.40586325
H        5.88643147      -0.27264747      -0.77183681
H        2.92106065      -2.70482198      -2.92460707
O        3.30133269       2.23808656      -0.55747284
H        2.40500017       2.03572809      -0.23934426
H        3.18914982       2.72824651      -1.37712003
