44
Properties=species:S:1:pos:R:3 reactant=T mapped=T (centered)=T charge=0 multiplicity=1 pbc="F F F"
O       -3.22568112       1.16951303      -1.61365112
O       -3.20641185       0.78905911       1.96577096
O       -1.74478442      -1.08012749      -1.49288585
O       -5.26178621       2.59909318       1.83072017
O        0.00501089       0.87966470      -1.14329544
O        0.82191461       1.91253732       1.16529773
C       -3.19386953       0.43514564      -0.42636115
C       -3.48236202       1.39867955       0.72480191
C       -1.84576823      -0.33767454      -0.30334852
C       -4.94940732       1.84881638       0.68112403
C       -0.63959627       0.57800282      -0.16883727
C       -0.24920814       0.99855150       1.23396838
H       -3.96726904      -0.35020943      -0.44082021
H       -2.83953782       2.28622689       0.59392019
H       -1.91811231      -1.00396482       0.56508296
H       -5.13840083       2.40069393      -0.24377838
H       -5.59919328       0.97081688       0.71536945
H       -2.90623072       0.57660815      -2.31153528
H       -3.91537709       1.05816129       2.57091130
H       -1.11596232       1.41279571       1.75557121
H        0.04716914       0.09164728       1.78314023
H       -0.86509380      -0.93412803      -1.87099723
H        1.06699020       2.19024279       2.05368823
H       -4.82830560       3.45837432       1.77588961
O        3.66484872      -3.13099399      -1.90470403
O        2.92744867      -4.14484251      -0.05576709
O        5.26986870      -1.75213120       0.14665296
N        0.87057054      -2.28709627      -0.02864253
N        4.66630380       0.23981881      -0.71146374
C        2.17948761      -1.90746215      -0.52288770
C        2.99937210      -1.04465036       0.46896306
C        2.96058413      -3.18891718      -0.78035718
C        4.42984916      -0.89398670      -0.03462624
H        2.06633658      -1.36168781      -1.46617620
H        2.52522399      -0.06937207       0.57818674
H        3.02928211      -1.55923727       1.43214597
H        0.97312541      -3.07059552       0.61036781
H        0.44133363      -1.52218378       0.47452911
H        3.96092727       0.95490260      -0.86837305
H        5.58707781       0.37727374      -1.09424369
H        4.21729829      -3.92358286      -1.99856238
O        2.59799021       2.15244407      -1.14075649
H        2.05226145       1.91400455      -1.89491406
H        1.98535943       2.18020171      -0.39373649
44
Properties=species:S:1:pos:R:3 reactant=T mapped=T (centered)=T charge=0 multiplicity=1 pbc="F F F"
O       -3.21410210       1.08530604      -1.61220923
O       -3.17033911       0.82180026       1.97841589
O       -1.77221353      -1.19940985      -1.40683913
O       -5.25301977       2.59790103       1.80212444
O       -0.01679753       0.77869116      -1.25368692
O        0.76169912       1.96824223       1.08323238
C       -3.18815464       0.38959421      -0.40315343
C       -3.46767579       1.38512899       0.72021622
C       -1.85493949      -0.38409727      -0.26477803
C       -4.93968340       1.80483521       0.68176458
C       -0.66002138       0.55960737      -0.24866746
C       -0.28398972       1.06526533       1.11339770
H       -3.95251178      -0.40425280      -0.38605360
H       -2.84719448       2.28096239       0.54515442
H       -1.92628962      -0.99902843       0.64297612
H       -5.14685222       2.31326923      -0.26379309
H       -5.57417861       0.91926161       0.76536176
H       -2.89122872       0.47253128      -2.29069192
H       -3.86410386       1.11886964       2.58682875
H       -1.10215971       1.50292608       1.68734423
H       -0.00314122       0.17650306       1.70058186
H       -0.90347580      -1.09135195      -1.82228180
H        1.09873009       2.20207264       1.95234369
H       -4.83386763       3.46005716       1.69937808
O        3.55203378      -3.03952495      -1.98076941
O        2.76008941      -4.10108773      -0.15011457
O        5.29373338      -1.80094952       0.08553312
N        0.89299303      -2.25846972      -0.05171537
N        4.71657824       0.22797015      -0.64322420
C        2.17863203      -1.82152103      -0.53635530
C        3.04786396      -1.07835017       0.49586137
C        2.86441440      -3.13316493      -0.85056697
C        4.46101608      -0.92926108      -0.02769411
H        2.09900557      -1.23813294      -1.45809621
H        2.61424131      -0.09828422       0.68481640
H        3.06702234      -1.66057671       1.41906322
H        0.93329660      -2.96585018       0.67567065
H        0.42107974      -1.32245467       0.36752567
H        4.01881122       0.95402754      -0.74615076
H        5.63013237       0.38661306      -1.03101044
H        4.04764684      -3.86311923      -2.11105603
O        2.67078997       2.13584153      -1.00880737
H        2.06366189       1.85075036      -1.69604487
H        2.12574528       2.24129183      -0.22844966
44
Properties=species:S:1:pos:R:3 reactant=T mapped=T (centered)=T charge=0 multiplicity=1 pbc="F F F"
O       -3.20767376       1.00565329      -1.60970282
O       -3.13818510       0.85069427       1.99030184
O       -1.81036315      -1.31730557      -1.31950172
O       -5.24430414       2.59573782       1.77641680
O       -0.05014539       0.68725045      -1.37310469
O        0.69963132       2.04108178       0.99387084
C       -3.18536560       0.34585991      -0.38043755
C       -3.45565467       1.37042895       0.71770516
C       -1.86524402      -0.43309429      -0.22841089
C       -4.93160968       1.76299676       0.68512843
C       -0.70078445       0.56498798      -0.34333399
C       -0.32575803       1.12639021       0.99257783
H       -3.94100893      -0.45473237      -0.33281354
H       -2.85956668       2.27376741       0.50023804
H       -1.92777226      -1.00270215       0.71194345
H       -5.15568237       2.22924885      -0.27812723
H       -5.54990493       0.87192364       0.81547668
H       -2.88249485       0.37608704      -2.27113899
H       -3.81611567       1.17574948       2.60122195
H       -1.09333988       1.58426628       1.62230603
H       -0.04609248       0.26026520       1.61880938
H       -0.96805353      -1.25313184      -1.79497658
H        1.07139797       2.20622904       1.86812811
H       -4.84019821       3.45872224       1.62892534
O        3.44660989      -2.95358328      -2.05271440
O        2.59870597      -4.06071591      -0.24969388
O        5.31416406      -1.84778492       0.02136625
N        0.92755811      -2.21564753      -0.00980549
N        4.76878368       0.20957395      -0.58003239
C        2.18544870      -1.74331464      -0.54577150
C        3.09351738      -1.11225075       0.52116397
C        2.76932862      -3.08028696      -0.92011693
C        4.49044159      -0.96606210      -0.02483052
H        2.14070250      -1.12643800      -1.44698016
H        2.70443324      -0.13494417       0.79774931
H        3.10957119      -1.76005174       1.39910465
H        0.88718145      -2.87299372       0.75682982
H        0.44022791      -1.11850782       0.23146528
H        4.08191395       0.94544433      -0.62921574
H        5.67380221       0.39316718      -0.97320283
H        3.88302931      -3.80255727      -2.22171837
O        2.74320569       2.11950345      -0.89038349
H        2.08492525       1.80281660      -1.50752570
H        2.33401431       2.30869088      -0.05180906
44
Properties=species:S:1:pos:R:3 reactant=T mapped=T (centered)=T charge=0 multiplicity=1 pbc="F F F"
O       -3.20531663       0.92906099      -1.60509433
O       -3.10754013       0.87546612       2.00172917
O       -1.85272520      -1.43410849      -1.22291503
O       -5.23543484       2.59196704       1.75417734
O       -0.09424552       0.62042325      -1.49762832
O        0.64943449       2.11806178       0.87364251
C       -3.18032511       0.30226078      -0.35670273
C       -3.44486635       1.35368437       0.71733612
C       -1.87071727      -0.48288323      -0.18992513
C       -4.92400004       1.72298863       0.69127560
C       -0.74827708       0.57676703      -0.44191456
C       -0.36375006       1.18829414       0.87258741
H       -3.92959326      -0.50160157      -0.28070126
H       -2.87510309       2.26395927       0.46013340
H       -1.91817053      -1.01503731       0.77566406
H       -5.16404567       2.14913707      -0.28665587
H       -5.52590905       0.82845357       0.86507673
H       -2.87768557       0.28513284      -2.25122951
H       -3.77030211       1.22742632       2.61372940
H       -1.08460757       1.66173520       1.55202801
H       -0.08387181       0.33664105       1.52442230
H       -1.04610000      -1.43428090      -1.75997902
H        1.00794803       2.23015474       1.76681341
H       -4.84681858       3.45418191       1.56563956
O        3.34652051      -2.87424764      -2.11776775
O        2.43422968      -4.01499046      -0.34991373
O        5.33131315      -1.89110497      -0.04482706
N        0.96797461      -2.12366903       0.09846862
N        4.82024681       0.18748629      -0.52366370
C        2.20020566      -1.67455989      -0.54941293
C        3.13672837      -1.14687939       0.54497755
C        2.66804762      -3.02637266      -0.98793093
C        4.51789955      -1.00261075      -0.02581496
H        2.20388866      -1.02928048      -1.43520613
H        2.78525044      -0.18480976       0.90993085
H        3.15540610      -1.85872782       1.37150833
H        0.83380995      -2.79204607       0.83375979
H        0.47035751      -0.92013065       0.02768554
H        4.14607985       0.93134213      -0.52115311
H        5.71638526       0.39754373      -0.92158327
H        3.72355343      -3.74149820      -2.32712699
O        2.79519523       2.11098852      -0.73888904
H        2.14215564       1.76868519      -1.33502931
H        2.55005146       2.34742930       0.16585966
44
Properties=species:S:1:pos:R:3 reactant=T mapped=T (centered)=T charge=0 multiplicity=1 pbc="F F F"
O       -3.20360301       0.85240035      -1.59726279
O       -3.07650193       0.89796689       2.01368423
O       -1.89713406      -1.54907872      -1.11354905
O       -5.22597580       2.58606584       1.73542797
O       -0.14741991       0.59337089      -1.62192601
O        0.59520779       2.20698059       0.71977534
C       -3.17013036       0.25744334      -0.33046610
C       -3.43375040       1.33421298       0.71933150
C       -1.86800539      -0.53534078      -0.14633693
C       -4.91579203       1.68331270       0.70069888
C       -0.78750131       0.56877623      -0.52665561
C       -0.40064692       1.25540432       0.74957289
H       -3.91650123      -0.54572985      -0.22854391
H       -2.89239689       2.25044655       0.42367492
H       -1.90295267      -1.03459761       0.83869603
H       -5.17153657       2.07053269      -0.28947617
H       -5.50107717       0.78708046       0.91572749
H       -2.87306749       0.19471335      -2.22822592
H       -3.72508354       1.27532171       2.62548317
H       -1.07370656       1.75002862       1.47645229
H       -0.12552469       0.41598079       1.41891685
H       -1.12822375      -1.64668664      -1.69194201
H        0.94522110       2.29277865       1.62425093
H       -4.85358717       3.44625129       1.50844323
O        3.24824272      -2.80006664      -2.17740604
O        2.25678630      -3.95177985      -0.44577318
O        5.34539360      -1.93056885      -0.11450472
N        0.99950593      -1.96241688       0.24382164
N        4.87054983       0.16383850      -0.47214101
C        2.22427752      -1.61118431      -0.54080148
C        3.17889294      -1.18201948       0.56953058
C        2.55885780      -2.96497926      -1.05211195
C        4.54410376      -1.03791171      -0.02913852
H        2.30187567      -0.94527554      -1.41848848
H        2.84486859      -0.24773657       1.01293585
H        3.19955258      -1.96037621       1.33361977
H        0.78284386      -2.70471575       0.87776398
H        0.49462561      -0.77656764      -0.27389414
H        4.21283007       0.91612972      -0.41571196
H        5.75723936       0.40097921      -0.87466621
H        3.56487282      -3.67853777      -2.42908397
O        2.83130758       2.10409269      -0.51933476
H        2.25266392       1.73495076      -1.17264533
H        2.73367604       2.33694289       0.41765940
44
Properties=species:S:1:pos:R:3 reactant=T mapped=T (centered)=T charge=0 multiplicity=1 pbc="F F F"
O       -3.19633295       0.77312125      -1.58259390
O       -3.04680784       0.92048275       2.02832394
O       -1.94524388      -1.66523164      -0.99302609
O       -5.21527653       2.57813454       1.72033997
O       -0.21240225       0.59956506      -1.73021867
O        0.52624258       2.33259836       0.49817697
C       -3.15256578       0.20843059      -0.29945144
C       -3.42016833       1.31120500       0.72463419
C       -1.85563445      -0.60245971      -0.09676832
C       -4.90625859       1.64230938       0.71470298
C       -0.78976106       0.48482956      -0.57283638
C       -0.43648918       1.35139820       0.60592323
H       -3.90133686      -0.58937588      -0.17381692
H       -2.90720837       2.23070686       0.39272435
H       -1.88275170      -1.06738236       0.90566511
H       -5.17778230       1.98996201      -0.28598279
H       -5.47412293       0.74594786       0.97067484
H       -2.86547639       0.10094867      -2.19838412
H       -3.68030524       1.32333322       2.63969886
H       -1.04668781       1.88670160       1.42600001
H       -0.21440937       0.53651263       1.31340954
H       -1.20962633      -1.89972006      -1.56788773
H        0.88798495       2.41305635       1.40232305
H       -4.86026909       3.43493546       1.45569422
O        3.14845480      -2.72653596      -2.23751831
O        2.06964678      -3.86712106      -0.53794046
O        5.35705273      -1.96791961      -0.19111410
N        0.97798688      -1.71868411       0.35025030
N        4.92326904       0.13732465      -0.42297367
C        2.25361668      -1.54544894      -0.51340087
C        3.21971002      -1.22186020       0.59590894
C        2.45093190      -2.89164987      -1.11213541
C        4.57108620      -1.07392172      -0.03278420
H        2.44218440      -0.86650039      -1.38272157
H        2.88845483      -0.32281106       1.10730436
H        3.22703329      -2.07067886       1.27962608
H        0.75723251      -2.54649717       0.86472449
H        0.52401022      -0.76460930      -0.72874144
H        4.29448594       0.90297723      -0.29828197
H        5.79891918       0.40343437      -0.83149447
H        3.40003384      -3.61013861      -2.53411439
O        2.88185628       2.07348926      -0.23513648
H        2.38101177       1.68053880      -0.94205055
H        2.86898893       2.26703483       0.72064951
44
Properties=species:S:1:pos:R:3 reactant=T mapped=T (centered)=T charge=0 multiplicity=1 pbc="F F F"
O       -3.17768701       0.70921101      -1.56097181
O       -3.04632699       0.93228350       2.05015889
O       -1.97946514      -1.76901428      -0.89978769
O       -5.20822498       2.57224003       1.71305841
O       -0.27666877       0.59008114      -1.77184366
O        0.45720281       2.49259125       0.22690681
C       -3.13639477       0.15954653      -0.27178133
C       -3.41489661       1.29159618       0.73316156
C       -1.85238251      -0.69903725      -0.05118313
C       -4.90496440       1.60989786       0.73028262
C       -0.70749788       0.23129262      -0.58891079
C       -0.28894875       1.38380789       0.31962814
H       -3.89016570      -0.63174137      -0.12741752
H       -2.91699400       2.21403254       0.38769140
H       -1.83502516      -1.10535410       0.97802609
H       -5.18343956       1.92530918      -0.27874855
H       -5.45478896       0.71233383       1.01823927
H       -2.84903395       0.02651478      -2.16603957
H       -3.65629259       1.36552275       2.66296711
H       -0.96117431       2.12306289       1.67946983
H       -0.52336389       0.78820786       1.13068465
H       -1.23133463      -2.11523478      -1.38270643
H        0.85010452       2.60073152       1.10915290
H       -4.86633589       3.42493004       1.41950320
O        3.06917449      -2.66351276      -2.28642254
O        1.91805228      -3.78621265      -0.61385193
O        5.36547332      -1.99649320      -0.25803058
N        0.92255999      -1.48118964       0.31254130
N        4.96591330       0.11575761      -0.38535083
C        2.24359965      -1.47506537      -0.48026057
C        3.24718489      -1.26632343       0.61263777
C        2.37547232      -2.82286433      -1.15355206
C        4.59436420      -1.10428596      -0.03498815
H        2.56461804      -0.79766708      -1.31886580
H        2.91899892      -0.40488654       1.18609138
H        3.22774770      -2.16784256       1.22158431
H        0.74774519      -2.33839044       0.82845591
H        0.58099195      -0.83493923      -1.31768486
H        4.37714301       0.89876692      -0.19439217
H        5.83293564       0.40386524      -0.79972917
H        3.26143002      -3.54685175      -2.62304780
O        2.93013698       2.01720442       0.07296880
H        2.45090201       1.57303694      -0.63308533
H        2.91293175       2.15551412       1.02082264
44
Properties=species:S:1:pos:R:3 reactant=T mapped=T (centered)=T charge=0 multiplicity=1 pbc="F F F"
O       -3.17495089       0.69943413      -1.56075082
O       -3.04626118       0.91699237       2.06390199
O       -1.97609727      -1.77799842      -0.87540025
O       -5.21485128       2.57500443       1.71840612
O       -0.27977099       0.55073381      -1.73157514
O        0.43505520       2.45320676       0.18689766
C       -3.14951569       0.13829223      -0.27401309
C       -3.45966389       1.28358053       0.74413997
C       -1.83610692      -0.71389434      -0.02250544
C       -4.93144580       1.60892474       0.73384277
C       -0.60126743       0.05954220      -0.52686073
C        0.01924697       1.11058256       0.58407067
H       -3.89269074      -0.65304330      -0.11989786
H       -3.02077154       2.24721752       0.39350412
H       -1.74774766      -1.01744981       1.02809194
H       -5.19724703       1.92071350      -0.28021489
H       -5.46371469       0.70455325       1.02437049
H       -2.83195426       0.02097637      -2.16086710
H       -3.65319573       1.36367918       2.67014706
H       -0.78262642       1.91721019       1.89941098
H       -0.96089422       1.42119951       0.48042863
H       -1.21888778      -2.14185683      -1.33410579
H        0.85095763       2.67357537       1.03655946
H       -4.87430497       3.42824062       1.42367677
O        3.05711467      -2.65504091      -2.29011229
O        1.89273785      -3.77187939      -0.62525456
O        5.36884872      -2.00060054      -0.26280144
N        0.91131789      -1.44406837       0.30360908
N        4.97169780       0.11099127      -0.38119048
C        2.22788067      -1.45903329      -0.47345036
C        3.25034185      -1.27765444       0.61265916
C        2.36079287      -2.80894435      -1.15727389
C        4.59819754      -1.10952481      -0.03359117
H        2.57971154      -0.78295674      -1.29680788
H        2.92740193      -0.42455785       1.19918070
H        3.22615474      -2.18489977       1.21218378
H        0.73409896      -2.30118899       0.82029308
H        0.60331270      -0.82375292      -1.52772878
H        4.38932021       0.89619331      -0.18494137
H        5.83864282       0.40134984      -0.79474775
H        3.24361256      -3.53742887      -2.63304728
O        2.92296454       2.01002206       0.12374170
H        2.44564349       1.54233189      -0.56936852
H        2.91218973       2.14165828       1.07277145
44
Properties=species:S:1:pos:R:3 reactant=T mapped=T (centered)=T charge=0 multiplicity=1 pbc="F F F"
O       -3.18035822       0.62046893      -1.54040705
O       -2.95643267       0.95213788       2.06180081
O       -1.91474709      -1.79548673      -0.75566638
O       -5.19786823       2.56166237       1.70886103
O       -0.38823758       0.43530852      -1.72993548
O        0.51902016       2.42014784      -0.13033131
C       -3.10200227       0.10753698      -0.23086849
C       -3.41751759       1.25213298       0.76043558
C       -1.77353072      -0.67496792       0.04361695
C       -4.90487944       1.57046222       0.75031215
C       -0.46444966       0.00669732      -0.34846285
C       -0.23845390       1.24810682       0.56913771
H       -3.84547456      -0.68388015      -0.06945658
H       -3.02540713       2.22912868       0.41809168
H       -1.67511320      -0.91667161       1.10957971
H       -5.19402625       1.85183359      -0.26694912
H       -5.42841469       0.67166756       1.07061069
H       -2.82122817      -0.06248540      -2.12550728
H       -3.57839542       1.39028181       2.66215734
H       -0.67271016       1.61871898       1.53862497
H       -0.99708786       1.74050167      -0.04954143
H       -1.12787148      -2.18153037      -1.14760305
H        0.82108774       2.78975619       0.71266402
H       -4.87701546       3.41265131       1.38665842
O        2.97148442      -2.57525366      -2.32918947
O        1.74859355      -3.68219412      -0.70427050
O        5.36565265      -2.01264138      -0.33055983
N        0.92123177      -1.32241233       0.30285742
N        4.97603522       0.11412119      -0.34216516
C        2.18356377      -1.39022828      -0.47406704
C        3.26223645      -1.33757330       0.59292721
C        2.26924685      -2.72533883      -1.20057377
C        4.60556472      -1.12618652      -0.05393100
H        2.56281520      -0.70059024      -1.26127712
H        2.98471253      -0.54172921       1.27732752
H        3.22574450      -2.28029372       1.13452525
H        0.72237255      -2.16853561       0.83235267
H        0.59964884      -0.69242941      -1.75946689
H        4.41762372       0.91097987      -0.11570069
H        5.84310055       0.40999379      -0.75368777
H        3.10178434      -3.45307201      -2.70958499
O        2.92903633       1.95217353       0.42883206
H        2.42181988       1.32680740      -0.08678352
H        2.78212252       2.04065532       1.36999431
44
Properties=species:S:1:pos:R:3 reactant=T mapped=T (centered)=T charge=0 multiplicity=1 pbc="F F F"
O       -3.17701229       0.54491903      -1.51430722
O       -2.88984641       0.98890542       2.06457165
O       -1.84185100      -1.84466594      -0.64595066
O       -5.17539507       2.55046062       1.68948590
O       -0.52817266       0.25533095      -1.75181824
O        0.63481710       2.28072301      -0.44290727
C       -3.05922112       0.07389738      -0.19095017
C       -3.37293936       1.23704837       0.76482988
C       -1.72473517      -0.67354854       0.09620905
C       -4.87013524       1.53127109       0.76481021
C       -0.41787906      -0.00987581      -0.32488834
C       -0.26741475       1.33635557       0.34458751
H       -3.79869640      -0.71945338      -0.01294533
H       -2.97484556       2.19817627       0.40040995
H       -1.61668611      -0.86164920       1.17260793
H       -5.18399031       1.77419072      -0.25491243
H       -5.38562414       0.64034924       1.12151922
H       -2.83219499      -0.15592582      -2.08713305
H       -3.51282467       1.43536220       2.65790639
H       -0.61735523       1.63861086       1.33978974
H       -1.01034807       1.83411514      -0.29697034
H       -1.01934390      -2.18420506      -1.01777322
H        0.90916562       2.80448555       0.33130824
H       -4.87327641       3.39423035       1.33265846
O        2.86944647      -2.48103480      -2.36830811
O        1.58859922      -3.56960392      -0.78578470
O        5.35588983      -2.01564368      -0.40576899
N        0.93309823      -1.18792697       0.31860501
N        4.95557944       0.13392972      -0.28957848
C        2.15942392      -1.31579735      -0.47283367
C        3.27415706      -1.39962745       0.56884613
C        2.16233228      -2.62245845      -1.24581901
C        4.60997641      -1.13423393      -0.07782575
H        2.55223928      -0.58335187      -1.20529404
H        3.06068583      -0.68631551       1.36119887
H        3.21846561      -2.37917392       1.04002103
H        0.71242399      -2.02406020       0.85537393
H        0.63600407      -0.47599045      -1.88794401
H        4.37509936       0.91489996      -0.04870065
H        5.82499093       0.42805881      -0.69711994
H        2.93679607      -3.35025399      -2.78642511
O        2.88199673       1.86113887       0.71868008
H        2.32734038       1.12369322       0.44974693
H        2.62453663       2.00507587       1.63417334
44
Properties=species:S:1:pos:R:3 reactant=T mapped=T (centered)=T charge=0 multiplicity=1 pbc="F F F"
O       -3.15552751       0.48225838      -1.49005486
O       -2.83522552       1.02479322       2.06309718
O       -1.78012477      -1.90664922      -0.53540983
O       -5.15321948       2.54291130       1.66552826
O       -0.56984510      -0.07213208      -1.70427953
O        0.73398717       2.12771753      -0.64510882
C       -3.02123171       0.04237138      -0.15684833
C       -3.33209377       1.23065912       0.76231466
C       -1.68512828      -0.68687667       0.14816751
C       -4.83751730       1.49719803       0.77499256
C       -0.38115368      -0.03603765      -0.32597238
C       -0.25817041       1.38537274       0.15939906
H       -3.75729022      -0.75134783       0.03983292
H       -2.91680887       2.16817997       0.36264539
H       -1.56169956      -0.81732753       1.22992796
H       -5.17229235       1.70120882      -0.24643601
H       -5.34446187       0.61494553       1.16734207
H       -2.83184499      -0.23560410      -2.05304705
H       -3.45531490       1.48359569       2.65018842
H       -0.56100052       1.68780484       1.16803059
H       -1.00698422       1.84144287      -0.49940844
H       -0.93817877      -2.19961813      -0.91748527
H        1.09842663       2.69636419       0.05010448
H       -4.86822728       3.37754217       1.27532720
O        2.76204723      -2.38684831      -2.40001177
O        1.43756749      -3.44780676      -0.85756095
O        5.33684206      -2.01266278      -0.47074864
N        0.93289584      -1.05537925       0.33122301
N        4.92875693       0.15053022      -0.23138087
C        2.12430925      -1.23693592      -0.47048319
C        3.26607936      -1.43426612       0.54006245
C        2.04693475      -2.50601945      -1.28692580
C        4.60220082      -1.13819298      -0.09710253
H        2.52607648      -0.46963031      -1.14460319
H        3.11306838      -0.78725724       1.40088517
H        3.19819982      -2.44367185       0.94461888
H        0.69919503      -1.88345902       0.87424410
H        0.68272266      -0.09428820      -1.99439313
H        4.32175315       0.90022295       0.04980998
H        5.80057876       0.44142256      -0.63580535
H        2.77537287      -3.24489113      -2.84880258
O        2.79533854       1.74098269       0.94426750
H        2.19575689       0.99145936       0.81138324
H        2.49850751       2.02835092       1.81385666
44
Properties=species:S:1:pos:R:3 reactant=T mapped=T (centered)=T charge=0 multiplicity=1 pbc="F F F"
O       -3.09852375       0.40925611      -1.47280154
O       -2.78287699       1.06176867       2.05648212
O       -1.73964123      -1.96549212      -0.40868914
O       -5.13025925       2.53394959       1.63367739
O       -0.41568438      -0.35007374      -1.67623055
O        0.78058301       2.06163528      -0.77644223
C       -2.97212403       0.00828622      -0.13000212
C       -3.29161563       1.22161364       0.75363276
C       -1.63271683      -0.69729184       0.19048921
C       -4.80433725       1.45977109       0.78105152
C       -0.33807475      -0.05156550      -0.32985414
C       -0.24350118       1.42257709      -0.00799231
H       -3.70849740      -0.78134829       0.08839907
H       -2.86638863       2.13573269       0.31301979
H       -1.50599294      -0.77066279       1.27825059
H       -5.15772243       1.61932090      -0.24190574
H       -5.29914001       0.58753931       1.21186847
H       -2.75944971      -0.31759999      -2.01334678
H       -3.39715248       1.53641851       2.63711433
H       -0.50263407       1.73274365       1.00772857
H       -1.01635723       1.81258441      -0.67497462
H       -0.89471699      -2.28392958      -0.76780768
H        1.36235530       2.47789819      -0.13774037
H       -4.86495946       3.35768045       1.20855152
O        2.64303667      -2.28164593      -2.43410340
O        1.27937460      -3.30899724      -0.93186985
O        5.30773153      -2.00772520      -0.53600481
N        0.93014007      -0.91052235       0.35496979
N        4.90582526       0.15477766      -0.16503937
C        2.09084046      -1.14306176      -0.46852057
C        3.24097856      -1.44698433       0.50985458
C        1.92860795      -2.37519284      -1.32363702
C        4.58172649      -1.14428446      -0.11628594
H        2.44589185      -0.33332407      -1.10870484
H        3.13319561      -0.85215835       1.41462457
H        3.16722835      -2.48334057       0.84232805
H        0.68144296      -1.73619223       0.89400753
H        0.57487529       0.20125712      -2.08722446
H        4.28787604       0.87285224       0.17345368
H        5.78102140       0.44602791      -0.56275876
H        2.59824410      -3.12245604      -2.91517009
O        2.69837966       1.62654141       1.14044318
H        2.06083161       0.89458348       1.05901897
H        2.39545638       2.03946560       1.95352133
44
Properties=species:S:1:pos:R:3 reactant=T mapped=T (centered)=T charge=0 multiplicity=1 pbc="F F F"
O       -3.04260841       0.33174457      -1.45628784
O       -2.73233593       1.09903951       2.04650437
O       -1.69081543      -2.00874285      -0.29517813
O       -5.10801368       2.52376139       1.59541215
O       -0.26005345      -0.45797269      -1.68698151
O        0.83074140       2.04556288      -0.85100875
C       -2.92079732      -0.02828873      -0.10371737
C       -3.25418734       1.20918725       0.74327920
C       -1.57034959      -0.70507804       0.21981388
C       -4.77325518       1.41964181       0.78495284
C       -0.29456301      -0.05976627      -0.35284632
C       -0.24051806       1.44806439      -0.16238695
H       -3.65505810      -0.81456787       0.13777208
H       -2.83054553       2.10271448       0.26027525
H       -1.44859768      -0.72397018       1.31256883
H       -5.14389755       1.53074660      -0.23832647
H       -5.25196248       0.55865726       1.25609750
H       -2.68862564      -0.40663459      -1.97105756
H       -3.33889356       1.59231987       2.61974628
H       -0.43879213       1.76453856       0.86333120
H       -1.04471594       1.80592125      -0.80728734
H       -0.84348445      -2.35112474      -0.62635011
H        1.55569594       2.19507994      -0.23883086
H       -4.86494921       3.33472865       1.13440166
O        2.52188069      -2.18100560      -2.46709557
O        1.11587737      -3.16197885      -1.00280420
O        5.28026013      -2.00461876      -0.59866673
N        0.92713901      -0.75103214       0.37613214
N        4.89775649       0.14664850      -0.09201147
C        2.07668176      -1.05417120      -0.45298257
C        3.21851109      -1.45700113       0.49795350
C        1.82044411      -2.24842142      -1.34846154
C        4.56731229      -1.15561545      -0.12430836
H        2.40096510      -0.21667438      -1.07439657
H        3.13182273      -0.90288417       1.43107674
H        3.13414874      -2.51585666       0.74661997
H        0.65859233      -1.57781117       0.90485150
H        0.39326043       0.29099547      -2.15991582
H        4.28154604       0.83899512       0.30196946
H        5.77336647       0.44493224      -0.48527697
H        2.41418007      -2.99596662      -2.98278998
O        2.59848935       1.56198384       1.27617541
H        1.95181692       0.83360232       1.20189962
H        2.33980775       2.01074956       2.08351609
44
Properties=species:S:1:pos:R:3 product=T mapped+aligned=T onto=T reactant=T pbc="F F F"
O       -2.99244971       0.25401672      -1.43753325
O       -2.68292413       1.13738099       2.03332248
O       -1.63189284      -2.05252293      -0.18253987
O       -5.08614970       2.51290016       1.55211150
O       -0.16558030      -0.45162728      -1.73798775
O        0.90500256       2.00751875      -0.91452781
C       -2.87042168      -0.06720194      -0.07592734
C       -3.21838232       1.19543992       0.73178081
C       -1.50637357      -0.71743239       0.24812417
C       -4.74359286       1.37858205       0.78750106
C       -0.24487547      -0.07368300      -0.38335495
C       -0.24637992       1.46682092      -0.31494786
H       -3.60081583      -0.85054164       0.18985868
H       -2.80250368       2.06888755       0.20587490
H       -1.39053101      -0.67939018       1.34324173
H       -5.13047958       1.43880647      -0.23414369
H       -5.20398081       0.53063133       1.29973517
H       -2.63447834      -0.49868301      -1.92832324
H       -3.28081621       1.65042464       2.59836881
H       -0.37067477       1.78634728       0.72348072
H       -1.08657377       1.82111007      -0.91495504
H       -0.78076968      -2.40725054      -0.49425563
H        1.63431014       1.99180731      -0.27274852
H       -4.86684122       3.30913671       1.05529500
O        2.39770819      -2.08739716      -2.49575460
O        0.94224519      -3.00658775      -1.06781592
O        5.25622163      -2.00219170      -0.65732428
N        0.91854500      -0.58511165       0.38515139
N        4.89882217       0.13120972      -0.01786409
C        2.06693769      -0.97809560      -0.42717101
C        3.19965111      -1.47449454       0.49366670
C        1.71400197      -2.12785931      -1.36439149
C        4.55978116      -1.16970681      -0.12655158
H        2.40343918      -0.12558448      -1.02354260
H        3.13302101      -0.96778035       1.45585811
H        3.10466628      -2.54884504       0.65683355
H        0.63073355      -1.41269101       0.90428455
H        0.24773226       0.28085757      -2.21843356
H        4.28924198       0.80272103       0.42281735
H        5.77252869       0.44168965      -0.40811660
H        2.22893786      -2.87006872      -3.04494110
O        2.49873763       1.52456891       1.37391880
H        1.86292384       0.78788121       1.28010052
H        2.32557481       1.94644002       2.21720650
