44
Properties=species:S:1:pos:R:3:energies:R:1:forces:R:3:charge:R:1 reactant=T mapped=T (centered)=T charge=0 multiplicity=1 energy=-2152.469184866298 free_energy=-2152.469184866298 dipole="-1.014689415988001 1.1034279835702332 0.37762470027929074" pbc="F F F"
O       -3.22568112       1.16951303      -1.61365112    -113.15182475      -0.00228078       0.00640122       0.00009027      -0.44510808
O       -3.20641185       0.78905911       1.96577096    -113.46285104      -0.00305693       0.01040586       0.00010361      -0.46710413
O       -1.74478442      -1.08012749      -1.49288585    -112.96505144      -0.00963845       0.00549337       0.00093914      -0.43389689
O       -5.26178621       2.59909318       1.83072017    -113.08815641      -0.00608839       0.00449044       0.00056661      -0.43563187
O        0.00501089       0.87966470      -1.14329544    -111.53299097      -0.00580833      -0.00691309       0.01440729      -0.33161700
O        0.82191461       1.91253732       1.16529773    -113.01907550       0.00219810      -0.00430304       0.00276796      -0.43058726
C       -3.19386953       0.43514564      -0.42636115     -58.96768441      -0.00372860       0.00667869      -0.00029718       0.10631378
C       -3.48236202       1.39867955       0.72480191     -59.07164649      -0.00511819       0.00731707      -0.00077713       0.09437333
C       -1.84576823      -0.33767454      -0.30334852     -59.07674455      -0.00435916       0.00521765       0.00068581       0.07584996
C       -4.94940732       1.84881638       0.68112403     -59.24420950      -0.00646379       0.00393102       0.00070678       0.06049938
C       -0.63959627       0.57800282      -0.16883727     -58.43928149       0.00718072       0.00605601      -0.01355247       0.21752211
C       -0.24920814       0.99855150       1.23396838     -59.23120977      -0.00467002       0.00473313       0.00031084       0.05107317
H       -3.96726904      -0.35020943      -0.44082021     -12.98980064      -0.00424872       0.00692209      -0.00097259       0.04466583
H       -2.83953782       2.28622689       0.59392019     -13.14450755      -0.00757053       0.00881032      -0.00296284       0.03201077
H       -1.91811231      -1.00396482       0.56508296     -12.95713886      -0.00472898       0.00666258       0.00233295       0.05843724
H       -5.13840083       2.40069393      -0.24377838     -13.13558023      -0.00954951       0.00253447       0.00059562       0.04847694
H       -5.59919328       0.97081688       0.71536945     -12.97535957      -0.00430213       0.00247523       0.00303543       0.06306872
H       -2.90623072       0.57660815      -2.31153528     -11.16036880       0.00486979       0.00856701       0.00168381       0.32742667
H       -3.91537709       1.05816129       2.57091130     -11.17117731      -0.00174400       0.01308602       0.00063781       0.32495622
H       -1.11596232       1.41279571       1.75557121     -12.81047371      -0.00433201       0.01423171      -0.00696082       0.07936437
H        0.04716914       0.09164728       1.78314023     -12.97836129      -0.01527648       0.00494717       0.00592812       0.05442506
H       -0.86509380      -0.93412803      -1.87099723     -11.23784037       0.00509035      -0.04119890       0.02531438       0.32353073
H        1.06699020       2.19024279       2.05368823     -11.39215644      -0.00674968       0.00504303       0.00229583       0.30565120
H       -4.82830560       3.45837432       1.77588961     -11.49749704      -0.00899050       0.00568541      -0.00127824       0.29620888
O        3.66484872      -3.13099399      -1.90470403    -112.45948789       0.01749450       0.00014714       0.00183441      -0.36635063
O        2.92744867      -4.14484251      -0.05576709    -112.04562543       0.00312518      -0.00675596      -0.00682915      -0.39672597
O        5.26986870      -1.75213120       0.14665296    -112.48195084       0.00843507       0.00549517      -0.00423102      -0.45221979
N        0.87057054      -2.28709627      -0.02864253     -81.40195584       0.00444470      -0.00281762      -0.00587768      -0.34976687
N        4.66630380       0.23981881      -0.71146374     -80.93494595      -0.00291804       0.00233704      -0.00245712      -0.28277770
C        2.17948761      -1.90746215      -0.52288770     -58.94189524       0.00633729      -0.00485238      -0.00493864       0.03404889
C        2.99937210      -1.04465036       0.46896306     -59.18869424       0.00508217      -0.00770532      -0.00232138      -0.10223734
C        2.96058413      -3.18891718      -0.78035718     -58.97905559       0.00835081      -0.00291334      -0.00500654       0.36654693
C        4.42984916      -0.89398670      -0.03462624     -59.28858100       0.00480941      -0.00020380      -0.00310787       0.28210900
H        2.06633658      -1.36168781      -1.46617620     -13.07053558       0.00911414      -0.00346537      -0.00456151       0.05524119
H        2.52522399      -0.06937207       0.57818674     -13.19366558       0.00192927      -0.00998522       0.00331807       0.05442049
H        3.02928211      -1.55923727       1.43214597     -13.15480355       0.00843197      -0.01222052      -0.00481521       0.06037507
H        0.97312541      -3.07059552       0.61036781     -12.52424809      -0.00056741      -0.02598515      -0.03732739       0.16672884
H        0.44133363      -1.52218378       0.47452911     -12.76138917       0.02483632      -0.01941096       0.03146342       0.13754399
H        3.96092727       0.95490260      -0.86837305     -11.99392219      -0.00690943      -0.00100032      -0.00009818       0.22725506
H        5.58707781       0.37727374      -1.09424369     -12.30799886      -0.00438417       0.00810729      -0.00345739       0.18732626
H        4.21729829      -3.92358286      -1.99856238     -10.94631362       0.02065360       0.00242003       0.00436045       0.34014169
O        2.59799021       2.15244407      -1.14075649    -114.65344706      -0.00290899      -0.00179523       0.00104720      -0.58896316
H        2.05226145       1.91400455      -1.89491406     -11.77481554      -0.00602934      -0.00373417       0.00383620       0.29583433
H        1.98535943       2.18020171      -0.39373649     -11.66486546       0.00003917      -0.00293577       0.00356838       0.31156063
44
Properties=species:S:1:pos:R:3:energies:R:1:forces:R:3:charge:R:1 reactant=T mapped=T (centered)=T charge=0 multiplicity=1 energy=-2152.7693767526453 free_energy=-2152.7693767526453 dipole="-0.6833468704211381 0.6617298419047476 0.520256762180565" pbc="F F F"
O       -2.98066492       0.71634417      -1.56202892    -113.09427107      -0.00111645      -0.00273128       0.00115269      -0.44477607
O       -3.28938643       1.28346865       1.98262620    -113.42534596       0.00009015       0.00164110       0.00053341      -0.46671280
O       -1.66216867      -1.48401763      -0.68423553    -113.08336798      -0.00064717      -0.00115103       0.00227867      -0.45437988
O       -5.18428684       3.10701219       1.17311387    -113.08507310       0.00241903       0.00295646      -0.00190562      -0.43770256
O       -0.05405645       0.75266937      -0.83022653    -111.45083572      -0.00061887      -0.00124278       0.00114982      -0.32585595
O        0.87802551       1.91139049       1.43784688    -113.03455947      -0.00092911       0.00036267       0.00047419      -0.43247439
C       -3.10616242       0.31174026      -0.23175059     -59.00826253      -0.00049248      -0.00088310       0.00172876       0.10980853
C       -3.41721685       1.55684921       0.60483735     -59.06735631       0.00070511       0.00034150       0.00025562       0.09431687
C       -1.82923114      -0.43622435       0.23345804     -59.10320455      -0.00046071      -0.00078584       0.00184999       0.07808703
C       -4.83900877       2.05155499       0.30560515     -59.23978095       0.00134641       0.00159309      -0.00061754       0.06063230
C       -0.62429696       0.49244313       0.19788261     -58.41039726      -0.00049464      -0.00079523       0.00132230       0.21963977
C       -0.19047896       0.99730848       1.55843555     -59.26249889      -0.00032137      -0.00026434       0.00106501       0.04645966
H       -3.93048083      -0.41350049      -0.12862618     -13.02493854      -0.00080197      -0.00030721       0.00322136       0.04124572
H       -2.69779833       2.34319925       0.31731618     -13.16155205       0.00163108      -0.00075664      -0.00039730       0.03133761
H       -1.99648779      -0.80794932       1.25349298     -13.14835305      -0.00031194      -0.00038740       0.00198641       0.03785550
H       -4.91888528       2.33331752      -0.74776556     -13.14469432       0.00190827       0.00048701      -0.00092670       0.04815717
H       -5.55130905       1.25027431       0.51811178     -12.99064659       0.00037292       0.00267273       0.00011511       0.06172349
H       -2.50130829       0.00837947      -2.01904453     -11.15373236      -0.00159721      -0.00351819       0.00190645       0.33266197
H       -3.99462315       1.78129057       2.42552505     -11.21955374       0.00061739       0.00295244      -0.00015742       0.32252822
H       -1.06315338       1.44148946       2.05161179     -12.83267511      -0.00038475      -0.00069177       0.00135004       0.07800036
H        0.11276590       0.11661540       2.14405272     -12.97189424       0.00044451      -0.00000427       0.00106615       0.05562546
H       -0.75262507      -1.84834095      -0.58266521     -11.37373792      -0.00021444      -0.00001595       0.00093197       0.31980951
H        1.09331304       2.26182002       2.30795287     -11.45316960      -0.00018466      -0.00007360       0.00046461       0.30101141
H       -4.69364172       3.89695153       0.91952734     -11.52602513       0.00346603       0.00204524      -0.00266281       0.29548181
O        3.92056379      -2.55891506      -2.14265680    -112.49090713       0.00178513      -0.00078112      -0.00067896      -0.36717333
O        2.96000502      -4.18876116      -0.95195295    -112.18429614       0.00521281       0.00003185       0.00318851      -0.40690056
O        5.17624928      -1.55041121       0.24816336    -112.51607003      -0.00171616       0.00101169       0.00052635      -0.45361791
N        0.86589826      -2.54161656      -0.23490796     -81.69105897       0.00049462      -0.00196824      -0.00357646      -0.35216020
N        4.40564269       0.33248464      -0.71698363     -80.94721602      -0.00129643       0.00157633       0.00133292      -0.28209180
C        2.10283714      -1.94610158      -0.74222999     -58.93728555       0.00061748      -0.00114834      -0.00215242       0.03029931
C        2.81348515      -1.13772000       0.35667514     -59.26133483      -0.00194039       0.00022074      -0.00148829      -0.09917718
C        3.04354307      -3.03088140      -1.26468783     -58.95081497       0.00278245      -0.00040252       0.00039958       0.35516168
C        4.25655412      -0.80984972      -0.03730661     -59.25762968      -0.00166732       0.00100409       0.00028698       0.28427191
H        1.85192590      -1.28447344      -1.57922215     -12.90237126       0.00123367      -0.00199371      -0.00295035       0.07233991
H        2.25374951      -0.22538136       0.55244333     -13.05321685      -0.00300302      -0.00013138      -0.00299754       0.06833651
H        2.85855168      -1.74575370       1.26351590     -13.11528653      -0.00289070       0.00081970      -0.00105132       0.06148296
H        0.65052551      -3.36114832      -0.79982185     -12.48502392      -0.00106225       0.00102926      -0.00649242       0.16723482
H        1.02556952      -2.89548831       0.70506802     -12.50440025       0.00113042      -0.00597512      -0.00571590       0.16319614
H        3.64367033       0.98289490      -0.90932375     -11.93221117      -0.00132164       0.00141218       0.00086280       0.23305685
H        5.33351509       0.58262292      -1.01669231     -12.28772593      -0.00107488       0.00203744       0.00240629       0.18855360
H        4.56130291      -3.24361207      -2.39316108     -10.92415460       0.00329503      -0.00000058       0.00108532       0.34117506
O        2.33389080       2.18787509      -1.06699223    -114.68616879      -0.00181364       0.00080006       0.00008555      -0.59044256
H        1.59035273       1.77580617      -1.52365622     -11.65718997      -0.00159323      -0.00016605       0.00068187       0.30922092
H        1.99861087       2.34477641      -0.17594302     -11.71908772      -0.00159707       0.00118012       0.00006231       0.30475317
44
Properties=species:S:1:pos:R:3:energies:R:1:forces:R:3:charge:R:1 reactant=T mapped=T (centered)=T charge=0 multiplicity=1 energy=-2152.755640083342 free_energy=-2152.755640083342 dipole="-0.7295531981463077 0.9549712225140117 0.8511616831518345" pbc="F F F"
O       -2.91608760       0.68112879      -1.65732006    -113.08537029       0.00126980      -0.00217354       0.00029406      -0.44485128
O       -3.45322537       1.23056324       1.86252430    -113.42529222      -0.00034112       0.00109716      -0.00043553      -0.46720885
O       -1.46966792      -1.40748856      -0.67837872    -113.03799191      -0.00070326      -0.00211329       0.00212276      -0.45275211
O       -5.50198414       2.82576798       0.95795713    -113.08336086       0.00248030       0.00318105      -0.00330386      -0.43781468
O       -0.00432035       0.93628508      -0.77765884    -111.37266515       0.00041434      -0.00256600       0.00231467      -0.32086658
O        0.66331985       2.24685614       1.47967119    -112.99703120       0.00075487      -0.00350650       0.00280877      -0.43008691
C       -3.07383515       0.26683689      -0.33327380     -59.01618807       0.00022021      -0.00088282       0.00056261       0.10991858
C       -3.55367745       1.47589896       0.47667552     -59.06701620       0.00112660       0.00029699      -0.00067905       0.09408442
C       -1.76128714      -0.35862590       0.20576306     -59.11744884      -0.00059513      -0.00168213       0.00164702       0.07792588
C       -5.00876203       1.80733501       0.11772807     -59.23839336       0.00186845       0.00192688      -0.00214685       0.06059186
C       -0.63222535       0.66467114       0.21195411     -58.42675681      -0.00000463      -0.00237240       0.00212750       0.21820888
C       -0.33969787       1.26007051       1.57698611     -59.23964910      -0.00006434      -0.00272716       0.00227753       0.04737113
H       -3.82803196      -0.53560007      -0.27142700     -13.01943665      -0.00062210      -0.00006312       0.00090299       0.04145903
H       -2.91476898       2.33481120       0.20765071     -13.15840971       0.00245095      -0.00070551      -0.00072326       0.03173970
H       -1.94774241      -0.72124259       1.22606544     -13.15911322      -0.00151177      -0.00129353       0.00161716       0.03632664
H       -5.07914649       2.06907484      -0.94140148     -13.14851007       0.00310391       0.00125824      -0.00238983       0.04788899
H       -5.63586089       0.93403324       0.31460817     -12.99048364       0.00058565       0.00287320      -0.00206137       0.06175894
H       -2.35495142       0.01769113      -2.08658897     -11.16268930       0.00098618      -0.00302858       0.00122800       0.33321432
H       -4.22866348       1.64824301       2.26952028     -11.22510874      -0.00011129       0.00242374      -0.00136606       0.32222386
H       -1.27563839       1.65533932       1.98596959     -12.85384776       0.00005234      -0.00202819       0.00190629       0.07673425
H       -0.01309219       0.43664523       2.23007728     -13.03408937      -0.00097551      -0.00302854       0.00234295       0.04864259
H       -0.58020642      -1.76586183      -0.45203694     -11.40605263      -0.00054244      -0.00186817       0.00200129       0.31918172
H        0.73153737       2.72018712       2.31460627     -11.44667968       0.00088460      -0.00382614       0.00276875       0.30153914
H       -5.09294695       3.66313017       0.71199115     -11.53024217       0.00377451       0.00246837      -0.00357292       0.29526622
O        3.08678202      -2.13118480      -2.53059999    -112.47131063      -0.00097620       0.00048355      -0.00047502      -0.36309505
O        2.16734896      -3.85544211      -1.44638514    -112.15247891       0.00118324      -0.00024299       0.00020794      -0.40121839
O        5.47174894      -2.14304569      -0.63344377    -112.45712707      -0.00077285       0.00255845      -0.00157153      -0.44650535
N        0.98996348      -2.16592772       0.34073580     -81.66527320       0.00011335      -0.00122301       0.00046451      -0.35422853
N        4.77156961      -0.00473394      -0.76441258     -80.94004318      -0.00190643       0.00223025      -0.00183901      -0.28020965
C        2.15161327      -1.68929826      -0.40240001     -58.97956627      -0.00079726       0.00003242      -0.00020573       0.02502662
C        3.41742825      -1.56711491       0.47392147     -59.17299225      -0.00054950       0.00192103      -0.00068670      -0.09846084
C        2.45521471      -2.69060004      -1.50739150     -58.97320740      -0.00003192       0.00005137      -0.00012805       0.36076222
C        4.66060176      -1.28052757      -0.36844147     -59.26848873      -0.00108181       0.00232196      -0.00138249       0.28358282
H        1.92162779      -0.71844842      -0.85392831     -12.85856896      -0.00224432      -0.00037203      -0.00043925       0.07875716
H        3.27279067      -0.76536702       1.19980898     -13.17702922      -0.00107440       0.00238033      -0.00119400       0.05421489
H        3.57935556      -2.51293410       0.99639422     -13.12046604       0.00054673       0.00242445      -0.00002895       0.06345203
H        0.98976810      -3.18455762       0.30831237     -12.38604483       0.00089310      -0.00127976      -0.00004244       0.17894272
H        1.05058042      -1.88587606       1.31393070     -12.60408707       0.00066542      -0.00169040       0.00063670       0.15279585
H        4.04121689       0.68657254      -0.61955724     -11.95613953      -0.00199598       0.00213762      -0.00145181       0.23046316
H        5.53925995       0.23481631      -1.36969894     -12.27658444      -0.00221140       0.00239823      -0.00219241       0.18941217
H        3.35977596      -2.80220599      -3.17690566     -10.88676945      -0.00037886       0.00059198      -0.00041036       0.34259052
O        2.66091595       1.88423137      -0.56797301    -114.73338615      -0.00124816       0.00230318      -0.00041875      -0.59750704
H        2.06175490       1.77144913      -1.31230875     -11.75917119      -0.00205912       0.00107068       0.00037296       0.29938151
H        2.07492208       2.04487684       0.18406095     -11.67507860      -0.00057477       0.00024270       0.00054077       0.31134740
44
Properties=species:S:1:pos:R:3:energies:R:1:forces:R:3:charge:R:1 reactant=T mapped=T (centered)=T charge=0 multiplicity=1 energy=-2152.797451166 free_energy=-2152.797451166 dipole="-0.69461006218589 0.9242402129611568 0.3214439026295451" pbc="F F F"
O       -3.21423120       0.96566159      -1.60382092    -113.11910805       0.00858585       0.00254931      -0.00103732      -0.44512552
O       -3.33301406       1.11857034       1.98197932    -113.40072701      -0.00130644       0.00110904      -0.00085309      -0.46460678
O       -1.42141922      -1.02764512      -0.97940572    -113.04003386       0.00542776       0.00197532       0.00218972      -0.45249688
O       -5.75805782       2.36417097       1.54189252    -113.07258127      -0.00166457      -0.00132681      -0.00507248      -0.43653815
O       -0.08846045       1.36289616      -1.07914801    -111.78967779       0.00684420       0.00221847       0.00732960      -0.35479672
O        0.49091294       2.88684903       0.98409110    -113.11402768       0.00158979       0.00528956       0.00563074      -0.43970092
C       -3.14474064       0.40835987      -0.32472327     -58.99376359       0.00473450       0.00192391      -0.00112122       0.10998913
C       -3.70941138       1.43523627       0.66170623     -59.07945775       0.00176334       0.00138603      -0.00178735       0.09442206
C       -1.69747760      -0.06001048      -0.00354238     -59.14204774       0.00381009       0.00122744       0.00265169       0.08160562
C       -5.24080771       1.49204542       0.56392644     -59.24098183       0.00163156       0.00036374      -0.00543152       0.06043155
C       -0.69763618       1.07915496      -0.07154504     -58.39988941       0.00530620       0.00028091       0.00602961       0.20772438
C       -0.43603596       1.85443785       1.20261859     -59.36968170       0.00511461      -0.00344708       0.00839247       0.04330663
H       -3.75179496      -0.51080298      -0.27448669     -12.99101076       0.00440199       0.00192037      -0.00353146       0.04414547
H       -3.30715477       2.42552701       0.38348461     -13.16219077       0.00202335       0.00180083      -0.00014237       0.02941973
H       -1.70227454      -0.47986770       1.01198443     -13.09232797       0.00080448       0.00093957       0.00265024       0.04301881
H       -5.53971322       1.77790269      -0.44853958     -13.16377357       0.00391555       0.00153462      -0.00580635       0.04581862
H       -5.65514723       0.50847164       0.79895980     -12.98119523       0.00157477      -0.00045603      -0.00797605       0.06279099
H       -2.69176182       0.39216112      -2.18358459     -11.16695352       0.00801118       0.00053457      -0.00009459       0.33164647
H       -4.06834548       1.39389223       2.55162867     -11.20838241      -0.00387087      -0.00059381      -0.00253498       0.32311140
H       -1.37776091       2.24502677       1.60227439     -12.78254315       0.00044394      -0.00948504       0.01515167       0.08015893
H       -0.02168223       1.17695318       1.95522401     -12.83701237       0.01230695      -0.00726700       0.00611914       0.07423796
H       -0.52401028      -1.40115003      -0.82152613     -11.38425453       0.00975036      -0.00605863       0.01273576       0.32032834
H        0.43369957       3.12172744       0.04365743     -11.30413496      -0.00557472       0.00847453       0.00679650       0.31567682
H       -5.54736256       3.27316499       1.29970904     -11.52208148      -0.00202386      -0.00054340      -0.00318155       0.29543038
O        3.48514471      -2.41022618      -2.52186708    -112.47018738      -0.00329957       0.00148898       0.00105738      -0.36292393
O        2.21230355      -3.98100165      -1.56769300    -112.15907914      -0.00259347       0.00020169       0.00021073      -0.40139231
O        5.56019632      -2.48769610      -0.35187215    -112.41320755      -0.00091867       0.00235057       0.00049383      -0.43936830
N        0.97352476      -2.06581428      -0.03192640     -81.66571778      -0.00214326      -0.00219949       0.00440363      -0.35314035
N        5.04732109      -0.29222214      -0.32780037     -80.91721653      -0.00465384       0.00183734      -0.00453962      -0.27566140
C        2.30070274      -1.79449526      -0.57097412     -58.95967594      -0.00312750      -0.00037191       0.00174031       0.02747179
C        3.40685689      -1.83651222       0.50675050     -59.18766317      -0.00160705       0.00072497       0.00018185      -0.09957664
C        2.64249086      -2.85981094      -1.60201616     -58.96606324      -0.00293826       0.00063141       0.00080219       0.36087629
C        4.78437577      -1.59037574      -0.10400282     -59.24338487      -0.00232094       0.00177856      -0.00139707       0.28464772
H        2.30434353      -0.81425551      -1.05782428     -12.89848008      -0.00524523      -0.00007020       0.00209058       0.07222999
H        3.19830067      -1.06920776       1.25390872     -13.11852435      -0.00131780       0.00081985       0.00019408       0.05966705
H        3.40938900      -2.82186678       0.97772276     -13.11566951      -0.00010624       0.00085704       0.00062922       0.06468441
H        0.81532646      -3.07161159      -0.06822283     -12.39490925      -0.00145328      -0.00431756      -0.00148507       0.17804630
H        0.92522905      -1.77983941       0.94069373     -12.57312416       0.00171835      -0.00733152       0.00999014       0.15520192
H        4.35629470       0.42879012      -0.17314712     -11.98902055      -0.00624912       0.00104641      -0.00714762       0.22378724
H        5.91425792      -0.04800896      -0.77645189     -12.25161412      -0.00533336       0.00215443      -0.00580922       0.19083421
H        3.78112061      -3.12923478      -3.10321609     -10.88034109      -0.00305022       0.00208282       0.00038465       0.34284009
O        2.79364744       1.53377361       0.00674101    -114.78797705      -0.00742642       0.00052899      -0.01282334      -0.59895466
H        2.12307368       1.47517109      -0.68226877     -11.76197801      -0.00727578       0.00163551      -0.02285639       0.29709382
H        2.42306447       2.12214322       0.67603276     -11.68577902      -0.01425833      -0.00819831      -0.00322708       0.30363844
44
Properties=species:S:1:pos:R:3:energies:R:1:forces:R:3:charge:R:1 reactant=T mapped=T (centered)=T charge=0 multiplicity=1 energy=-2152.179472655685 free_energy=-2152.179472655685 dipole="-0.5979815953128002 1.9099611277362345 0.2600150193766963" pbc="F F F"
O       -3.73892440       0.87565423      -1.51484522    -113.18209572      -0.02690617       0.10594850       0.02692720      -0.45156727
O       -3.35994584       0.95596058       2.04534436    -113.39129038      -0.04720928      -0.01127962       0.02213175      -0.46096531
O       -1.96902713      -1.32108820      -1.07610114    -112.89521809      -0.02556998       0.03489230       0.00778462      -0.42963763
O       -5.62277894       2.61880407       1.80637534    -113.06801048      -0.04426874       0.00113010       0.01098168      -0.43633893
O       -0.61676774       0.98909708      -1.45616289    -111.69730281       0.10108446      -0.07474585      -0.04263136      -0.34504092
O        0.54639913       2.00700965       0.95524498    -113.17291329      -0.03982022       0.02612371       0.06155081      -0.43979992
C       -3.54663631       0.27041183      -0.26270210     -58.94223842      -0.01389061       0.04184911       0.00263269       0.10124789
C       -3.86434772       1.33286501       0.78860370     -59.07667102      -0.03621647       0.01034951       0.02560050       0.09287197
C       -2.10529806      -0.29713626      -0.13060956     -59.15013888      -0.00557045       0.05214205      -0.00940876       0.07703619
C       -5.36964988       1.59472476       0.87339054     -59.25508167      -0.03712091       0.00122629       0.01259355       0.05969742
C       -1.12426965       0.83878645      -0.36917432     -58.38289215      -0.02018153       0.05699313      -0.03285920       0.20833724
C       -0.83419791       1.79230559       0.78679921     -59.23444035      -0.18006845       0.26675306      -0.01825524       0.04968723
H       -4.22217760      -0.59089354      -0.14705406     -12.91617009       0.00517352       0.02011974      -0.01677751       0.05558805
H       -3.38675009       2.26973577       0.45279284     -13.19196837      -0.04373346       0.02122297       0.04411584       0.02251012
H       -1.99257552      -0.72450756       0.87075931     -12.79696793      -0.00229840       0.06495421      -0.00293557       0.07744347
H       -5.75446294       1.83440763      -0.12254245     -13.13874908      -0.02667811       0.00128313       0.00862846       0.04755177
H       -5.87309622       0.70481066       1.25579830     -12.95975372      -0.03613757      -0.00080301       0.00769673       0.06570098
H       -3.12975138       0.48177076      -2.14965548     -11.25540358      -0.05144013      -0.16763959      -0.09916242       0.31918187
H       -3.90629125       1.40228664       2.70869904     -11.18269671      -0.04139242      -0.01121907       0.02642758       0.32333635
H       -1.39394893       2.76572730       0.57879038     -12.98051256       0.66766527      -0.91499805       0.32346518       0.05247047
H       -1.15367486       1.33311312       1.72332826     -12.73266614      -0.22095290       0.27422767      -0.02020161       0.09234925
H       -1.40104516      -1.01932384      -1.79737503     -11.28259400       0.21212496       0.05334234       0.00450312       0.32045426
H        0.91601862       2.37371842       0.14962453     -11.34460118      -0.08290450       0.16569982      -0.46553064       0.30799290
H       -5.29614406       3.45298172       1.44951465     -11.52822570      -0.03471994      -0.00079111       0.01529170       0.29378472
O        3.73911523      -2.46426216      -2.54987340    -112.48343882       0.01345798      -0.00527201      -0.02019543      -0.37099854
O        2.48966059      -3.96432114      -1.46769437    -111.97026950       0.05134608      -0.02422431      -0.00458305      -0.39043479
O        5.66664035      -2.62307584      -0.25337829    -112.39643301      -0.01306488      -0.01130254       0.01648589      -0.44123385
N        1.16237629      -1.84316455      -0.31160511     -81.20854079      -0.02093241      -0.06218188      -0.10243775      -0.33550135
N        5.42371435      -0.39142119      -0.09438331     -80.92579875       0.00081562      -0.00990741       0.01168869      -0.28114747
C        2.55711109      -1.69537404      -0.64903456     -59.00361290      -0.00090726      -0.01588779      -0.02446096       0.03172127
C        3.55588866      -1.77547924       0.53886140     -59.18892864      -0.01567891       0.00008645      -0.00447394      -0.10402139
C        2.90567150      -2.84630293      -1.58394431     -58.96447656       0.02472399      -0.01503275      -0.01336556       0.36330208
C        4.98547347      -1.65956218       0.02411682     -59.25576795      -0.01130674      -0.00685236       0.00760882       0.28439412
H        2.69945883      -0.74981564      -1.18081252     -13.03546544      -0.00212128      -0.01429229      -0.02162808       0.06071451
H        3.34552628      -0.98057974       1.25532250     -13.21407878      -0.02137501       0.00724694      -0.01311175       0.05110973
H        3.44308820      -2.74721904       1.02338400     -13.11297045      -0.02043176       0.00406482       0.00282635       0.06577251
H        1.00763048      -2.69126357       0.21847478     -12.55238277      -0.02413674      -0.03938614      -0.06987450       0.16457602
H        0.78157285      -1.05731246       0.18637106     -12.77524235       0.07833783       0.20056354       0.27701660       0.14102206
H        4.81430137       0.39939748       0.05109669     -12.06449312      -0.00658994      -0.00435761      -0.03565345       0.21692080
H        6.32948687      -0.23466135      -0.50412692     -12.30041547      -0.00361865      -0.01923196      -0.00255765       0.18707991
H        4.02120493      -3.23116971      -3.07348951     -10.98025884       0.01860065      -0.00561354      -0.01680397       0.33760132
O        3.48643735       1.74345756       0.22350643    -114.65240273       0.01317458       0.00343675      -0.10298628      -0.57988021
H        2.60749097       1.50938078       0.53217815     -11.58614584      -0.00782315      -0.01159353       0.15976245       0.30582618
H        3.63077071       2.67195908       0.41156798     -11.74974765      -0.02143801       0.01295623       0.06417450       0.28928490
44
Properties=species:S:1:pos:R:3:energies:R:1:forces:R:3:charge:R:1 reactant=T mapped=T (centered)=T charge=0 multiplicity=1 energy=-2148.4063914550347 free_energy=-2148.4063914550347 dipole="0.2578631789964373 1.0892375106793095 0.49185869517674685" pbc="F F F"
O       -3.64880767       0.54150984      -1.61521982    -113.15775117       0.00902627      -0.00151668      -0.00490768      -0.44971314
O       -3.22152344       0.97240017       1.96512085    -113.41454996       0.00519936      -0.00042351      -0.00471345      -0.46707117
O       -1.85454886      -1.48254645      -1.04359463    -112.97177881       0.00319501      -0.00256047      -0.00401306      -0.43501734
O       -5.46716979       2.62023597       1.75256248    -113.05931178       0.00769826       0.00211199      -0.00509614      -0.43875826
O       -0.98827610       1.25174310      -1.32769995    -111.88292866       0.00526108       0.00399469       0.01161984      -0.39340662
O        0.68812381       1.84803419       0.82860959    -111.79225183       0.00957041      -0.01687547       0.01060902      -0.28782568
C       -3.49908773       0.12785159      -0.28760866     -59.09569970       0.00462801      -0.00130908      -0.00410097       0.09582563
C       -3.74654372       1.28833609       0.69473738     -59.06587722       0.00584278      -0.00027654      -0.00506238       0.08730828
C       -2.08807918      -0.48239787      -0.08649518     -59.09592541       0.00219312      -0.00456996      -0.00124928       0.07642945
C       -5.24563346       1.59629374       0.81128140     -59.24879518       0.00624708       0.00195512      -0.00526802       0.06193155
C       -1.07055994       0.64910104      -0.24894550     -58.63873005       0.00752315      -0.00843601       0.00515715       0.19015789
C       -0.27465764       0.93363518       0.89210964     -57.49781638       0.01689000      -0.02618844       0.00269708       0.09138588
H       -4.24289565      -0.66009798      -0.12341797     -12.96072861       0.00174979       0.00109577      -0.00561243       0.05860048
H       -3.23348130       2.18743339       0.30540053     -13.24792527       0.00706071      -0.00114515      -0.00544636       0.02390739
H       -2.01301018      -0.94549941       0.89679423     -12.98628921      -0.00176689      -0.00739531      -0.00217762       0.06282248
H       -5.65401646       1.84443127      -0.17352389     -13.20356113       0.00673896       0.00289562      -0.00528132       0.04207781
H       -5.76482121       0.71766596       1.20328265     -13.00675006       0.00478095       0.00264795      -0.00554024       0.06073581
H       -2.86916315       1.08160270      -1.84894243     -11.29674550       0.00912922       0.00036839      -0.00047122       0.32531853
H       -3.78286098       1.42854209       2.61102264     -11.25274409       0.00662297       0.00215381      -0.00531265       0.32083367
H       -3.37376238       5.45329682      -0.30807308     -11.85502872      -0.01308428      -0.03340672       0.02108418      -0.10977046
H       -0.46636098       0.41841247       1.81979015     -12.99670250       0.02280632      -0.03665313      -0.00218681       0.07128568
H       -2.20807680      -1.16179295      -1.88759024     -11.32829823      -0.00741484      -0.00481172      -0.00049138       0.31843426
H        1.17766153       1.93095003       1.65929499     -10.72294810       0.00882824      -0.02043872       0.01112403       0.34269190
H       -5.15869341       3.45793020       1.38718598     -11.55058366       0.00980501       0.00154433      -0.00471670       0.29743973
O        3.67547059      -2.45148598      -2.48599966    -112.53545563      -0.01157911       0.00076787       0.00367397      -0.37059907
O        2.33295472      -3.89066805      -1.42209149    -112.08846188      -0.01424223       0.00684546       0.00956678      -0.39588430
O        5.69674057      -2.58188328      -0.29360315    -112.39469549      -0.00967824       0.00072263       0.00468215      -0.43418763
N        1.22211949      -1.64385565       0.00608834     -81.40960978      -0.00813336       0.01736734       0.00032201      -0.33418804
N        5.42510584      -0.35269638      -0.12705171     -80.96373842      -0.00422594       0.00183254       0.00008879      -0.28017289
C        2.55554480      -1.63734541      -0.56548745     -58.96368736      -0.00724058       0.00980249       0.00204788       0.03273838
C        3.59973529      -1.75568459       0.56205584     -59.29014292      -0.00798918       0.00781025       0.00229731      -0.10224768
C        2.82249381      -2.80006352      -1.52525475     -58.92159979      -0.01124645       0.00639819       0.00527216       0.35367494
C        5.01510979      -1.62751161       0.00736555     -59.20507050      -0.00737918       0.00326489       0.00213302       0.28584192
H        2.70254724      -0.70330749      -1.11731327     -13.03438999      -0.00289689       0.00752652      -0.00062456       0.05796200
H        3.40871683      -0.97707317       1.29933335     -12.99958290      -0.00517982       0.00915502       0.00160028       0.06982392
H        3.49911097      -2.73584182       1.03112717     -13.02958121      -0.01045462       0.00845803       0.00323015       0.07241129
H        1.07675549      -2.51625547       0.50661735     -12.45666455      -0.00973671       0.02395302       0.01127232       0.16904390
H        0.51106765      -1.60704362      -0.71864233     -12.53214629      -0.00714818       0.00906838      -0.00111231       0.16874238
H        4.83681561       0.42542620       0.13555510     -12.03196887      -0.00418123       0.00396095      -0.00589577       0.21461822
H        6.34100250      -0.17697578      -0.50474421     -12.25227456      -0.00427206      -0.00097557      -0.00133836       0.18958632
H        3.93407447      -3.22082538      -3.01890734     -10.93550703      -0.01394914      -0.00127376       0.00544988       0.33960364
O        3.45836393       1.76030008       0.43716503    -114.84143314       0.00220675       0.00795870      -0.01505250      -0.58209543
H        2.65248673       1.53375234      -0.04002503     -11.50697245      -0.00441458       0.01558636      -0.00775131       0.30804995
H        3.69330491       2.65239941       0.17311221     -11.68368744       0.00321007       0.00900992      -0.01050551       0.29165443
44
Properties=species:S:1:pos:R:3:energies:R:1:forces:R:3:charge:R:1 reactant=T mapped=T (centered)=T charge=0 multiplicity=1 energy=-2148.3652539226237 free_energy=-2148.3652539226237 dipole="0.4750004465718317 1.0667610618793415 0.5180349455307426" pbc="F F F"
O       -3.54825809       0.51318503      -1.56212914    -113.19917290       0.00789303      -0.00337216      -0.00657023      -0.45474620
O       -3.40433953       0.84343214       2.06138718    -113.37186150       0.00843727      -0.00075368      -0.00613394      -0.46449891
O       -1.87595432      -1.62046649      -0.87299520    -112.95979696       0.00558414      -0.00006671      -0.01113053      -0.43425507
O       -5.48997896       2.64368955       1.66636197    -113.06306908       0.00763466      -0.00303580      -0.00166737      -0.43814092
O       -0.90114651       1.09178218      -1.21114883    -111.99175274       0.00471473       0.01627959       0.02033278      -0.40286012
O        0.86680442       1.52103737       0.93094588    -111.87434188       0.02474628      -0.00526419      -0.00283211      -0.29509010
C       -3.47553883       0.08247422      -0.23330039     -59.09501294       0.00408339      -0.00363033      -0.00516225       0.09595806
C       -3.74183345       1.23721449       0.75122031     -59.06792086       0.00568961      -0.00252651      -0.00613399       0.08821699
C       -2.09969921      -0.57431981       0.03757479     -59.10167462       0.00268964      -0.00571667      -0.00361636       0.07587144
C       -5.21617491       1.66223320       0.69316269     -59.23718250       0.00521719      -0.00267179      -0.00288058       0.06161520
C       -1.01601727       0.49605066      -0.12844214     -58.65278321       0.00737544      -0.00798916       0.00965382       0.18700059
C       -0.18720346       0.70880997       0.99983777     -57.52713532       0.01600668      -0.03305672       0.00906144       0.08800137
H       -4.25054723      -0.68305258      -0.10914483     -12.95989514       0.00126526      -0.00186196      -0.00676921       0.05813919
H       -3.11151046       2.09807631       0.46009174     -13.29320104       0.00497358      -0.00255506      -0.00905149       0.01863614
H       -2.08244395      -1.00412030       1.03877207     -12.98374782      -0.00096126      -0.01296881      -0.00601790       0.06348055
H       -5.46857887       1.99870409      -0.31716211     -13.20002761       0.00239001      -0.00198617      -0.00212546       0.04251180
H       -5.84691107       0.80803913       0.95215856     -12.99606676       0.00587166      -0.00284721      -0.00133071       0.06192678
H       -2.71472623       0.98314343      -1.76609643     -11.29085081       0.00557760       0.00469212       0.00033417       0.32672711
H       -4.03237673       1.28715331       2.65199116     -11.26181037       0.01241966       0.00420716      -0.00559808       0.32023605
H       -6.02725305       8.78149349      -0.94518249     -11.41667804       0.00181132      -0.00243512       0.00143681      -0.06775748
H       -0.41466141       0.20823355       1.92784805     -13.05424036       0.03967337      -0.05309606      -0.00932506       0.06565129
H       -2.16359068      -1.31078405      -1.74505299     -11.34512180      -0.01229057      -0.00041294      -0.00546551       0.31680160
H        1.39172150       1.50427375       1.74302518     -10.75857824       0.02373020      -0.00381763       0.00156853       0.34071438
H       -5.09300748       3.47959455       1.39684095     -11.56187259       0.00854985      -0.00303107      -0.00192280       0.29424858
O        3.73694820      -2.40644464      -2.52122245    -112.55252064      -0.01303810       0.00089096       0.00447063      -0.37236075
O        2.45970537      -3.94778139      -1.52239911    -112.08253274      -0.01695810       0.00729760       0.01084862      -0.39558875
O        5.73885391      -2.67100501      -0.36511103    -112.40577389      -0.00671547       0.00327253       0.00464741      -0.43586629
N        1.28112194      -1.85175973       0.04668471     -81.37508178      -0.00825359       0.02168656       0.00328890      -0.33256204
N        5.49336681      -0.43990410      -0.20134780     -80.96051936      -0.00736525       0.00373997      -0.00005942      -0.27969114
C        2.59347560      -1.73134199      -0.55846377     -58.97128443      -0.00658416       0.01062931       0.00418809       0.03293363
C        3.67166823      -1.82630700       0.53981856     -59.28502575      -0.00674285       0.00505353       0.00361556      -0.10150073
C        2.90443081      -2.83462259      -1.57378266     -58.92280113      -0.01279110       0.00709321       0.00667706       0.35360351
C        5.07249942      -1.70930739      -0.05203253     -59.20650912      -0.00676639       0.00402752       0.00259641       0.28590536
H        2.66403163      -0.76630300      -1.07004006     -13.02457813       0.00007132       0.00888393       0.00174992       0.05967050
H        3.49960150      -1.03642395       1.26952834     -13.03012435      -0.00390317       0.00351958       0.00595552       0.06657532
H        3.58543681      -2.79881613       1.02709125     -13.01567101      -0.00799255       0.00381243       0.00106281       0.07323899
H        1.19242383      -2.76961451       0.47412407     -12.46215762      -0.01091236       0.02864931       0.01785287       0.16898970
H        0.54508750      -1.78581284      -0.64994853     -12.55165833      -0.00683779       0.01209086       0.00069363       0.16681806
H        4.92055707       0.34892638       0.06311985     -12.03549344      -0.00881496       0.00408202      -0.00391302       0.21447511
H        6.40036330      -0.27946169      -0.60666252     -12.25118113      -0.00808482       0.00356274      -0.00174637       0.18950412
H        4.02458375      -3.14041277      -3.08815093     -10.94099768      -0.01654554      -0.00123366       0.00549172       0.33947228
O        3.68162656       1.80162761       0.41812385    -114.82316545      -0.01103662      -0.00038325      -0.00870962      -0.58079716
H        2.84191160       1.73479148      -0.04906645     -11.51095033      -0.01562541      -0.00198792      -0.00083184       0.30795427
H        4.04880847       2.66452802       0.21455412     -11.69343254      -0.01818581       0.00322966      -0.00653285       0.29083768
44
Properties=species:S:1:pos:R:3:energies:R:1:forces:R:3:charge:R:1 reactant=T mapped=T (centered)=T charge=0 multiplicity=1 energy=-2145.4859405098337 free_energy=-2145.4859405098337 dipole="-0.06295097918164518 0.5756001008119713 1.129916669421619" pbc="F F F"
O       -3.83785975       0.39556282      -1.50746047    -113.19522676       0.01489316       0.00286992      -0.01090306      -0.45400534
O       -3.11190222       1.15575740       1.98673913    -113.85499901       0.02426640       0.00209947      -0.01224967      -0.47380576
O       -1.64520013      -1.29120904      -0.98071338    -112.83867480       0.00419695      -0.00527264      -0.02478991      -0.40970719
O       -5.43767738       2.66210063       1.78055302    -113.15166826       0.05128033      -0.00042514       0.02133178      -0.44041934
O       -1.39613788       1.34194665      -1.83573317    -112.57846523       0.04179200      -0.02547584      -0.01608960      -0.45219910
O       -0.46810405       1.49242273       1.65517108    -111.94938172      -0.06511691      -0.02093752       0.03863434      -0.24263461
C       -3.43410815       0.16322674      -0.19937836     -59.11260065       0.01563866      -0.00215834      -0.01005350       0.09941126
C       -3.69085932       1.38843816       0.69949179     -58.85425578       0.01989817      -0.00154314      -0.01160162       0.07959803
C       -1.93645133      -0.23430263      -0.14146345     -58.64341901       0.01548432      -0.01073123      -0.01562668       0.09565644
C       -5.19486129       1.66302564       0.82014932     -59.27863839       0.02218884      -0.00483929       0.01695986       0.06286136
C       -1.17811560       1.07567004      -0.64328813     -58.85663356       0.02283513      -0.01178165      -0.00857100       0.17477660
C       -0.24287070       1.55602250       0.22263129     -56.11943753      -0.00582810       0.00972652      -0.00558910      -0.14237455
H       -4.02494505      -0.68397498       0.17458839     -12.95435451       0.01249726      -0.00064754      -0.00870653       0.05701021
H       -3.21119298       2.27621543       0.25920684     -13.10988578       0.01046434      -0.00004990      -0.02053068       0.04329700
H       -1.65826918      -0.55331964       0.86488560     -13.17714481       0.02042263      -0.01854496      -0.01883167       0.04030027
H       -5.58647973       1.92210182      -0.16779958     -13.10175714      -0.00477311      -0.01026367       0.02683234       0.05393541
H       -5.70998990       0.76572683       1.17470282     -12.99600268       0.03837332      -0.00592967       0.03776880       0.06098288
H       -3.12532835       0.91667979      -1.94817227     -11.19482451       0.01642167       0.00059845      -0.01161717       0.33728804
H       -3.74217915       1.52157512       2.62915476     -11.00352094       0.06041344       0.07808823      -0.01868048       0.33565625
H       -4.34510575       6.11960806      -0.18741572     -12.73998083      -0.00816083      -0.06120436       0.03550792      -0.20242882
H       -1.42706763       1.26873396       1.92522617     -10.25091834      -0.02015059       0.06630471      -0.05461794       0.37684877
H       -1.97347168      -1.06808378      -1.86631719     -11.16578505       0.00915314       0.00698616      -0.02373351       0.32940845
H        0.22433039       0.93601032       2.05955826     -10.26995351      -0.09578950      -0.07721884       0.03056286       0.36739686
H       -5.26564587       3.53008131       1.39560470     -11.44013972       0.00679747       0.00146612       0.00465114       0.30653222
O        3.80330201      -2.48110633      -2.49982519    -112.54962589      -0.00539364       0.01064242       0.00337883      -0.37332236
O        2.57756457      -4.06247817      -1.50021959    -112.16066851       0.01579865       0.08758350       0.01000818      -0.40468712
O        5.87245584      -2.66876223      -0.38372877    -112.41652892      -0.00648875       0.01054578       0.00676040      -0.43878829
N        1.39919793      -2.06882976       0.15745992     -81.56917695       0.00144455       0.01281447       0.01264029      -0.35171717
N        5.54090539      -0.45000777      -0.19999364     -80.95143352      -0.00792725       0.00478895      -0.00519274      -0.27982521
C        2.67761172      -1.86339729      -0.50297110     -58.98228958      -0.00906097       0.01209155       0.01322827       0.03237114
C        3.79139586      -1.91141385       0.56403939     -59.28548866      -0.00154799      -0.00037603       0.00510318      -0.10196576
C        2.99932205      -2.93701405      -1.54118261     -58.94761906      -0.04625332      -0.07891469       0.01784390       0.35258603
C        5.17140641      -1.73630551      -0.05567320     -59.22119848       0.00113002      -0.00650071      -0.00138339       0.28581235
H        2.67968995      -0.88743287      -0.99738234     -13.05669128      -0.00262362       0.00214541       0.01146424       0.05737868
H        3.59948091      -1.12604858       1.29379468     -13.01801804       0.00209616      -0.00412801       0.00832142       0.06752646
H        3.75396323      -2.88431409       1.05607875     -13.02527731       0.00039565      -0.00109152       0.00097554       0.07208768
H        1.34804398      -3.04247175       0.44900638     -12.57125712      -0.01193360       0.01560570       0.00767408       0.16016145
H        0.63260807      -1.92512971      -0.49368752     -12.62862174      -0.01894700       0.02511140      -0.02121416       0.15895881
H        4.92578201       0.31303994       0.04425237     -12.03873262      -0.01171958       0.00155559      -0.01061452       0.21486361
H        6.42720061      -0.25119624      -0.63323099     -12.27359888      -0.01047973       0.00362172      -0.00838288       0.18795905
H        4.08876074      -3.20185202      -3.08447653     -10.98119436      -0.01329852       0.00171790       0.01065989       0.33749861
O        3.65748327       1.76425056       0.32823479    -114.70834540      -0.01573700      -0.00491426      -0.01122012      -0.57320813
H        2.86572560       1.77818839      -0.21768204     -11.56291957      -0.03505266      -0.00687314       0.01637114       0.30252048
H        4.06086908       2.63269742       0.26264650     -11.69958608      -0.03159961       0.00345811      -0.00647847       0.29040441
44
Properties=species:S:1:pos:R:3:energies:R:1:forces:R:3:charge:R:1 reactant=T mapped=T (centered)=T charge=0 multiplicity=1 energy=-2149.01366850603 free_energy=-2149.01366850603 dipole="-0.6158973381978179 2.15255000613934 -0.6874702821536277" pbc="F F F"
O       -3.58014195       0.36248224      -1.50466730    -113.19385313       0.05570945      -0.01566212      -0.01393906      -0.43956215
O       -3.31784913       0.95165721       2.07057489    -112.95062553      -0.09198198      -0.10164440       0.01457228      -0.43367394
O       -1.75278904      -1.57505140      -0.84010740    -112.97092211       0.00341402      -0.03682007       0.02443626      -0.43150872
O       -5.51861280       2.57446199       1.68136247    -113.04600266      -0.04173757      -0.02187491      -0.03055522      -0.43446646
O       -0.30968301       0.43650233      -1.58078476    -112.67948602       0.38902709      -0.23873871       0.13067597      -0.37146538
O       -0.76284295       1.54314723       1.83794006    -112.84732333      -0.08528066       0.10188134       0.07162912      -0.42582284
C       -3.32451895       0.10166965      -0.14716184     -58.94066020      -0.02131199      -0.03974531       0.00419972       0.08917119
C       -3.70140614       1.27580923       0.76824079     -59.13570670      -0.04233239      -0.05907353       0.01594112       0.09152578
C       -1.86454412      -0.47117847       0.02144884     -59.16053282      -0.01425899      -0.03497373       0.04014342       0.08893333
C       -5.21326591       1.57106629       0.73990377     -59.18686739      -0.03945248      -0.03525623      -0.01653457       0.06032705
C       -0.79296135       0.51845297      -0.32505588     -57.16041240       0.00938107      -0.06577752       0.08882392       0.10675625
C       -0.68039845       1.79239341       0.45985609     -59.46827508      -0.18871282       0.17527440       0.08781398       0.06956190
H       -3.97601226      -0.73828914       0.11483636     -12.72535182      -0.05123486      -0.03372354      -0.04704280       0.07933395
H       -3.20542037       2.20304891       0.42504407     -13.24760864      -0.02036748      -0.05760180       0.04517830       0.01730427
H       -1.75140700      -0.80924384       1.05199857     -12.56601764      -0.05213409      -0.03804857       0.04910751       0.10426867
H       -5.53356086       1.84846602      -0.26936430     -13.26960347      -0.02354195      -0.03725480      -0.02379318       0.03399677
H       -5.75973266       0.68556959       1.06687799     -12.95620210      -0.04959666      -0.02532479      -0.00963070       0.06668101
H       -3.00201319       1.06668462      -1.82495484     -11.44602572       0.02147363       0.05731938       0.07076426       0.29766913
H       -3.84315752       1.49534578       2.67511856     -11.25830574       0.00974328       0.01478276       0.00873435       0.32028376
H       -1.46522470       2.60320375       0.21689833     -12.81886741       0.99707989      -1.11543518       0.18811271       0.06479070
H        0.29030130       2.23070817       0.29459074     -12.91620105       0.58463794       0.38282000      -0.61608612       0.05514061
H       -2.18619718      -1.33526916      -1.67505422     -11.32179653      -0.11639919      -0.09066114       0.06860595       0.31271232
H       -0.05826558       0.92243722       2.07147308     -11.30599932      -0.15813586      -0.02405969      -0.02846046       0.31630217
H       -5.20657921       3.43021254       1.36544255     -11.55110280       0.02948630      -0.03543080      -0.00965199       0.29161417
O        3.49165164      -2.28034172      -2.38369869    -112.63912583      -0.08021417       0.03587642       0.03992764      -0.39194931
O        2.12497940      -3.71421489      -1.34671828    -112.07918930      -0.15496232       0.07415068       0.04240092      -0.40333200
O        5.55297548      -2.67384382      -0.36354327    -112.35096475      -0.03715521      -0.00209115       0.00099466      -0.44012624
N        1.19169078      -1.27727221       0.27106619     -80.47181356      -0.05809194       0.14739234      -0.02523649      -0.43480366
N        5.42728902      -0.43255368      -0.21562675     -80.90090189      -0.00994882       0.00249888      -0.00384162      -0.28143485
C        2.39563554      -1.44451396      -0.46715212     -58.90191485      -0.04445173       0.07890624       0.03825662       0.05168313
C        3.55039471      -1.71010276       0.56923187     -58.95004458      -0.01939460       0.03211632       0.03370427      -0.08892778
C        2.60003303      -2.61510182      -1.43494015     -58.99065629      -0.08196113       0.09228873       0.04582841       0.34558371
C        4.93698120      -1.67575018      -0.05336962     -59.26157619      -0.02667433       0.00893110       0.00969113       0.28605343
H        2.63079760      -0.52219468      -1.01512386     -13.16726486       0.02025550       0.08286929       0.04670511       0.04029891
H        3.46294640      -0.95397710       1.34682893     -12.99843703       0.01579136       0.03073493       0.04445950       0.07264732
H        3.38739783      -2.69989921       0.99842982     -13.08518207      -0.03842500       0.02946136       0.02873465       0.06962993
H        0.68344239      -2.16136269       0.27970944     -13.01413032      -0.13314847       0.13109185      -0.04371504       0.13012460
H       -0.18131954      -0.54081845      -1.68723634     -10.66899397      -0.31471965       0.55934570      -0.39835846       0.36073441
H        4.89800251       0.38195663       0.05966387     -12.07348647      -0.00136104       0.00731105       0.00202396       0.21576686
H        6.34829651      -0.32264104      -0.60529654     -12.32463259      -0.01334512       0.00098136      -0.01881965       0.18512107
H        3.81715140      -3.06725859      -2.85174543     -11.12504035      -0.10748012       0.02316462       0.03815024       0.33193960
O        3.69917765       1.83968826       0.35095254    -114.49910732       0.01840409       0.02144248      -0.00677632      -0.56520729
H        2.90828701       1.76659393      -0.18895482     -11.66000643      -0.00168453      -0.02319264       0.02711739       0.29668550
H        4.04374899       2.72975283       0.25844729     -11.72745025      -0.03490645       0.04174936      -0.01429169       0.28963910
44
Properties=species:S:1:pos:R:3:energies:R:1:forces:R:3:charge:R:1 reactant=T mapped=T (centered)=T charge=0 multiplicity=1 energy=-2153.2370718397788 free_energy=-2153.2370718397788 dipole="0.11090561398805546 1.4551415174834974 -0.2570514881214777" pbc="F F F"
O       -3.18493076       0.29240790      -1.54087411    -113.21141409       0.04053624      -0.00590426      -0.00645372      -0.45533624
O       -3.00342893       1.07858552       2.00226150    -113.16734967       0.02056531       0.00579653      -0.00754509      -0.45302071
O       -1.77823492      -1.97095837      -0.42452742    -112.98389586       0.00632919      -0.02842560       0.03620410      -0.44369139
O       -5.35550078       2.45266585       1.58589563    -113.04226648       0.00635923      -0.01631432      -0.01453639      -0.43718891
O       -0.36223949       0.08034529      -1.72063324    -113.42590980      -0.00167156      -0.01315649      -0.00113765      -0.47851993
O        0.74404647       1.57199105       1.22617915    -113.12666801       0.12498806      -0.01205986      -0.01267910      -0.44441417
C       -3.06584813       0.00757000      -0.16795697     -59.15370143       0.02351122      -0.00707818      -0.00469424       0.08557730
C       -3.47161695       1.22980818       0.68712086     -59.07788435       0.01756116      -0.00499796      -0.00948366       0.08959544
C       -1.71660990      -0.68825032       0.16403716     -59.04553673       0.01412551      -0.01371967       0.01559581       0.07461582
C       -5.00118220       1.40873224       0.70678489     -59.21762599       0.01569810      -0.01618063      -0.01113641       0.06006984
C       -0.37623072      -0.02545496      -0.30161292     -58.92537480       0.03884936      -0.04023102       0.01117664       0.17957236
C       -0.23246971       1.42458731       0.24028926     -59.34538387       0.05583547      -0.02845996      -0.00514265       0.05455656
H       -3.81849098      -0.76955032       0.03076109     -12.85230351       0.01469852      -0.00259839      -0.01351683       0.06249388
H       -3.04774055       2.14649536       0.23404035     -13.26921570       0.01335742      -0.00504675      -0.01520724       0.01715507
H       -1.65479237      -0.82444120       1.24612225     -12.85150371       0.00261213       0.00199012       0.02024163       0.07785599
H       -5.37614843       1.58362961      -0.30685415     -13.23092450       0.01535531      -0.02177109      -0.01261886       0.03854719
H       -5.47473022       0.51394440       1.11693071     -12.99398820       0.02091562      -0.01897694      -0.00943589       0.06297410
H       -2.39397162       0.77020395      -1.83022463     -11.43953036       0.05698970      -0.01936425       0.00081599       0.31142544
H       -3.64110930       1.51903003       2.58494967     -11.29746696       0.01137013      -0.00143385      -0.01023050       0.31919569
H       -1.15425640       1.74435254       0.71269035     -12.92665143       0.03705856      -0.04485765       0.02596081       0.06987607
H       -0.01916563       2.07964263      -0.61724746     -13.15151264       0.03416436      -0.01914778      -0.06093193       0.03657422
H       -2.16483846      -1.86868770      -1.30591874     -11.46415711       0.00021756      -0.04272796       0.03643638       0.30731369
H        1.51877027       1.09873561       0.90708689     -11.31988835       0.07714747      -0.14083673       0.01971100       0.31266793
H       -5.06502549       3.29543632       1.21830775     -11.57224352       0.00575173      -0.01592228      -0.01449137       0.29265629
O        3.11638286      -1.90080619      -2.32321866    -112.53594273      -0.03381038       0.03394473       0.00302813      -0.37279624
O        1.30671443      -3.00247874      -1.61040431    -112.18873218      -0.07356818       0.06575651      -0.02503873      -0.40539129
O        4.94539200      -2.65790892      -0.25289648    -112.39988178      -0.05261098      -0.00281880       0.01118905      -0.43764940
N        0.68650779      -0.89298931       0.20093603     -80.79740783      -0.04197771       0.03066801      -0.00359462      -0.28304141
N        5.11499482      -0.42076228      -0.13949951     -80.93562577      -0.02978696      -0.00168526      -0.00426286      -0.27822665
C        1.98752436      -0.98633042      -0.45013300     -58.93902458      -0.03246683       0.03882951       0.00321277       0.02978420
C        3.04482142      -1.43915460       0.59544957     -59.24551442      -0.04092187       0.02437844       0.00461558      -0.10437350
C        2.06464212      -2.07402363      -1.52442064     -58.91420815      -0.04615051       0.04808966      -0.00837028       0.35311428
C        4.45470460      -1.58230216       0.01446738     -59.20821133      -0.04055141       0.00515864       0.00441556       0.28686827
H        2.28162103      -0.03347710      -0.89873483     -13.00853617      -0.02934344       0.04332834       0.01464802       0.06659176
H        3.05997750      -0.73425387       1.42503465     -13.04547741      -0.02486459       0.02473126       0.00530142       0.06515612
H        2.75138227      -2.41907495       0.97666107     -12.99134441      -0.05330885       0.02800085       0.00659320       0.07605339
H        0.32102149      -1.83705590       0.30605397     -12.29704797      -0.03196067       0.02456828      -0.00601984       0.18544527
H       -0.35782302      -0.81998122      -2.07450806     -11.48277936      -0.02744622      -0.00350222      -0.03027264       0.30812648
H        4.69151293       0.47281634       0.05921075     -12.02819912      -0.01916760       0.00418183      -0.00279681       0.21776336
H        6.04045597      -0.44534852      -0.53474766     -12.24758952      -0.02991878      -0.01260967      -0.00575488       0.19036034
H        3.28384589      -2.69049856      -2.86336807     -10.94203227      -0.05314010       0.03635690      -0.00891213       0.34044667
O        3.69054965       1.95231404       0.68978155    -114.71927832       0.02060414       0.01900637       0.01819159      -0.57789424
H        3.20027890       1.77570855       1.49616510     -11.55139912      -0.00975796       0.08143683       0.11502574       0.30395937
H        3.86451470       2.89521850       0.67594396     -11.66644233      -0.00217692       0.02360479      -0.04809911       0.29515167
44
Properties=species:S:1:pos:R:3:energies:R:1:forces:R:3:charge:R:1 reactant=T mapped=T (centered)=T charge=0 multiplicity=1 energy=-2153.4893017192344 free_energy=-2153.4893017192344 dipole="-0.11382741694049936 1.7536024874560743 -0.06105507546740991" pbc="F F F"
O       -3.00261928       0.58312675      -1.51883233    -113.26232405       0.00959703       0.01775704      -0.00032687      -0.46934758
O       -2.80612835       1.10843473       2.01654422    -113.31910022       0.00574095      -0.00174465       0.00117137      -0.46182666
O       -1.85369576      -2.05193096      -0.15773938    -112.89095530      -0.00716793      -0.00897971       0.01958918      -0.43354261
O       -5.22346151       2.45561327       1.70533600    -113.05534764       0.00336017      -0.00186171       0.00135585      -0.43802987
O       -0.46361190      -0.35537245      -1.77990596    -113.37343570      -0.01046202      -0.03001775      -0.00204031      -0.47667202
O        1.11440242       1.74284005      -0.17945087    -113.28713900       0.03459687       0.00875219      -0.07721191      -0.45018028
C       -3.00287707       0.07405500      -0.20480042     -59.16057199       0.00179748       0.00180985      -0.00407375       0.08458336
C       -3.35721805       1.25506548       0.73004447     -59.08287234       0.00495246      -0.00069512       0.00104603       0.08969307
C       -1.72825665      -0.70267067       0.20242434     -59.19887206      -0.00418279      -0.00399292       0.00323341       0.08056237
C       -4.88240603       1.40307042       0.83187674     -59.24805648       0.00505121      -0.00082429       0.00077364       0.05940324
C       -0.38444029      -0.16745802      -0.36110956     -58.88921322      -0.00297192      -0.01212243      -0.00074699       0.19238392
C       -0.23149773       1.32720150      -0.03036651     -59.12264716      -0.00259747      -0.01026936      -0.00999225       0.05352129
H       -3.80920806      -0.67359787      -0.11887003     -12.94677937      -0.00219220       0.00393238      -0.01208595       0.04926089
H       -2.95678275       2.17428195       0.26833812     -13.15727321       0.00690858      -0.00122021       0.00225303       0.02761152
H       -1.66766907      -0.68748578       1.29409955     -12.75853613      -0.00663807       0.00646034       0.00424337       0.08220307
H       -5.30798543       1.54313521      -0.16681827     -13.19856793       0.00616314      -0.00064398       0.00019529       0.04163862
H       -5.30509165       0.50087796       1.28069899     -12.99445453       0.00554785      -0.00192931      -0.00048094       0.06236485
H       -2.23448001       0.22331930      -1.98705428     -11.35044737       0.01899906      -0.03966797      -0.01001037       0.32502696
H       -3.44732619       1.48882312       2.63590055     -11.26693112       0.00220551      -0.00805118       0.00169464       0.31999101
H       -0.57053731       1.48779649       0.99723911     -13.05958117       0.02753166      -0.02607514       0.03203619       0.05426039
H       -0.86816281       1.89264644      -0.71755642     -13.12837570      -0.05914982      -0.01130337      -0.00663504       0.04460244
H       -1.72242043      -2.12751680      -1.11338074     -11.39918184       0.03185801      -0.02059052       0.01183251       0.31562997
H        1.14251848       2.70204624      -0.12179704     -11.38563354      -0.03142666       0.13359132      -0.02377547       0.30388845
H       -4.99058551       3.29468396       1.29213800     -11.56828618       0.00120572      -0.00138414       0.00065301       0.29269092
O        2.91889074      -1.78225528      -2.41295681    -112.62090633      -0.01926704       0.00730267      -0.00688151      -0.38058796
O        1.26209977      -3.03425741      -1.57943759    -112.10150719      -0.00426401      -0.00500503       0.00744472      -0.39800792
O        4.86848239      -2.63357492      -0.35111702    -112.41800117      -0.01477655      -0.00483430      -0.00977683      -0.44146483
N        0.65069323      -0.95116160       0.26377952     -80.83410540      -0.00552110      -0.00753928       0.00615262      -0.27761051
N        5.02075984      -0.41796454       0.00949301     -80.92860174      -0.00459528      -0.00588656       0.00009696      -0.27904221
C        1.94918872      -1.04678799      -0.38139952     -58.95365718      -0.00580167      -0.00453591       0.00598750       0.02721986
C        2.98204605      -1.52832521       0.65972185     -59.27923559      -0.00511944      -0.00160791       0.00546574      -0.10345146
C        1.97841608      -2.07372329      -1.51067267     -58.93372924      -0.00898197      -0.00201675       0.00339267       0.35212723
C        4.38268024      -1.59992306       0.05616044     -59.23283154      -0.00826630      -0.00425050      -0.00091870       0.28570708
H        2.25598217      -0.07470824      -0.77375238     -12.91585094      -0.00765702      -0.00261812       0.00905395       0.07423635
H        2.96575218      -0.84529800       1.50700281     -12.97614498      -0.00305276       0.00278451       0.00197396       0.07267226
H        2.69839340      -2.52608113       0.99662115     -13.01910428      -0.00569459       0.00008350       0.00989023       0.07393352
H        0.29831125      -1.89642558       0.40814119     -12.21234239      -0.00429890      -0.00830146       0.00551943       0.18895960
H        0.36207928      -0.07272368      -2.18405890     -11.53430529       0.06573180       0.06602544      -0.00455537       0.30356607
H        4.61236692       0.43641690       0.36304116     -11.99316718       0.00320369      -0.00543714       0.01130328       0.22331445
H        5.94277471      -0.38593902      -0.39225876     -12.27903224      -0.00607976      -0.00790484      -0.00373214       0.18864395
H        3.05345286      -2.52308541      -3.02533202     -10.97961557      -0.02160141       0.00980322      -0.01098830       0.33812312
O        3.59576639       1.85492176       1.07011388    -114.76843978       0.02102688       0.00041500       0.01588736      -0.59465891
H        2.70315682       1.60884672       0.78792004     -11.55088417      -0.02165636      -0.01281259      -0.05012939       0.31456787
H        3.51152443       2.31149564       1.90741305     -11.85325630       0.01794496      -0.00459334       0.07211614       0.28203513
44
Properties=species:S:1:pos:R:3:energies:R:1:forces:R:3:charge:R:1 reactant=T mapped=T (centered)=T charge=0 multiplicity=1 energy=-2153.6156389835496 free_energy=-2153.6156389835496 dipole="-0.3035939502692583 1.5434050886612622 -0.2131636167836973" pbc="F F F"
O       -2.73147584       0.70314278      -1.42618788    -113.30195450       0.00098402       0.00080652       0.00057112      -0.46767288
O       -3.15673074       0.91965188       2.12835004    -113.23164291      -0.00207857      -0.00185705       0.00108036      -0.45646574
O       -1.59323860      -1.93897787       0.26397709    -112.90980835       0.00048444      -0.00012589       0.00096380      -0.43669446
O       -5.46740971       2.29835581       1.42928353    -113.04705646      -0.00065258       0.00020998      -0.00082688      -0.43739186
O       -0.24899023      -0.32329929      -1.61095263    -113.35084871       0.00054957      -0.00049954       0.00049309      -0.47072296
O        1.15026672       1.90899799      -0.61127901    -113.33400117      -0.00001704       0.00047743      -0.00213135      -0.45037708
C       -2.84420779       0.10449232      -0.15676578     -59.10950537       0.00031796       0.00006395       0.00023667       0.08678717
C       -3.40922121       1.19789837       0.77475516     -59.09860501      -0.00017783      -0.00039776       0.00067340       0.09433983
C       -1.54647085      -0.54209305       0.39537972     -59.19763607       0.00034519       0.00012218       0.00055773       0.07773031
C       -4.91913482       1.34983107       0.54348638     -59.24705252      -0.00009971       0.00066739      -0.00124140       0.06018615
C       -0.22254523      -0.02758448      -0.21740616     -58.87824423       0.00028803       0.00002080       0.00041111       0.19381132
C       -0.07713418       1.49093437      -0.02965714     -59.09790169       0.00028147       0.00013013      -0.00014010       0.05211357
H       -3.57303785      -0.72171033      -0.19740559     -12.99397771       0.00034286      -0.00008059      -0.00048553       0.04616871
H       -2.91875469       2.15034094       0.50737953     -13.18666915       0.00103089      -0.00039054       0.00214504       0.02476195
H       -1.52395925      -0.34894973       1.47265103     -12.76172931       0.00029926       0.00046751       0.00063878       0.08076728
H       -5.10922884       1.60536808      -0.50377296     -13.19230648       0.00145335       0.00174237      -0.00156551       0.04199252
H       -5.41654270       0.40622151       0.78054838     -12.98939412      -0.00126105       0.00066567      -0.00270187       0.06273450
H       -2.12564994       0.16296431      -1.95594554     -11.33402434      -0.00005488      -0.00042607       0.00009530       0.32266505
H       -3.93554408       1.21334122       2.62419786     -11.26738748      -0.00270899      -0.00201229       0.00055296       0.32040709
H       -0.10186048       1.71756863       1.04082576     -13.15907079       0.00164505       0.00023467       0.00031792       0.04376936
H       -0.91577167       1.98056340      -0.53199292     -13.08129037      -0.00079901      -0.00023515       0.00059424       0.05274522
H       -1.27241495      -2.19555833      -0.61314739     -11.39864243       0.00116214      -0.00060076       0.00097714       0.31926146
H        1.16288674       2.87128386      -0.65242615     -11.37744765      -0.00010769       0.00054035      -0.00227490       0.30623065
H       -5.14429434       3.17481130       1.19160284     -11.56958912       0.00052969       0.00030300       0.00036321       0.29260210
O        2.38091346      -1.76641614      -2.54407641    -112.60067804      -0.00124520      -0.00001575      -0.00063367      -0.37673078
O        0.96227170      -2.97412403      -1.30850853    -112.23650663      -0.00034684      -0.00030661       0.00089311      -0.41012142
O        4.94731903      -2.56811284      -0.66329253    -112.37859531       0.00014892       0.00023387      -0.00095020      -0.43557904
N        0.84761956      -0.72110151       0.48091988     -80.98250332       0.00027976       0.00033503       0.00086169      -0.29166234
N        5.03014543      -0.40391258      -0.03613431     -80.94924841       0.00017345       0.00019926      -0.00020442      -0.28220893
C        2.02113594      -1.03709996      -0.31629787     -58.90387456       0.00019917       0.00003303       0.00040727       0.03153501
C        3.09125594      -1.67039562       0.58812489     -59.29347671       0.00046739      -0.00012068       0.00012526      -0.10245241
C        1.70945162      -2.03995300      -1.42496067     -58.89705604      -0.00046129      -0.00015548       0.00029018       0.35858840
C        4.45119546      -1.61667196      -0.10188688     -59.22927122       0.00025293       0.00010718      -0.00041023       0.28492145
H        2.41019810      -0.12283933      -0.77273880     -12.93730450       0.00028064       0.00001635       0.00030574       0.06953593
H        3.12483868      -1.12001595       1.52721295     -12.98003369       0.00059571      -0.00016280       0.00028152       0.07108650
H        2.82957379      -2.70959692       0.79069387     -13.05339993       0.00063148      -0.00025858       0.00007415       0.07205323
H        0.47584722      -1.59786698       0.84518644     -12.21994479       0.00020968       0.00027139       0.00130887       0.18680850
H        0.41806494       0.22841137      -2.03919206     -11.35900778       0.00001676       0.00093735       0.00045466       0.31660031
H        4.58148361       0.38279929       0.41892366     -12.00615257       0.00002888       0.00017143      -0.00009625       0.22086655
H        5.91707342      -0.26632866      -0.49054548     -12.28715713      -0.00000815       0.00043539      -0.00063323       0.18823551
H        2.25626006      -2.46923293      -3.20157215     -10.99062256      -0.00168744      -0.00007172      -0.00097157       0.33575273
O        3.34717941       1.62969424       1.19452718    -114.78095662      -0.00019464       0.00026376      -0.00040117      -0.59359279
H        2.59994120       1.62661318       0.57696716     -11.57756641      -0.00031484       0.00050168      -0.00170051       0.31222716
H        2.99197249       1.36898752       2.04653217     -11.83649684      -0.00078293      -0.00224041       0.00169447       0.28438713
44
Properties=species:S:1:pos:R:3:energies:R:1:forces:R:3:charge:R:1 reactant=T mapped=T (centered)=T charge=0 multiplicity=1 energy=-2153.7324159082445 free_energy=-2153.7324159082445 dipole="0.002017980774764285 0.993114755031359 0.21167254958125709" pbc="F F F"
O       -2.72091604       0.55756515      -1.40836114    -113.27242268       0.00008623       0.00001539       0.00040007      -0.46669018
O       -3.19478732       0.96063180       2.13409430    -113.21107164      -0.00118179      -0.00086914       0.00039295      -0.45690049
O       -1.37429006      -1.83345324       0.56136262    -112.97781343      -0.00003649      -0.00000452       0.00079046      -0.44356368
O       -5.46893589       2.30107089       1.27054735    -113.04517686       0.00003132       0.00069033      -0.00085271      -0.43842556
O       -0.17921002      -0.26656985      -1.59648119    -113.32369150      -0.00030738      -0.00054158       0.00026003      -0.46414719
O        1.12687467       2.07217290      -0.81861052    -113.28559069      -0.00003239      -0.00040855      -0.00039789      -0.45798035
C       -2.76186697       0.06405934      -0.09240658     -59.11335495       0.00001006      -0.00006202       0.00036843       0.08896366
C       -3.37572254       1.19287369       0.75950761     -59.09642878      -0.00009596      -0.00014104       0.00037627       0.09435235
C       -1.41095904      -0.43124541       0.48887830     -59.19296988       0.00000976      -0.00002012       0.00046164       0.07796489
C       -4.87057257       1.33123104       0.44164983     -59.24567955       0.00020138       0.00065953      -0.00069608       0.06068631
C       -0.13899088       0.08682978      -0.22434672     -58.82385741      -0.00000193      -0.00029140       0.00019977       0.18129130
C       -0.01738497       1.62267826      -0.13854452     -59.30701627       0.00011441      -0.00028415      -0.00005205       0.05131501
H       -3.43162247      -0.81022923      -0.03798960     -13.00358488       0.00001506      -0.00007204       0.00028476       0.04558225
H       -2.86886470       2.13408311       0.48452234     -13.18969744       0.00052760      -0.00023834       0.00117262       0.02605395
H       -1.37397068      -0.09354321       1.53061037     -12.82114330       0.00009882       0.00019901       0.00038666       0.07326788
H       -5.00244889       1.55758837      -0.62081681     -13.17680904       0.00111378       0.00104404      -0.00072898       0.04406547
H       -5.37816187       0.39222236       0.67560812     -13.00158616      -0.00041936       0.00082346      -0.00137773       0.06156608
H       -2.09278308       0.01899660      -1.91247992     -11.35013948       0.00023245       0.00012962       0.00043995       0.32200399
H       -4.00112770       1.26503443       2.57641745     -11.29330433      -0.00133305      -0.00067455      -0.00001584       0.31946895
H       -0.03041204       1.93904206       0.90840299     -13.28570244       0.00040366      -0.00015706      -0.00009275       0.03167893
H       -0.87666320       2.05642799      -0.65598445     -12.95731086      -0.00000782      -0.00032722       0.00010973       0.06728617
H       -1.08186383      -2.21032371      -0.28422964     -11.39560077      -0.00076509      -0.00017262       0.00060294       0.32250477
H        1.89292787       1.98255988      -0.22651404     -11.28469580      -0.00006065       0.00041021      -0.00041773       0.32383380
H       -5.13104682       3.17096116       1.02905524     -11.57776338       0.00059868       0.00060725      -0.00036142       0.29304546
O        2.06347816      -1.87513595      -2.65935373    -112.54938973      -0.00049129      -0.00021111      -0.00009721      -0.36954546
O        0.70717870      -2.90927554      -1.21621196    -112.38597249       0.00022935      -0.00050826       0.00035596      -0.42158490
O        5.17420308      -2.32611647      -0.79610745    -112.30225449       0.00050795       0.00120894      -0.00051312      -0.42335262
N        1.00681895      -0.54991553       0.45450381     -81.25632309       0.00005758      -0.00030096       0.00006401      -0.30947052
N        4.93357783      -0.21637610      -0.03740329     -80.94980466      -0.00029100       0.00090889       0.00005158      -0.27878429
C        2.04962194      -1.04528475      -0.44278963     -58.84185869      -0.00001202      -0.00018545      -0.00009720       0.03179198
C        3.14339756      -1.75489871       0.37836440     -59.31585200       0.00031872       0.00007065      -0.00030482      -0.10445333
C        1.50450495      -2.04170994      -1.46454518     -58.87196984      -0.00009340      -0.00036800       0.00009778       0.36427203
C        4.52249954      -1.48760502      -0.21914461     -59.18631770       0.00019928       0.00080408      -0.00027560       0.28551127
H        2.47651213      -0.20011533      -0.99238260     -12.91801831      -0.00029509      -0.00014040      -0.00024512       0.07021697
H        3.12521735      -1.38076770       1.40231743     -12.96457343       0.00017106      -0.00023704      -0.00019686       0.07133958
H        2.96333690      -2.83029972       0.39836458     -13.04171667       0.00080564      -0.00001434      -0.00059506       0.07353509
H        0.64149348      -1.35236593       0.97111182     -12.21548661       0.00010622      -0.00037227       0.00000267       0.18820702
H        0.32352049       0.41321553      -2.07266339     -11.21414789      -0.00018610      -0.00078444       0.00004806       0.32763607
H        4.36879507       0.46285418       0.45108260     -12.03260884      -0.00058704       0.00060885       0.00015458       0.21331944
H        5.82267851       0.06522721      -0.41429698     -12.23142995      -0.00043987       0.00135757       0.00003944       0.19182833
H        1.76424774      -2.55768803      -3.28086822     -10.94963174      -0.00052154      -0.00027692      -0.00000640       0.33686905
O        2.79656125       1.37620326       1.37012813    -114.98476837       0.00009635      -0.00004096      -0.00003681      -0.60397666
H        2.12272723       0.66777365       1.31232651     -11.47196554       0.00012811       0.00001520      -0.00061885       0.31434503
H        2.70570470       1.79204870       2.22905707     -11.81591432       0.00109577      -0.00184851       0.00091988       0.28507214
44
Properties=species:S:1:pos:R:3:energies:R:1:forces:R:3:charge:R:1 product=T mapped+aligned=T onto=T reactant=T energy=-2153.6383618306936 free_energy=-2153.6383618306936 dipole="0.07534642770973006 0.9046247351041676 0.42024254108049514" pbc="F F F"
O       -2.94768296       0.44896358      -1.48574589    -113.16414341       0.02051731       0.01754676      -0.00034234      -0.45358857
O       -2.68908047       1.11453911       2.03747878    -113.28752429      -0.00044278      -0.01041926      -0.01917835      -0.46054960
O       -1.69988396      -1.97598012      -0.34167673    -112.99483810      -0.00837537      -0.00151383       0.02670690      -0.45625668
O       -5.02992724       2.60357781       1.58768966    -113.05008946       0.01876369      -0.01025879      -0.00163486      -0.43865271
O       -0.14133359      -0.34142044      -1.76698120    -113.13761426      -0.02638929      -0.00864457       0.00334262      -0.45420880
O        0.99611066       2.02389867      -0.77545750    -113.28571156       0.01076407      -0.03603562      -0.01226303      -0.46060311
C       -2.86933497       0.04389611      -0.14342518     -59.13036234       0.01326261       0.00840770      -0.00516244       0.09540532
C       -3.19124263       1.26877527       0.73051993     -59.14146070       0.00273832       0.00467864      -0.01708041       0.09011433
C       -1.53726324      -0.67407846       0.17047553     -59.06200244       0.00076081       0.00629818       0.00780570       0.09008087
C       -4.70988171       1.50437558       0.76429596     -59.24012103       0.00268452      -0.00950511      -0.00904300       0.05947327
C       -0.23914377      -0.04118612      -0.39422771     -58.89877796      -0.00966616      -0.00316817       0.00122018       0.18237813
C       -0.18758185       1.49163049      -0.23407547     -59.30071581      -0.00162598      -0.00369656      -0.00637668       0.05047536
H       -3.63314902      -0.72629159       0.05939959     -12.95313331       0.02206006       0.00249372      -0.00209929       0.04781584
H       -2.73231443       2.15574605       0.26671980     -13.11774027      -0.00206639       0.01945989       0.00742912       0.03224982
H       -1.44604727      -0.70484151       1.26814691     -13.07162611       0.01944416       0.02154676       0.00298739       0.04201935
H       -5.07014306       1.63882790      -0.26000899     -13.18783459      -0.03759138      -0.01160666       0.00320259       0.04269724
H       -5.21205073       0.64528420       1.21501710     -13.00051897       0.03068150      -0.01638692       0.00660201       0.06208555
H       -2.60516001      -0.28622290      -2.01276965     -11.30469469       0.01639300       0.03062127      -0.01661526       0.32429029
H       -3.28156694       1.61511504       2.61915704     -11.28699558      -0.01094734      -0.02527818      -0.02326021       0.31868909
H       -0.32495421       1.75385365       0.81865816     -13.24800753       0.00868252       0.02294566      -0.01111805       0.03674871
H       -1.00026104       1.91132206      -0.82978231     -12.92480717       0.00300932      -0.00392295      -0.01001688       0.06934119
H       -0.85476199      -2.34285769      -0.65564922     -11.42787639      -0.01207043       0.01285389       0.02150427       0.32732428
H        1.70903559       1.94359398      -0.12024285     -11.32208008      -0.01541049       0.00891365       0.01763981       0.32167427
H       -4.77081831       3.41905235       1.14409149     -11.57297277       0.02556712      -0.01474999      -0.00250843       0.29325604
O        2.37946299      -2.02306503      -2.56576633    -112.44807406      -0.01077042       0.01803403      -0.00776780      -0.35812759
O        0.85896214      -2.97046036      -1.22680703    -112.46818942      -0.01372700      -0.03644223      -0.01348176      -0.42721348
O        5.19496925      -2.15154456      -0.66455553    -112.29402725       0.00615958      -0.00422190       0.00304723      -0.42150615
N        0.88690963      -0.63945966       0.36720578     -81.23676625      -0.00482298       0.00291141      -0.00354872      -0.31056490
N        4.89851425      -0.04775801       0.09323195     -80.92664858      -0.01343261       0.00060945      -0.00806129      -0.27520081
C        2.03949942      -1.02599061      -0.44226345     -58.82312276      -0.00410374      -0.00741788       0.00061019       0.03344885
C        3.13180842      -1.61710420       0.47143202     -59.30668120       0.00334059      -0.00343736       0.00085334      -0.10508897
C        1.66821447      -2.10482568      -1.45377955     -58.84572395       0.02587112       0.03724637      -0.01478593       0.36561172
C        4.51617247      -1.32665130      -0.10013892     -59.17955135       0.00896526      -0.00312201       0.00854562       0.28605807
H        2.42004422      -0.15283522      -0.97934154     -12.90815012      -0.00685943       0.00077597       0.01400835       0.07356613
H        3.06049377      -1.16578239       1.46048915     -12.92626078      -0.01031045      -0.01095137       0.00410154       0.07470368
H        2.99492055      -2.69496598       0.56812852     -13.07244419       0.02525267      -0.00540857      -0.01016491       0.06981338
H        0.55772026      -1.48499146       0.82973425     -12.36978060      -0.00603653       0.02128135       0.02266389       0.17050905
H        0.30895335       0.40234693      -2.19387848     -11.30176692      -0.01674641      -0.01240453       0.01324399       0.32172480
H        4.30291325       0.61865248       0.55999966     -12.04718646      -0.00797063      -0.00726881       0.00911285       0.21054309
H        5.79166636       0.25275688      -0.25894414     -12.20931012      -0.01124750       0.00918832      -0.01003194       0.19331059
H        2.19603900      -2.76531260      -3.16417105     -10.89476885      -0.03222079       0.00853100       0.01381166       0.34060828
O        2.51719040       1.34873820       1.51379886    -114.97219344       0.00395295      -0.00887094       0.00453270      -0.60411386
H        1.85802209       0.64276853       1.36255808     -11.47797762       0.00560751      -0.01346869       0.02022672       0.31432335
H        2.33923740       1.72634300       2.37684120     -11.81808909      -0.01164464       0.01385687      -0.00865708       0.28533532
