44
Properties=species:S:1:pos:R:3 reactant=T mapped=T (centered)=T charge=0 multiplicity=1 pbc="F F F"
O       -3.83785975       0.39556282      -1.50746047
O       -3.11190222       1.15575740       1.98673913
O       -1.64520013      -1.29120904      -0.98071338
O       -5.43767738       2.66210063       1.78055302
O       -1.39613788       1.34194665      -1.83573317
O       -0.46810405       1.49242273       1.65517108
C       -3.43410815       0.16322674      -0.19937836
C       -3.69085932       1.38843816       0.69949179
C       -1.93645133      -0.23430263      -0.14146345
C       -5.19486129       1.66302564       0.82014932
C       -1.17811560       1.07567004      -0.64328813
C       -0.24287070       1.55602250       0.22263129
H       -4.02494505      -0.68397498       0.17458839
H       -3.21119298       2.27621543       0.25920684
H       -1.65826918      -0.55331964       0.86488560
H       -5.58647973       1.92210182      -0.16779958
H       -5.70998990       0.76572683       1.17470282
H       -3.12532835       0.91667979      -1.94817227
H       -3.74217915       1.52157512       2.62915476
H       -4.34510575       6.11960806      -0.18741572
H       -1.42706763       1.26873396       1.92522617
H       -1.97347168      -1.06808378      -1.86631719
H        0.22433039       0.93601032       2.05955826
H       -5.26564587       3.53008131       1.39560470
O        3.80330201      -2.48110633      -2.49982519
O        2.57756457      -4.06247817      -1.50021959
O        5.87245584      -2.66876223      -0.38372877
N        1.39919793      -2.06882976       0.15745992
N        5.54090539      -0.45000777      -0.19999364
C        2.67761172      -1.86339729      -0.50297110
C        3.79139586      -1.91141385       0.56403939
C        2.99932205      -2.93701405      -1.54118261
C        5.17140641      -1.73630551      -0.05567320
H        2.67968995      -0.88743287      -0.99738234
H        3.59948091      -1.12604858       1.29379468
H        3.75396323      -2.88431409       1.05607875
H        1.34804398      -3.04247175       0.44900638
H        0.63260807      -1.92512971      -0.49368752
H        4.92578201       0.31303994       0.04425237
H        6.42720061      -0.25119624      -0.63323099
H        4.08876074      -3.20185202      -3.08447653
O        3.65748327       1.76425056       0.32823479
H        2.86572560       1.77818839      -0.21768204
H        4.06086908       2.63269742       0.26264650
