44
Properties=species:S:1:pos:R:3 reactant=T mapped=T (centered)=T charge=0 spin=1 pbc="F F F"
O       -3.27847866       0.44109168      -1.53381926
O       -2.82060595       0.60460877       2.06689728
O       -1.90081124      -1.88693009      -1.14858991
O       -4.93713524       2.36108458       1.99162800
O       -0.13044940       0.00048588      -1.81724664
O        1.04683331       1.54796407       0.61151021
C       -3.07231450      -0.05783660      -0.21087706
C       -3.28339521       1.05894704       0.80870708
C       -1.75164163      -0.84979954      -0.18832261
C       -4.75433186       1.43200700       0.92875482
C       -0.36351649      -0.17689627      -0.43243306
C       -0.27447626       1.20561706       0.21497725
H       -3.81797575      -0.83243802       0.00793214
H       -2.73285296       1.95066150       0.48335197
H       -1.69950628      -1.32266264       0.79308538
H       -5.13872888       1.82836641      -0.01460288
H       -5.32930284       0.54608534       1.20505006
H       -4.20358319       0.33236931      -1.77157075
H       -3.22214091       1.17838950       2.73368769
H       -0.60357089       1.95962956      -0.49786061
H       -0.90284958       1.22021493       1.10212795
H       -2.29768940      -1.46508339      -1.92469402
H        1.29608424       0.87673370       1.25968600
H       -4.72250644       3.24608073       1.68044329
O        3.25346732      -2.20269223      -1.99100731
O        1.62444211      -3.37396076      -0.98827492
O        4.98006620      -2.36730797       0.49894217
N        0.61711227      -1.06832833       0.19762329
N        5.09704623      -0.15602089       0.02518470
C        1.98455584      -1.08208358      -0.32672021
C        2.99876201      -1.06869925       0.84213339
C        2.23556069      -2.34813970      -1.13157936
C        4.45269511      -1.27124333       0.43430133
H        2.15551291      -0.22883219      -0.98050564
H        2.91247633      -0.11870829       1.37067358
H        2.74232622      -1.87323306       1.52954359
H        0.27671036      -2.02584514       0.19160018
H       -0.22178546      -0.87028738      -2.22748524
H        4.60730732       0.71688854      -0.13628736
H        6.02941502      -0.27194679      -0.33371261
H        3.48410524      -3.08341772      -2.32413143
O        3.45781261       2.24774592      -0.51706287
H        2.53726275       2.10078427      -0.22912446
H        3.67009493       3.14663736      -0.25193318
44
Properties=species:S:1:pos:R:3 reactant=T mapped=T (centered)=T charge=0 spin=1 pbc="F F F"
O       -3.20897965       0.44173871      -1.50486379
O       -2.87022951       0.64847278       2.08128138
O       -1.86815500      -1.93027574      -0.98707541
O       -5.01763927       2.37079955       1.90487136
O       -0.14397516       0.01569386      -1.74657012
O        1.00711757       1.59010150       0.64829519
C       -3.05219303      -0.06327900      -0.18248800
C       -3.30824301       1.07091583       0.80338984
C       -1.72497720      -0.83055282      -0.11388492
C       -4.78722396       1.41870105       0.87161797
C       -0.35202971      -0.14861240      -0.38525205
C       -0.27425331       1.23467456       0.22695565
H       -3.79642568      -0.84227758       0.03064805
H       -2.76433128       1.96671303       0.47699638
H       -1.66839771      -1.25450368       0.88980767
H       -5.14933976       1.78089727      -0.09363724
H       -5.35571566       0.53008886       1.15465129
H       -4.02320729       0.20206279      -1.85606370
H       -3.30788003       1.22610748       2.72524207
H       -0.58229073       2.00171400      -0.44241029
H       -0.92826316       1.31231561       1.06993479
H       -2.11509329      -1.62608028      -1.82522413
H        1.32611339       0.96739928       1.28094164
H       -4.80582656       3.25044612       1.57807368
O        3.13819652      -2.21179125      -2.06881317
O        1.51691033      -3.33454755      -1.01193189
O        5.01626476      -2.40404218       0.35764400
N        0.65908340      -0.99792454       0.23621645
N        5.11193598      -0.18011781      -0.03655406
C        1.99679376      -1.06803139      -0.32765097
C        3.04277012      -1.11840113       0.80524394
C        2.15970476      -2.32889817      -1.16321866
C        4.48147460      -1.30852560       0.34863207
H        2.18038621      -0.22591342      -0.97254458
H        2.97797266      -0.19452949       1.37567878
H        2.81230239      -1.95881944       1.45845249
H        0.30976694      -1.94828068       0.30994535
H       -0.14508208      -0.71876088      -2.23402620
H        4.62048233       0.69735356      -0.12003420
H        6.03936927      -0.27574283      -0.41648402
H        3.31537019      -3.09246751      -2.43389697
O        3.42241558       2.21720633      -0.36025966
H        2.51662160       1.99967963      -0.22184567
H        3.59869967       3.11929358      -0.12979035
44
Properties=species:S:1:pos:R:3 reactant=T mapped=T (centered)=T charge=0 spin=1 pbc="F F F"
O       -3.14928377       0.44434028      -1.47743899
O       -2.91670349       0.68694855       2.09175321
O       -1.83814151      -1.96098110      -0.83673791
O       -5.09143298       2.37273672       1.82286141
O       -0.15594871       0.02223294      -1.68263626
O        0.96695783       1.63297004       0.67963014
C       -3.03149354      -0.06679959      -0.15761538
C       -3.33082663       1.08065959       0.79685209
C       -1.69881907      -0.81024166      -0.04472895
C       -4.81589661       1.40170915       0.81819897
C       -0.33997660      -0.12072465      -0.34251367
C       -0.27419814       1.26431136       0.23302090
H       -3.77380750      -0.85095859       0.04768723
H       -2.79437710       1.98116292       0.46967820
H       -1.63855005      -1.18516894       0.97817237
H       -5.15662610       1.73248767      -0.16553066
H       -5.37739531       0.50970336       1.10669294
H       -3.82407220       0.08075524      -1.92362422
H       -3.38877371       1.26502418       2.71419038
H       -0.56101224       2.04345666      -0.39353653
H       -0.95362263       1.40142851       1.02809314
H       -1.92003013      -1.77394701      -1.70741307
H        1.35220481       1.06118712       1.29641516
H       -4.88188277       3.24757298       1.48275328
O        3.02010549      -2.21833436      -2.13852252
O        1.41138722      -3.29307615      -1.02489245
O        5.04561944      -2.43507744       0.21830292
N        0.70061757      -0.92909117       0.27181932
N        5.12194098      -0.20045380      -0.09181888
C        2.00733981      -1.05574132      -0.32866303
C        3.08119429      -1.16893057       0.76717987
C        2.08280136      -2.30809882      -1.18948293
C        4.50470609      -1.34258108       0.26571579
H        2.20467737      -0.22547228      -0.96637427
H        3.03802459      -0.27262929       1.37793127
H        2.87296302      -2.04458588       1.38130072
H        0.34621647      -1.86828331       0.42207054
H       -0.07047067      -0.56366006      -2.23611168
H        4.63087715       0.67683766      -0.09869593
H        6.04549545      -0.27464959      -0.48818101
H        3.14049798      -3.09631713      -2.53217515
O        3.38003881       2.17547064      -0.20520921
H        2.50028462       1.90134503      -0.20667015
H        3.52939111       3.08346318      -0.03174698
44
Properties=species:S:1:pos:R:3 reactant=T mapped=T (centered)=T charge=0 spin=1 pbc="F F F"
O       -3.09934331       0.44505909      -1.45286561
O       -2.96147306       0.72266838       2.09852948
O       -1.80998918      -1.98191998      -0.69708966
O       -5.16044522       2.37050037       1.74125265
O       -0.16679545       0.01616132      -1.62385953
O        0.92629544       1.67520039       0.70858328
C       -3.01032365      -0.06914316      -0.13526634
C       -3.35180067       1.08900715       0.78830462
C       -1.67302854      -0.78982067       0.02203731
C       -4.84145666       1.38239379       0.76612955
C       -0.32733283      -0.09437601      -0.30158373
C       -0.27409196       1.29348332       0.23467398
H       -3.75035975      -0.85887791       0.06089351
H       -2.82319275       1.99410294       0.45972234
H       -1.60981962      -1.11467475       1.06113531
H       -5.16157548       1.68308284      -0.23367147
H       -5.39576223       0.48688112       1.06013380
H       -3.60728184      -0.02964988      -1.97314799
H       -3.46695817       1.29928487       2.69956531
H       -0.53902039       2.08355823      -0.35031210
H       -0.97927266       1.48721582       0.97703385
H       -1.71873196      -1.90913015      -1.56546609
H        1.37399339       1.15640962       1.30868977
H       -4.95268998       3.24047447       1.38828269
O        2.89778224      -2.21998729      -2.20351914
O        1.31026907      -3.25035257      -1.02928425
O        5.07048240      -2.46013163       0.07458550
N        0.74268637      -0.86291716       0.30683924
N        5.12805873      -0.21698162      -0.14280975
C        2.01670720      -1.04549952      -0.32933659
C        3.11589434      -1.22161808       0.72676979
C        2.00550411      -2.28513447      -1.21211357
C        4.52407011      -1.37369502       0.18235028
H        2.22829183      -0.22670993      -0.96062677
H        3.09448451      -0.35540903       1.37757377
H        2.92726104      -2.13250955       1.29568907
H        0.38632513      -1.78751851       0.53026930
H        0.00311964      -0.40376536      -2.22965026
H        4.63888560       0.65519152      -0.07191577
H        6.04820346      -0.26785266      -0.55321059
H        2.96123560      -3.09227458      -2.62303943
O        3.33172312       2.12433365      -0.04192893
H        2.48663429       1.80487982      -0.18047123
H        3.46283774       3.04006076       0.04212439
44
Properties=species:S:1:pos:R:3 reactant=T mapped=T (centered)=T charge=0 spin=1 pbc="F F F"
O       -3.05985479       0.44280912      -1.43381932
O       -3.00103750       0.75270425       2.10162307
O       -1.78302218      -1.99450235      -0.57520585
O       -5.22102295       2.36257183       1.66783624
O       -0.17464475      -0.00203535      -1.57752400
O        0.88455063       1.71772705       0.72972655
C       -2.98946804      -0.07006078      -0.11716169
C       -3.37009586       1.09510027       0.77861207
C       -1.64815778      -0.76947366       0.08210688
C       -4.86294460       1.36079602       0.72025063
C       -0.31461054      -0.06959814      -0.26734372
C       -0.27438150       1.32182351       0.22743000
H       -3.72669362      -0.86594185       0.06907331
H       -2.85024690       2.00485192       0.44795026
H       -1.58245714      -1.04495307       1.13403674
H       -5.16511432       1.63449577      -0.29234648
H       -5.40928851       0.46116470       1.01932720
H       -3.38137912      -0.12126635      -2.00297198
H       -3.53712846       1.32490530       2.68373366
H       -0.51747030       2.12178576      -0.31647117
H       -1.00413347       1.56780221       0.91368736
H       -1.52019646      -2.02705320      -1.40414495
H        1.39050077       1.25506392       1.31301618
H       -5.01481229       3.22828984       1.30393173
O        2.77508451      -2.21776025      -2.26124481
O        1.21599824      -3.20800020      -1.02553853
O        5.08940159      -2.47845771      -0.06339102
N        0.78412430      -0.79917718       0.33800128
N        5.13076007      -0.23009579      -0.18367157
C        2.02494298      -1.03712454      -0.33028107
C        3.14492098      -1.27434561       0.68604745
C        1.92985971      -2.26094169      -1.23044740
C        4.53874189      -1.40113943       0.10450366
H        2.25176453      -0.23025791      -0.95665682
H        3.14485883      -0.43942066       1.37477110
H        2.97110351      -2.21809190       1.20569435
H        0.42868165      -1.70608527       0.63084723
H        0.07546005      -0.24331034      -2.21290202
H        4.64430876       0.63200222      -0.03820361
H        6.04951291      -0.25735124      -0.60194666
H        2.78200388      -3.08167438      -2.70305129
O        3.27809604       2.06609303       0.10805009
H        2.47358884       1.70983950      -0.14565905
H        3.39989640       2.98829263       0.09972595
44
Properties=species:S:1:pos:R:3 reactant=T mapped=T (centered)=T charge=0 spin=1 pbc="F F F"
O       -3.03917595       0.42087598      -1.42089616
O       -3.02192920       0.79089436       2.10109659
O       -1.75487845      -2.00457917      -0.45984677
O       -5.26963315       2.35161914       1.60786157
O       -0.19231990      -0.07241113      -1.55435667
O        0.83485779       1.77986993       0.71806404
C       -2.97121457      -0.07460378      -0.09920856
C       -3.38609050       1.09910142       0.76730442
C       -1.62293457      -0.74975828       0.13947464
C       -4.88212281       1.33251162       0.69029257
C       -0.30196699      -0.04664313      -0.24711639
C       -0.27661674       1.35216206       0.18444466
H       -3.70191694      -0.87704309       0.08808458
H       -2.88274088       2.01308559       0.41911178
H       -1.54889355      -0.96789044       1.20254176
H       -5.17897077       1.57266878      -0.33214908
H       -5.41413282       0.42949182       1.00737988
H       -3.16918863      -0.20814097      -2.00729013
H       -3.57835542       1.36266072       2.66591820
H       -0.48952330       2.15971476      -0.32373685
H       -1.04129620       1.65840541       0.78963144
H       -1.33700757      -2.13768931      -1.21154845
H        1.37982905       1.37336739       1.30694357
H       -5.07229328       3.21118989       1.22491576
O        2.65554516      -2.19975031      -2.32299314
O        1.13490763      -3.16317686      -1.02529217
O        5.10232148      -2.49587618      -0.20089406
N        0.82846220      -0.73009208       0.36200753
N        5.13390548      -0.24546362      -0.20507554
C        2.03330424      -1.02706397      -0.33765345
C        3.16613632      -1.32944418       0.64417473
C        1.85922305      -2.22976869      -1.25500704
C        4.54852095      -1.43013855       0.03310242
H        2.28025097      -0.23192776      -0.96300345
H        3.17877636      -0.53132362       1.37512948
H        3.00167839      -2.30536006       1.10676438
H        0.47783764      -1.61769186       0.72179551
H        0.15224720      -0.04442569      -2.18528248
H        4.65302407       0.60197390       0.01819465
H        6.05479784      -0.24882488      -0.62202990
H        2.60530114      -3.04924763      -2.78783963
O        3.22702965       1.99326659       0.28041124
H        2.46922049       1.59802391      -0.06674346
H        3.35602513       2.91745196       0.17331800
44
Properties=species:S:1:pos:R:3 reactant=T mapped=T (centered)=T charge=0 spin=1 pbc="F F F"
O       -3.02073043       0.38967882      -1.41476262
O       -3.03748230       0.82831100       2.09651798
O       -1.72351463      -2.01034203      -0.35554474
O       -5.31087808       2.33927540       1.54900533
O       -0.19696713      -0.14367255      -1.55065307
O        0.78588469       1.84177789       0.69952683
C       -2.95085267      -0.07897362      -0.08472271
C       -3.39809231       1.10194764       0.75301813
C       -1.59588155      -0.72914173       0.19257470
C       -4.89668525       1.30309888       0.66218083
C       -0.28828430      -0.02501339      -0.23391798
C       -0.27769337       1.38016068       0.13753784
H       -3.67469437      -0.88820720       0.10574640
H       -2.91152448       2.01848385       0.38549374
H       -1.51461253      -0.88905525       1.26396366
H       -5.19005277       1.50949927      -0.36830972
H       -5.41396012       0.39777771       0.99938609
H       -2.95581966      -0.28064820      -1.99527480
H       -3.61244550       1.39905323       2.64515737
H       -0.46029857       2.19662164      -0.33408095
H       -1.07633950       1.73719618       0.65226965
H       -1.15832071      -2.23052989      -0.99407114
H        1.36568562       1.49438364       1.29323106
H       -5.12243327       3.19171088       1.14615038
O        2.53005315      -2.17642963      -2.38053790
O        1.05858205      -3.12099922      -1.01806360
O        5.11178340      -2.50257100      -0.34316168
N        0.87256201      -0.66394247       0.38364917
N        5.13298707      -0.25606821      -0.22156323
C        2.04071865      -1.01905118      -0.34515624
C        3.18419824      -1.38563816       0.59989010
C        1.78836719      -2.19865335      -1.27553749
C        4.55527740      -1.45406389      -0.03902903
H        2.30766405      -0.23414318      -0.97003134
H        3.20920631      -0.62815304       1.37257315
H        3.02704608      -2.39061939       1.00112799
H        0.53001447      -1.52841639       0.80791642
H        0.21623645       0.14155033      -2.12926935
H        4.65658215       0.56988226       0.07889926
H        6.05660091      -0.23400335      -0.63431833
H        2.42055168      -3.00858109      -2.86557959
O        3.16798895       1.91313702       0.44656440
H        2.45726581       1.48453845       0.02514086
H        3.31230717       2.83883264       0.25606419
44
Properties=species:S:1:pos:R:3 reactant=T mapped=T (centered)=T charge=0 spin=1 pbc="F F F"
O       -3.01879763       0.32482983      -1.41260329
O       -3.01809298       0.89463741       2.08502091
O       -1.68218280      -2.01285063      -0.25029762
O       -5.33815051       2.32421213       1.50233708
O       -0.19510788      -0.22016581      -1.57643737
O        0.73923993       1.95381961       0.57244859
C       -2.92950210      -0.09148571      -0.06685894
C       -3.40391201       1.10339717       0.73562292
C       -1.56136617      -0.70390181       0.24546071
C       -4.90614651       1.26109267       0.65578179
C       -0.27251740      -0.00337672      -0.23992836
C       -0.28104189       1.41101192       0.04663600
H       -3.63827653      -0.90759644       0.14874303
H       -2.94965679       2.01943461       0.32364745
H       -1.46401954      -0.78679357       1.32449809
H       -5.21541282       1.41447399      -0.37952667
H       -5.39466704       0.35724274       1.03842133
H       -2.76311765      -0.36694266      -1.96097314
H       -3.60066994       1.47175750       2.61670745
H       -0.41314871       2.24349560      -0.38925112
H       -1.14126439       1.81918018       0.37660207
H       -0.97429897      -2.30732351      -0.72675205
H        1.30104276       1.66567753       1.23672975
H       -5.17321388       3.16279541       1.06143515
O        2.39903360      -2.13628830      -2.44425541
O        0.98843395      -3.07473465      -1.01425781
O        5.11455837      -2.50149783      -0.49522520
N        0.92027494      -0.58644445       0.40020451
N        5.12632485      -0.26734810      -0.23729472
C        2.04732296      -1.00376410      -0.36643726
C        3.19491927      -1.44750809       0.54632098
C        1.71698297      -2.16031853      -1.30273318
C        4.55635085      -1.47682342      -0.11633872
H        2.33818214      -0.21865839      -0.99454763
H        3.22509501      -0.74614862       1.37223393
H        3.04019653      -2.47813644       0.87838340
H        0.59221852      -1.42056296       0.89126472
H        0.25619431       0.29691728      -2.07252719
H        4.65516455       0.53054414       0.13591540
H        6.04558767      -0.21544459      -0.65858588
H        2.23347881      -2.95083175      -2.94247411
O        3.09999765       1.78962768       0.68929385
H        2.44299440       1.31776374       0.23666054
H        3.30097006       2.72303594       0.52693605
44
Properties=species:S:1:pos:R:3 reactant=T mapped=T (centered)=T charge=0 spin=1 pbc="F F F"
O       -3.03366236       0.27997993      -1.40584897
O       -3.00973170       0.93452962       2.07719129
O       -1.66222216      -2.00938419      -0.20030706
O       -5.36503081       2.30402892       1.48858686
O       -0.19887035      -0.24070965      -1.58138267
O        0.77105735       2.04174492       0.32176160
C       -2.92700756      -0.10216261      -0.05170068
C       -3.41377059       1.10188643       0.72860604
C       -1.54629808      -0.68522149       0.26745892
C       -4.92096104       1.22917949       0.66325314
C       -0.26543174       0.01556223      -0.24044952
C       -0.28876989       1.42656850       0.00251233
H       -3.62271461      -0.92385388       0.18529908
H       -2.98359369       2.01601856       0.29336015
H       -1.43892013      -0.73385262       1.34693752
H       -5.24459138       1.35075616      -0.37198045
H       -5.38778281       0.32631502       1.07444677
H       -2.72529292      -0.41306346      -1.93824810
H       -3.59432112       1.51553925       2.60083562
H       -0.42655546       2.30679806      -0.27803370
H       -1.19500399       1.84123392       0.18938239
H       -0.92272237      -2.31725098      -0.63341096
H        1.31349712       1.86920202       0.99545967
H       -5.22151127       3.13442470       1.02525987
O        2.35728494      -2.12005193      -2.46731512
O        0.96607945      -3.05544478      -1.01537467
O        5.11184349      -2.51241859      -0.55988521
N        0.93783253      -0.54498313       0.39923718
N        5.13046341      -0.28458878      -0.24927382
C        2.05085418      -0.99149251      -0.37754249
C        3.20098467      -1.47934787       0.51637493
C        1.69415664      -2.14173147      -1.31477191
C        4.55941182      -1.49625557      -0.15354121
H        2.35408723      -0.20202934      -0.99567891
H        3.23460466      -0.80949203       1.36633301
H        3.04047604      -2.51514177       0.82712492
H        0.61575312      -1.36784683       0.91299160
H        0.25954055       0.32528166      -2.06079882
H        4.66850865       0.50308169       0.15207747
H        6.04593655      -0.22222340      -0.67570557
H        2.16945798      -2.92779594      -2.96957718
O        3.10535744       1.71794417       0.83174171
H        2.45526171       1.21369903       0.45353806
H        3.35231650       2.64256854       0.82105688
44
Properties=species:S:1:pos:R:3 reactant=T mapped=T (centered)=T charge=0 spin=1 pbc="F F F"
O       -3.04815699       0.25189916      -1.40048079
O       -2.98805433       0.97058568       2.07019936
O       -1.65159326      -2.00551457      -0.17153439
O       -5.37525647       2.29395551       1.49204292
O       -0.20462809      -0.25281733      -1.59120185
O        0.81688680       2.07748249       0.07090668
C       -2.92506255      -0.10671325      -0.04078232
C       -3.41423836       1.10525187       0.72593839
C       -1.53665861      -0.67193129       0.27654906
C       -4.92515539       1.21317677       0.67775611
C       -0.26220841       0.02617089      -0.24947148
C       -0.29062150       1.43645258      -0.03664739
H       -3.61244388      -0.93079118       0.21500067
H       -3.00059042       2.01578991       0.27130383
H       -1.41960619      -0.69730230       1.35580943
H       -5.26281262       1.31374622      -0.35540985
H       -5.37540505       0.31213485       1.11023154
H       -2.72480496      -0.44210511      -1.92508784
H       -3.57695114       1.54852214       2.59234179
H       -0.44433516       2.34789272      -0.06005177
H       -1.23055273       1.84383451       0.02298833
H       -0.90881930      -2.31860856      -0.59965451
H        1.36703710       2.00133986       0.71939097
H       -5.24758512       3.11863272       1.01344692
O        2.34781735      -2.12224835      -2.47727850
O        0.95731766      -3.04990570      -1.01799142
O        5.11435433      -2.50706989      -0.58741621
N        0.94214071      -0.52613524       0.39111230
N        5.12773652      -0.28211308      -0.24807498
C        2.05198635      -0.98781822      -0.38750968
C        3.20145021      -1.49484262       0.50038293
C        1.68731623      -2.13838959      -1.32290819
C        4.56023744      -1.49752368      -0.16910677
H        2.36329370      -0.19568227      -0.99879682
H        3.23273526      -0.84528159       1.36457304
H        3.04015179      -2.53371278       0.80158189
H        0.62323382      -1.34343449       0.91561637
H        0.25464475       0.32224399      -2.07178334
H        4.66545343       0.50004539       0.16312228
H        6.04270067      -0.21070342      -0.67339252
H        2.14941539      -2.92691719      -2.97942123
O        3.09810280       1.67982883       0.89184509
H        2.43454309       1.14937128       0.60762233
H        3.34698515       2.55920432       1.11423961
44
Properties=species:S:1:pos:R:3 reactant=T mapped=T (centered)=T charge=0 spin=1 pbc="F F F"
O       -3.05846113       0.23383452      -1.39420844
O       -2.94918119       0.99776810       2.06845141
O       -1.65074800      -2.01207173      -0.15414241
O       -5.33978704       2.32241871       1.50361174
O       -0.21693785      -0.29104908      -1.61309632
O        0.81936000       2.09368647      -0.23908875
C       -2.91820766      -0.10485255      -0.03035894
C       -3.39011986       1.11895143       0.72825894
C       -1.53062363      -0.67175377       0.27998548
C       -4.90312215       1.23219233       0.69529494
C       -0.26411083       0.01537382      -0.27041188
C       -0.28971625       1.44032712      -0.10025636
H       -3.60703353      -0.92415091       0.24212238
H       -2.97699710       2.02112580       0.26153118
H       -1.40317590      -0.68079356       1.35854627
H       -5.25125728       1.32399890      -0.33484554
H       -5.35108613       0.33789548       1.14136420
H       -2.73173620      -0.46800018      -1.91199835
H       -3.53964760       1.57102734       2.59523097
H       -0.43341665       2.21516228       0.40444057
H       -1.21818909       1.87628456      -0.21453266
H       -0.90160676      -2.33565016      -0.57345315
H        1.47886059       2.09538996       0.26129129
H       -5.21324445       3.14159395       1.01622524
O        2.34991452      -2.14027036      -2.48213160
O        0.95384256      -3.05987050      -1.01762487
O        5.13571767      -2.45013890      -0.61198054
N        0.93895835      -0.52970910       0.37651021
N        5.10380950      -0.22953162      -0.23044964
C        2.05041662      -0.99545248      -0.40199623
C        3.20140700      -1.49916010       0.48558674
C        1.68633499      -2.15205353      -1.32915485
C        4.56274727      -1.46046940      -0.17891369
H        2.36612739      -0.20158721      -1.01178251
H        3.21878001      -0.87167312       1.36474917
H        3.05315799      -2.54327200       0.77554908
H        0.62537003      -1.34297769       0.91154489
H        0.23907979       0.28828286      -2.10337450
H        4.62458593       0.53939837       0.19143082
H        6.01316811      -0.12493085      -0.65550165
H        2.14825103      -2.94718875      -2.97971142
O        3.03006436       1.65883861       0.94494480
H        2.34370447       1.09114378       0.76866606
H        3.19474812       2.42191314       1.46367791
44
Properties=species:S:1:pos:R:3 reactant=T mapped=T (centered)=T charge=0 spin=1 pbc="F F F"
O       -3.07049727       0.21993104      -1.38640686
O       -2.86688121       1.03012473       2.07097584
O       -1.65872169      -2.03303916      -0.15769282
O       -5.23984942       2.39620962       1.53934770
O       -0.23132028      -0.35802746      -1.65472681
O        0.81367046       2.06403795      -0.52856895
C       -2.90770337      -0.10058741      -0.02002327
C       -3.33342007       1.14277538       0.73851744
C       -1.52905188      -0.69228405       0.27457776
C       -4.84458607       1.28744952       0.73508426
C       -0.27214079      -0.02397010      -0.30963088
C       -0.28532343       1.43328818      -0.17558934
H       -3.60554039      -0.90406930       0.27347447
H       -2.90950228       2.03099232       0.25702708
H       -1.39227399      -0.69151135       1.35411893
H       -5.21225969       1.37465116      -0.28850262
H       -5.29893825       0.40795915       1.20043042
H       -2.73881580      -0.49309467      -1.89917658
H       -3.43517772       1.61682208       2.60424994
H       -0.38593925       2.00818904       0.61869510
H       -1.17350012       1.88674957      -0.43576155
H       -0.88980709      -2.37327128      -0.55373691
H        1.55637586       2.07941900      -0.10920204
H       -5.10303518       3.20680035       1.04024042
O        2.36456103      -2.16169914      -2.48946863
O        0.95570121      -3.08067546      -1.02751738
O        5.17589439      -2.32321699      -0.64113352
N        0.92465597      -0.56691478       0.36045481
N        5.04544932      -0.11390140      -0.18997526
C        2.04641776      -1.01341937      -0.42153392
C        3.20098620      -1.49791113       0.47199502
C        1.69159793      -2.17501092      -1.34101527
C        4.56296994      -1.37391559      -0.18206366
H        2.36237032      -0.20771138      -1.02865877
H        3.18896429      -0.90229567       1.37354723
H        3.08211234      -2.55220496       0.73555681
H        0.61986764      -1.37758157       0.90298758
H        0.22561656       0.23825600      -2.15079317
H        4.53015421       0.62586909       0.25015250
H        5.94637212       0.04917752      -0.61012832
H        2.16642046      -2.97300008      -2.98166050
O        2.86042600       1.62154101       1.06074225
H        2.16363599       1.00631175       0.96167317
H        2.90006525       2.26275874       1.75911828
44
Properties=species:S:1:pos:R:3 reactant=T mapped=T (centered)=T charge=0 spin=1 pbc="F F F"
O       -3.08247983       0.19595572      -1.38181778
O       -2.77564487       1.07254699       2.06782947
O       -1.65892970      -2.05241115      -0.15690583
O       -5.13980501       2.46147183       1.57155343
O       -0.23595415      -0.41741068      -1.70052119
O        0.84358995       2.00827865      -0.77088987
C       -2.89582036      -0.09992767      -0.01126348
C       -3.27673650       1.16337146       0.74546809
C       -1.52329655      -0.70903206       0.27441353
C       -4.78513396       1.33141854       0.77793751
C       -0.27740790      -0.05668085      -0.34722055
C       -0.28104487       1.43346287      -0.26052836
H       -3.59687950      -0.88771476       0.30717869
H       -2.85222282       2.03689981       0.23800054
H       -1.37698427      -0.68668630       1.35632934
H       -5.17948485       1.40425950      -0.23728506
H       -5.23632253       0.46800168       1.27224798
H       -2.71742101      -0.52327785      -1.88710283
H       -3.31286941       1.68028717       2.60148930
H       -0.36681817       1.89822425       0.65758139
H       -1.15490590       1.84821799      -0.67543575
H       -0.85171536      -2.40811445      -0.50643389
H        1.57395780       2.04928128      -0.23128769
H       -5.00247526       3.25982541       1.05271829
O        2.36247273      -2.16594423      -2.50248443
O        0.94862031      -3.08806234      -1.03786741
O        5.20473411      -2.19935964      -0.67583991
N        0.91332715      -0.59370909       0.35925829
N        4.98187837      -0.00918515      -0.15125746
C        2.04223401      -1.02461254      -0.43943520
C        3.20013012      -1.50198833       0.46080236
C        1.68897211      -2.18728380      -1.35409883
C        4.55921726      -1.29454099      -0.18189705
H        2.36136947      -0.20009120      -1.04695784
H        3.15872126      -0.94179582       1.38860258
H        3.10669433      -2.56500384       0.68804661
H        0.61871764      -1.39676405       0.91203963
H        0.22937903       0.23070956      -2.18539936
H        4.43518030       0.69963365       0.30781105
H        5.86608236       0.21347717      -0.57629717
H        2.16259478      -2.97920162      -2.99128074
O        2.68009238       1.55131556       1.18423894
H        1.99837624       0.88002489       1.12330098
H        2.64401111       2.10213444       1.96265965
44
Properties=species:S:1:pos:R:3 product=T mapped+aligned=T onto=T reactant=T charge=0 spin=1 pbc="F F F"
O       -3.08963622       0.17906160      -1.37748730
O       -2.68818896       1.10398688       2.06686343
O       -1.66015613      -2.07287565      -0.16229607
O       -5.03393832       2.52807871       1.60115869
O       -0.23927131      -0.47367411      -1.74267465
O        0.87409180       1.93874147      -0.98982372
C       -2.88354700      -0.09819207      -0.00400204
C       -3.21781882       1.18252501       0.75352432
C       -1.51932907      -0.72879848       0.27413286
C       -4.72154614       1.37923742       0.81664622
C       -0.28315504      -0.08947998      -0.38009417
C       -0.27710082       1.43548803      -0.33049895
H       -3.58981844      -0.86952072       0.33420110
H       -2.78837719       2.04170680       0.22444457
H       -1.36650979      -0.69101303       1.35873824
H       -5.13859440       1.44389623      -0.19042105
H       -5.17313814       0.53167005       1.33419167
H       -2.69312825      -0.54645943      -1.87724359
H       -3.19320576       1.73227817       2.59982925
H       -0.34984267       1.78203863       0.70384513
H       -1.13569932       1.79145085      -0.89516942
H       -0.81388695      -2.44123135      -0.46305948
H        1.58681480       2.01778080      -0.33697575
H       -4.89137926       3.31535717       1.06642585
O        2.36140225      -2.16938862      -2.51255427
O        0.94275264      -3.09486580      -1.04576789
O        5.22768841      -2.06929353      -0.70264196
N        0.90083792      -0.62198369       0.36185404
N        4.91218464       0.09691343      -0.11210948
C        2.03726489      -1.03407562      -0.45488011
C        3.19926824      -1.49943245       0.45342393
C        1.68712067      -2.19901911      -1.36446145
C        4.55170418      -1.21040964      -0.17624343
H        2.35813759      -0.19111863      -1.06516245
H        3.12881309      -0.97128942       1.40353065
H        3.13229277      -2.56897320       0.64592493
H        0.61606684      -1.41975041       0.92270471
H        0.23346240       0.22598426      -2.21623842
H        4.33368867       0.77488152       0.36051371
H        5.77722269       0.37680944      -0.54026884
H        2.16118601      -2.98479804      -2.99746074
O        2.49575901       1.48078370       1.27857378
H        1.83547304       0.74613982       1.26029981
H        2.39403542       1.94083294       2.11670836
