44
Properties=species:S:1:pos:R:3:forces:R:3 reactant=T mapped=T (centered)=T charge=0 spin=1 energy=-34182.829755931525 free_energy=-34182.829755931525 stress="0.6527054289085465 -0.4029506004036555 -0.1096466230647986 -0.4029506004036555 0.10137180428532214 0.17756070452367514 -0.1096466230647986 0.17756070452367514 0.026648809346639067" pbc="F F F"
O       -3.27847865       0.44109168      -1.53381928       0.02518704      -0.00758106      -0.00918989
O       -2.82060594       0.60460876       2.06689725      -0.00581279      -0.01439713      -0.00503908
O       -1.90081123      -1.88693009      -1.14858994       0.01924478      -0.01658177       0.02424330
O       -4.93713523       2.36108458       1.99162797      -0.00285894      -0.00626827      -0.01245578
O       -0.13044938       0.00048588      -1.81724667       0.00559922       0.00374376       0.01112512
O        1.04683332       1.54796407       0.61151018       0.00124638       0.01592289      -0.00432102
C       -3.07231449      -0.05783661      -0.21087709       0.00784985      -0.00539008      -0.00616663
C       -3.28339519       1.05894704       0.80870705       0.00044248      -0.00781598      -0.00503860
C       -1.75164162      -0.84979954      -0.18832264       0.00730839      -0.00257866       0.01105516
C       -4.75433185       1.43200700       0.92875479       0.00049131      -0.00653920      -0.01133366
C       -0.36351648      -0.17689628      -0.43243309       0.00347482       0.00143597       0.01094603
C       -0.27447625       1.20561706       0.21497723       0.00057047       0.00235300       0.00814155
H       -3.81797574      -0.83243802       0.00793211       0.00614045      -0.00593756      -0.01405273
H       -2.73285295       1.95066150       0.48335194       0.00298765      -0.00688575       0.00148117
H       -1.69950627      -1.32266264       0.79308536       0.00408848       0.00912705       0.01669830
H       -5.13872887       1.82836640      -0.01460291       0.00471991      -0.00547361      -0.01276906
H       -5.32930283       0.54608534       1.20505003      -0.00301081      -0.00514199      -0.01439259
H       -4.20358318       0.33236931      -1.77157077       0.02091063       0.02533236      -0.00761617
H       -3.22214089       1.17838950       2.73368766      -0.00583407      -0.01729841      -0.00288082
H       -0.60357088       1.95962955      -0.49786064      -0.00847544      -0.00402365       0.00608788
H       -0.90284957       1.22021493       1.10212792       0.00530405      -0.00019721       0.01198872
H       -2.29768939      -1.46508339      -1.92469405       0.00646375      -0.03470054       0.02067886
H        1.29608425       0.87673369       1.25968597       0.01495351       0.03090790       0.00570305
H       -4.72250643       3.24608072       1.68044326       0.01541127      -0.00906006      -0.00807268
O        3.25346733      -2.20269224      -1.99100734      -0.01863629       0.00867563      -0.00210566
O        1.62444212      -3.37396076      -0.98827495      -0.03738113       0.02446863      -0.01798458
O        4.98006621      -2.36730797       0.49894214      -0.00065129      -0.00597636       0.00399458
N        0.61711228      -1.06832833       0.19762326       0.00275966       0.00839121       0.01698936
N        5.09704625      -0.15602089       0.02518467      -0.00491777      -0.00850775      -0.00818788
C        1.98455585      -1.08208358      -0.32672024      -0.00296070       0.00730884       0.00794470
C        2.99876203      -1.06869925       0.84213336      -0.00028859      -0.00559319       0.00367082
C        2.23556070      -2.34813970      -1.13157939      -0.02125590       0.01332217      -0.00458053
C        4.45269512      -1.27124333       0.43430130      -0.00231068      -0.00722258      -0.00013505
H        2.15551292      -0.22883219      -0.98050566      -0.00546003       0.01126774       0.01243467
H        2.91247634      -0.11870829       1.37067355       0.00328069      -0.00924803       0.01098938
H        2.74232623      -1.87323306       1.52954357      -0.00296593      -0.00747663       0.00030244
H        0.27671037      -2.02584514       0.19160015       0.00399700       0.00838772       0.01993946
H       -0.22178544      -0.87028738      -2.22748527      -0.01244046       0.01208328      -0.00279908
H        4.60730733       0.71688854      -0.13628739      -0.00438272      -0.00801005      -0.00565933
H        6.02941503      -0.27194679      -0.33371264      -0.00763100      -0.00937317      -0.01472849
H        3.48410526      -3.08341772      -2.32413145      -0.03542492       0.01040256      -0.01731920
O        3.45781263       2.24774591      -0.51706289       0.00545732       0.00532591      -0.00348269
H        2.53726276       2.10078427      -0.22912449       0.00293161       0.01408091      -0.00746587
H        3.67009494       3.14663736      -0.25193320       0.01187885       0.00474144      -0.00663706
44
Properties=species:S:1:pos:R:3:forces:R:3 reactant=T mapped=T (centered)=T charge=0 spin=1 energy=-34182.90663769447 free_energy=-34182.90663769447 stress="0.016459672229037686 -0.014965150883953176 0.01517862373783062 -0.014965150883953176 0.02834572424318121 0.04359433772318624 0.01517862373783062 0.04359433772318624 0.00831140432980182" pbc="F F F"
O       -3.14220125       0.36189954      -1.55386038       0.00519069      -0.00306301      -0.00044130
O       -2.93077558       0.60215782       2.06787585      -0.00452255       0.00005746       0.00031671
O       -1.78854781      -1.97459975      -0.93349260       0.00396237      -0.00352382       0.00875333
O       -5.04091206       2.35978293       1.82345971      -0.00394847       0.00026573      -0.00651520
O       -0.10920006      -0.00455498      -1.70674523       0.00072238      -0.00061811       0.00432927
O        1.05061142       1.62704925       0.64911724       0.00013910       0.00288134       0.00145569
C       -3.03370289      -0.09307153      -0.20568153       0.00149355      -0.00129145       0.00052112
C       -3.31068595       1.04081448       0.77697905      -0.00100103      -0.00053850      -0.00101074
C       -1.71002154      -0.85274611      -0.06292963       0.00151612      -0.00021854       0.00512877
C       -4.78479282       1.41542518       0.79088641      -0.00103864      -0.00019428      -0.00542388
C       -0.34271165      -0.15473126      -0.32013515       0.00080405       0.00053177       0.00443665
C       -0.27376487       1.24113280       0.30237109       0.00005610       0.00104267       0.00344103
H       -3.78610432      -0.86966120      -0.01621521       0.00118050      -0.00129619      -0.00049670
H       -2.73676065       1.92656687       0.47758166       0.00009338      -0.00086323       0.00008963
H       -1.68152479      -1.23686256       0.95752469       0.00062888       0.00328852       0.00663579
H       -5.10301285       1.79805044      -0.18319104       0.00187500      -0.00049747      -0.00661363
H       -5.37954730       0.53421071       1.03860445      -0.00205611       0.00006293      -0.00683764
H       -4.06686668       0.36198534      -1.81701315       0.00528982       0.00070125      -0.00153650
H       -3.38983744       1.16879982       2.70233128      -0.00685312      -0.00018908      -0.00105704
H       -0.64324604       1.97436401      -0.41206031      -0.00160229       0.00020179       0.00340028
H       -0.88072058       1.25291462       1.20707879       0.00092704       0.00091880       0.00414862
H       -2.21276671      -1.65970696      -1.74351203       0.00337955      -0.00753272       0.00728155
H        1.34939847       0.96825891       1.29002369       0.00211623       0.00359401       0.00136450
H       -4.74450022       3.22933232       1.53575388      -0.00079704      -0.00027934      -0.00544811
O        3.12482581      -2.06351613      -2.08209801      -0.00376866       0.00689099      -0.00330850
O        1.46002520      -3.22411229      -1.13139775      -0.00641871       0.00687328      -0.00786518
O        5.00655249      -2.44148216       0.37663613       0.00160233      -0.00304711      -0.00377981
N        0.65807427      -1.00703318       0.33307929       0.00158049       0.00198320       0.00519851
N        5.09078882      -0.22362488      -0.07266887      -0.00043783      -0.00261779      -0.00268715
C        1.99332421      -1.03856532      -0.25971945       0.00045410       0.00172299       0.00278602
C        3.04911283      -1.15267350       0.85907263       0.00177023      -0.00408276       0.00098149
C        2.13609113      -2.23108471      -1.19321423      -0.00339578       0.00557939      -0.00317489
C        4.47503719      -1.34595356       0.36260608       0.00081815      -0.00287650      -0.00203674
H        2.16928649      -0.13931301      -0.84593589       0.00079591       0.00395217       0.00615884
H        2.99687656      -0.24880441       1.46930578       0.00281350      -0.00642073       0.00491836
H        2.80592746      -2.00699217       1.48898544       0.00217382      -0.00652809      -0.00202687
H        0.32089568      -1.96519497       0.36734640       0.00179611       0.00190477       0.00630840
H       -0.22593790      -0.87755453      -2.10557737       0.00012346      -0.00082247       0.00492819
H        4.59063856       0.64900967      -0.19704569      -0.00127248      -0.00289671      -0.00199243
H        5.98982487      -0.33796294      -0.50884671      -0.00163454      -0.00223759      -0.00549748
H        3.24974278      -2.90934641      -2.53874560      -0.00780206       0.00875692      -0.00886556
O        3.48645143       2.24853652      -0.50803959       0.00031304      -0.00076328      -0.00151986
H        2.55753720       2.16401505      -0.22467983       0.00023897       0.00201245      -0.00081956
H        3.75711962       3.13484213      -0.25381550       0.00269436      -0.00082377      -0.00362813
44
Properties=species:S:1:pos:R:3:forces:R:3 reactant=T mapped=T (centered)=T charge=0 spin=1 energy=-34182.93857701083 free_energy=-34182.93857701083 stress="0.009944527701087679 -0.011646774562603891 0.005616520543878546 -0.011646774562603891 -0.017887984454092808 0.0032544341807528502 0.005616520543878546 0.0032544341807528502 0.002122332756573396" pbc="F F F"
O       -3.10522546       0.18250380      -1.53299456      -0.00159519      -0.00511058       0.00187106
O       -3.01873597       0.73159504       2.06245237      -0.00212364       0.00271902       0.00068389
O       -1.71342992      -2.05546566      -0.66217287      -0.00020885      -0.00327973       0.00652901
O       -5.14285858       2.41491040       1.60015074       0.00105078       0.00500755      -0.00543099
O       -0.13268760      -0.01711880      -1.61679334      -0.00263611      -0.00130424       0.00138045
O        1.06135734       1.63807798       0.76348229       0.00002323      -0.00208371       0.00284545
C       -3.01255986      -0.14187132      -0.14660923      -0.00042754      -0.00190540       0.00256506
C       -3.33836050       1.06611042       0.72498009       0.00011432       0.00052645      -0.00047091
C       -1.67506927      -0.84965634       0.09015007      -0.00018948      -0.00104840       0.00386992
C       -4.81607966       1.41956062       0.63814711       0.00075575       0.00278342      -0.00334549
C       -0.32707960      -0.14317771      -0.22167591      -0.00050220      -0.00163019       0.00205525
C       -0.25671785       1.26656560       0.37866283       0.00019893      -0.00163490       0.00234966
H       -3.74988185      -0.91637433       0.10172084      -0.00033837      -0.00114228       0.00512359
H       -2.75502875       1.93137036       0.38566635       0.00176023      -0.00099845      -0.00144282
H       -1.64922435      -1.12875898       1.14466895       0.00032959       0.00108078       0.00445875
H       -5.08465074       1.74206763      -0.37179161       0.00298739       0.00161895      -0.00434635
H       -5.41182114       0.54332162       0.90184548      -0.00118839       0.00427453      -0.00283158
H       -4.02688587       0.15591588      -1.80533093       0.00108377      -0.00846796       0.00134421
H       -3.52449238       1.32969312       2.62895349      -0.00221272       0.00450990      -0.00114970
H       -0.59034395       1.99108431      -0.36170183       0.00062878      -0.00123937       0.00247673
H       -0.89653591       1.30883782       1.26069527      -0.00014405      -0.00155821       0.00218359
H       -2.14461121      -1.84625299      -1.50148567       0.00080297      -0.00552172       0.00604263
H        1.35251835       0.94066928       1.36805252       0.00001047      -0.00235422       0.00261075
H       -4.85476859       3.27406500       1.27561903       0.00315048       0.00395049      -0.00643575
O        3.00806915      -1.88364079      -2.21111962       0.00095040       0.00454965      -0.00209732
O        1.37060800      -3.08781755      -1.26946320      -0.01616158      -0.01548791      -0.01005857
O        5.00246117      -2.52391466       0.13055135       0.00196658      -0.00157230      -0.00164200
N        0.70499776      -0.97085490       0.41651858      -0.00009311      -0.00127175       0.00023577
N        5.11340434      -0.28298687      -0.17677722       0.00006841      -0.00007449       0.00112140
C        2.00864136      -0.99869368      -0.24273216      -0.00012717      -0.00156108      -0.00113179
C        3.10773216      -1.23026094       0.81157143      -0.00008318      -0.00231703      -0.00125614
C        2.06866369      -2.10842757      -1.28187318       0.01632857       0.02859425      -0.00349616
C        4.49817865      -1.41940781       0.22199501      -0.00029767       0.00076711      -0.00069298
H        2.18729022      -0.05892481      -0.75990498      -0.00035125       0.00237522       0.00233789
H        3.10740766      -0.37546703       1.49104810      -0.00014888      -0.00418046       0.00165927
H        2.87274803      -2.12688788       1.38347829       0.00003843      -0.00395818      -0.00322173
H        0.37570931      -1.93079665       0.47430082       0.00063439      -0.00201422      -0.00170626
H       -0.25753294      -0.89568514      -2.00030751      -0.00160259      -0.00087324       0.00161299
H        4.62410306       0.60341570      -0.21545723      -0.00098268      -0.00020731       0.00083004
H        5.97628234      -0.38700235      -0.68303617       0.00011412       0.00115071       0.00109143
H        3.07437209      -2.68522951      -2.75208237       0.00220417       0.00973905      -0.00566352
O        3.53258094       2.24433203      -0.34206970      -0.00168602      -0.00038355      -0.00045436
H        2.59977305       2.17911904      -0.06654465      -0.00095139      -0.00046246       0.00178023
H        3.83768383       3.10145851      -0.03278829      -0.00114957      -0.00000369      -0.00218476
44
Properties=species:S:1:pos:R:3:forces:R:3 reactant=T mapped=T (centered)=T charge=0 spin=1 energy=-34182.930068120484 free_energy=-34182.930068120484 stress="0.13201636565846636 0.07902407799007402 0.20451581944283295 0.07902407799007402 -0.014156433779348235 -0.01925760863013033 0.20451581944283295 -0.01925760863013033 -0.09653037559779397" pbc="F F F"
O       -3.12196385       0.48900198      -1.44911156      -0.00407959       0.01584815       0.00694382
O       -3.02082961       0.74397998       2.11900415      -0.00080479       0.00322382       0.00467883
O       -1.81367518      -2.10886377      -0.45450375      -0.00752345      -0.00574927       0.01961161
O       -5.18054516       2.41813450       1.68611658      -0.00123601       0.00384138       0.00363108
O       -0.22149516      -0.13126688      -1.66129840      -0.01069469      -0.01043809      -0.00302522
O        1.03215553       1.65070362       0.64840164      -0.00211199       0.00007887      -0.00888590
C       -3.02921419      -0.05803079      -0.13987270      -0.00208825       0.00391616       0.00292897
C       -3.36890922       1.09758757       0.79368853      -0.00204796       0.00251819       0.00476565
C       -1.72297927      -0.82061119       0.14354005      -0.00372167       0.00107511       0.00644646
C       -4.85181521       1.42254167       0.72119151      -0.00196201       0.00224611       0.00469762
C       -0.36863854      -0.17620178      -0.24574221      -0.00388784      -0.00345455      -0.00137453
C       -0.28717182       1.26195415       0.28311842      -0.00244027      -0.00133780      -0.00661031
H       -3.79985663      -0.82557770       0.00540236      -0.00402398       0.00461544      -0.00105918
H       -2.81089094       1.98620043       0.46996305      -0.00277136       0.00300386       0.00448098
H       -1.69836646      -1.00408332       1.21848193      -0.00270748       0.01005503       0.00826529
H       -5.12572527       1.72762361      -0.28994645      -0.00141242       0.00023658       0.00415065
H       -5.42850408       0.53716048       0.99437758      -0.00196972       0.00270103       0.00609572
H       -3.34722098      -0.20129391      -2.07760222       0.04387707      -0.03362124      -0.01536824
H       -3.52886843       1.32660861       2.69924933      -0.00104166       0.00330339       0.00443370
H       -0.62920407       1.95219834      -0.48503097      -0.00332181      -0.00398230      -0.00866675
H       -0.92091246       1.34342299       1.16672203      -0.00153679       0.00192145      -0.00622507
H       -1.78513625      -2.01020032      -1.41330085       0.03249738      -0.01577641       0.01195747
H        1.31487651       1.00672482       1.31231170      -0.00250236       0.00488488      -0.00383444
H       -4.93444709       3.28100434       1.33855395      -0.00263711       0.00331585       0.00121424
O        3.10699530      -1.90303451      -2.15268442       0.01066693       0.00204739       0.00432715
O        1.18078197      -2.87301817      -1.56473362      -0.01553405       0.02425507      -0.03322959
O        5.00101231      -2.54493355       0.18010928       0.00264904      -0.00166276       0.00682381
N        0.67585885      -0.97797875       0.39202072      -0.00238555      -0.00185049      -0.00285690
N        5.08888811      -0.30862254      -0.16185453      -0.00291681      -0.00184772       0.00482784
C        1.98169001      -0.99802657      -0.26179504      -0.00209396      -0.00013088      -0.00201855
C        3.07135106      -1.26929081       0.79286429      -0.00392174      -0.00732482      -0.00198195
C        2.02924609      -2.03491443      -1.37644623      -0.00273362       0.00957417      -0.01163937
C        4.47832725      -1.44707822       0.23658076      -0.00129279      -0.00333519       0.00301117
H        2.17097335      -0.03550523      -0.73456556      -0.00019870       0.00315813       0.00491368
H        3.06042179      -0.43304145       1.49506990      -0.00635932      -0.01189026       0.00344808
H        2.82640796      -2.17740918       1.34203663      -0.00508699      -0.01060297      -0.00787092
H        0.34523300      -1.93463740       0.47916121      -0.00234674      -0.00168339      -0.00119224
H       -0.05865123      -1.03476169      -1.96404708       0.02124205       0.00068808       0.00198919
H        4.60169588       0.57847675      -0.20539625      -0.00434200      -0.00277601       0.00260729
H        5.97141531      -0.40571571      -0.63443107      -0.00009985       0.00032445       0.00955092
H        3.11203133      -2.64485068      -2.77665935       0.00534338       0.01019308      -0.00612416
O        3.54688316       2.23953861      -0.33550490      -0.00061892      -0.00082430      -0.00364208
H        2.60037736       2.20174111      -0.10730475      -0.00109270       0.00212559      -0.00481984
H        3.85839948       3.09434487      -0.02613493       0.00127088      -0.00086304      -0.00537620
44
Properties=species:S:1:pos:R:3:forces:R:3 reactant=T mapped=T (centered)=T charge=0 spin=1 energy=-34182.97582765027 free_energy=-34182.97582765027 stress="0.3657580948579971 0.0821955645922421 0.35263813293505825 0.0821955645922421 -0.204516760071462 0.15518745380268173 0.35263813293505825 0.15518745380268173 0.004727893205595005" pbc="F F F"
O       -3.14446241       0.49314346      -1.43335644      -0.00589752      -0.00346154       0.00378564
O       -3.03591811       0.74821135       2.13092753      -0.00339793       0.00212471       0.00279833
O       -1.85883562      -2.11784385      -0.43556262      -0.00768209      -0.00326682       0.00780499
O       -5.19891055       2.42178147       1.70284936      -0.00236963       0.00293908       0.00098081
O       -0.40965437      -0.27859635      -1.68332300      -0.03539087      -0.02848307      -0.00313130
O        1.02245580       1.63022079       0.58702312      -0.00200625      -0.00328996      -0.01220314
C       -3.05737922      -0.05943215      -0.13019964      -0.00537325      -0.00193618       0.00360678
C       -3.39213596       1.09689203       0.80535201      -0.00407788      -0.00024860       0.00215067
C       -1.76065223      -0.83334334       0.16277987      -0.00648884      -0.00294091       0.00561644
C       -4.87459643       1.42165055       0.73984088      -0.00365776       0.00096817       0.00232858
C       -0.41399774      -0.20443301      -0.24961351      -0.00842589      -0.00572121      -0.00017907
C       -0.30893052       1.24369079       0.25693956      -0.00421371      -0.00362348      -0.00500010
H       -3.83193696      -0.82559782       0.00752852      -0.00564865      -0.00172817       0.00452261
H       -2.83555206       1.98549758       0.47854306      -0.00356429      -0.00106099       0.00068852
H       -1.72788245      -0.98846091       1.24223426      -0.00424781       0.00411501       0.00672069
H       -5.15358285       1.72111998      -0.27164309      -0.00374074      -0.00059034       0.00188100
H       -5.44893828       0.53701649       1.01910746      -0.00431597       0.00192807       0.00385718
H       -2.96777845      -0.19759054      -2.07988897       0.06819017      -0.00437580       0.00178821
H       -3.54755238       1.32746617       2.71136329      -0.00422395       0.00233862       0.00186607
H       -0.66731377       1.92822398      -0.50848679      -0.00768807      -0.00523309      -0.00479763
H       -0.92321345       1.33921100       1.15320207      -0.00036132      -0.00064865      -0.00256368
H       -1.43649911      -2.06741849      -1.30438184       0.06558451      -0.01466951       0.02483225
H        1.30292453       1.02114199       1.28337873      -0.00180825       0.00365613      -0.00603763
H       -4.95822463       3.28340933       1.34874610      -0.00199864       0.00213893      -0.00069287
O        2.94933752      -1.89248474      -2.24603961      -0.02423660       0.00755905      -0.01662582
O        1.31113000      -3.12046682      -1.32664016       0.02267229      -0.03360410       0.03179935
O        4.92423614      -2.56385350       0.09666294      -0.01114817      -0.00378765      -0.01149997
N        0.63298338      -1.00273654       0.37663053      -0.00733069      -0.00477837      -0.00261852
N        5.06113098      -0.32040512      -0.17461993      -0.00594886      -0.00264333       0.00141986
C        1.93694980      -1.03602635      -0.27611855      -0.00784328      -0.00607045      -0.00240496
C        3.03529536      -1.26604994       0.78111027      -0.00737136      -0.00399162      -0.00199969
C        2.00613908      -2.14202609      -1.32350758      -0.00755737      -0.01933277       0.00493979
C        4.43096936      -1.45612394       0.20045643      -0.00791368      -0.00407092      -0.00429802
H        2.14064171      -0.08504601      -0.77138446      -0.00417223      -0.00699868      -0.00309871
H        3.02695770      -0.41300983       1.46222276      -0.00812990      -0.00418321      -0.00191949
H        2.79618521      -2.16422882       1.34872874      -0.00712406      -0.00468447      -0.00301340
H        0.30318535      -1.96032060       0.46929379      -0.00698299      -0.00494267      -0.00155770
H        0.48605274      -0.23578680      -2.02712352       0.09641589       0.15236998      -0.01174449
H        4.59359618       0.57788022      -0.18795995      -0.00415255      -0.00175441       0.00460195
H        5.93993907      -0.42212499      -0.65345647      -0.00550908      -0.00219403       0.00193353
H        3.03667077      -2.68478669      -2.79805058      -0.01084768       0.00036827      -0.00730038
O        3.54801610       2.24400097      -0.33597179      -0.00117971       0.00005420      -0.00504241
H        2.60112777       2.21808980      -0.11050208      -0.00083117       0.00359177      -0.00357621
H        3.86802356       3.09954517      -0.03709195       0.00199581       0.00016288      -0.00861794
44
Properties=species:S:1:pos:R:3:forces:R:3 reactant=T mapped=T (centered)=T charge=0 spin=1 energy=-34183.123902472595 free_energy=-34183.123902472595 stress="0.2781508103345243 -0.06681623800026948 -0.05180932673844712 -0.06681623800026948 -0.1523458564914547 0.16152594002686657 -0.05180932673844712 0.16152594002686657 0.08146719671184288" pbc="F F F"
O       -3.07743791       0.43806483      -1.46999634       0.00410321      -0.00573866      -0.00374254
O       -3.05650431       0.73553175       2.10246266      -0.00182808      -0.00524832      -0.00233062
O       -1.84331676      -2.07121059      -0.54891074       0.00245909       0.00754602      -0.02455401
O       -5.23538195       2.37717318       1.62901978      -0.00036552      -0.00384363      -0.00468463
O       -0.25072744      -0.23625175      -1.62939433       0.01766701       0.01033672       0.00378278
O        0.99078353       1.71526883       0.55495709      -0.00468291       0.01007988      -0.00293576
C       -3.02703698      -0.08609258      -0.15533562       0.00243460      -0.00336326      -0.00297737
C       -3.39894586       1.06899876       0.76850637       0.00036812      -0.00409412      -0.00253474
C       -1.72396578      -0.83595711       0.14681983       0.00407189       0.00044760      -0.00511036
C       -4.88577180       1.36888318       0.68267100       0.00032135      -0.00378557      -0.00453619
C       -0.39154731      -0.15758829      -0.21255338       0.00265279       0.00630686       0.00231988
C       -0.34241708       1.29118434       0.29019310      -0.00420020       0.00553642       0.00465094
H       -3.79339232      -0.86387877      -0.02961796       0.00338329      -0.00442544      -0.00309187
H       -2.85615177       1.96749795       0.44663966       0.00016956      -0.00342046      -0.00054973
H       -1.70330633      -1.01761285       1.22647330       0.00350416      -0.00866582      -0.00669160
H       -5.16060877       1.65013714      -0.33537792       0.00170638      -0.00338328      -0.00478931
H       -5.44929629       0.47982061       0.96938536      -0.00042103      -0.00356318      -0.00538658
H       -2.69577216      -0.22427329      -2.05911849       0.02091369      -0.00381013       0.00151933
H       -3.58419969       1.31277600       2.67065508      -0.00248950      -0.00530417      -0.00262243
H       -0.75804663       1.96251736      -0.45955839      -0.01182266       0.00522952       0.00802374
H       -0.92616657       1.36251725       1.20853925      -0.00004289       0.00035035       0.00785606
H       -1.00763876      -2.31177817      -0.97277204       0.04281252      -0.03132338       0.04356425
H        1.32443771       1.07749626       1.20379409       0.00206942       0.00688624      -0.00856071
H       -5.00650673       3.23825464       1.26583045      -0.00009973      -0.00365678      -0.00435575
O        2.76156574      -1.95110742      -2.25984711      -0.01757156      -0.01540509       0.00299225
O        1.09677014      -3.05946836      -1.24555738      -0.07993142      -0.05376266       0.00253075
O        4.89649233      -2.62927372      -0.03292928       0.00296674      -0.00951528      -0.00303230
N        0.67131044      -0.90350439       0.47841545       0.00278532       0.01311408       0.00873639
N        5.04488068      -0.37984631      -0.24758690      -0.00249066      -0.00643130      -0.00388830
C        1.93107808      -1.03202154      -0.23718519      -0.00153759      -0.00708262       0.00010642
C        3.05544263      -1.32811036       0.76953176      -0.00020928      -0.00776531      -0.00149213
C        1.85842764      -2.12889829      -1.28975855       0.04523891       0.08036421       0.00245339
C        4.42015826      -1.52115438       0.12399796      -0.00260657      -0.00299950      -0.00253513
H        2.16695220      -0.09889859      -0.74731217       0.00449480      -0.00064568       0.00161078
H        3.08887954      -0.49570167       1.47524770       0.00315911      -0.01169683       0.00435278
H        2.82219753      -2.23884578       1.31984876      -0.00021216      -0.01057645      -0.00405262
H        0.34687449      -1.83378026       0.72257850       0.00430796       0.01529735       0.02622507
H        0.33993552       0.45835244      -1.93742897      -0.01322983       0.07207950       0.01040493
H        4.58953845       0.52319138      -0.20898008      -0.00402299      -0.00631218      -0.00331312
H        5.90208124      -0.47354708      -0.76525378      -0.00318356      -0.00438160      -0.00463310
H        2.74490665      -2.73460349      -2.83039385      -0.02121281      -0.00325189      -0.00123534
O        3.57504886       2.23968271      -0.29046562      -0.00146480      -0.00173451      -0.00453491
H        2.61926822       2.26873828      -0.11345107      -0.00136365       0.00449742      -0.00560392
H        3.92710983       3.07731807       0.02321676       0.00339948      -0.00288496      -0.00735495
44
Properties=species:S:1:pos:R:3:forces:R:3 reactant=T mapped=T (centered)=T charge=0 spin=1 energy=-34183.18306580077 free_energy=-34183.18306580077 stress="-0.0527905209366192 0.014825357599350168 0.04526735611802367 0.014825357599350168 0.007318905589914658 0.04998021955311927 0.04526735611802367 0.04998021955311927 0.0050493188128698675" pbc="F F F"
O       -3.04400629       0.27128435      -1.47797330       0.00085625       0.00128420       0.00028519
O       -3.08492672       0.81890924       2.06889396      -0.00434650      -0.00354014       0.00115283
O       -1.70270919      -2.05273061      -0.43181875      -0.00024720       0.00027480      -0.00071294
O       -5.34854382       2.30725094       1.45022259      -0.00141536      -0.00011675      -0.00191980
O       -0.17721137      -0.14348275      -1.57872273       0.00022225       0.00206181       0.00187348
O        0.95027787       1.91778206       0.42036211       0.00120582      -0.00149942       0.00548466
C       -2.98462982      -0.14756303      -0.12547359      -0.00024454       0.00002347      -0.00002377
C       -3.42658272       1.04500895       0.71216454      -0.00088836      -0.00080911       0.00067262
C       -1.64390587      -0.79761203       0.22369592      -0.00053908      -0.00045040       0.00042718
C       -4.92638043       1.25112898       0.59011502      -0.00039983       0.00099190      -0.00280235
C       -0.35796014      -0.04734840      -0.17150226      -0.00023321      -0.00005718       0.00201590
C       -0.37250874       1.41730709       0.28415608       0.00045303      -0.00076387       0.00465724
H       -3.70776455      -0.95622636       0.04977115      -0.00047451      -0.00008497      -0.00126234
H       -2.92857968       1.94885835       0.33769529       0.00098967      -0.00064593       0.00342437
H       -1.61681900      -0.92426214       1.31280824      -0.00139437      -0.00152929       0.00039656
H       -5.20351037       1.43331611      -0.44976452       0.00250735       0.00326234      -0.00324960
H       -5.43920950       0.35426279       0.94093282      -0.00240131       0.00085994      -0.00580551
H       -2.60968879      -0.41620506      -1.99981501       0.00104773       0.00160625       0.00002827
H       -3.64631421       1.40652345       2.59199247      -0.00518273      -0.00415533       0.00091092
H       -0.88484837       2.03724478      -0.45165677       0.00058984       0.00109063       0.00567513
H       -0.89804376       1.48840647       1.23861723       0.00056035      -0.00254564       0.00514073
H       -0.81459255      -2.40433633      -0.61045274      -0.00005984       0.00135299      -0.00241177
H        1.37650771       1.28474216       1.02063620       0.00212849      -0.00641547       0.00246196
H       -5.16511927       3.14891248       1.02178111       0.00061207       0.00050335       0.00001902
O        2.50946895      -1.95602591      -2.35187075       0.00379297       0.00175962       0.00208689
O        0.93401720      -2.97234378      -1.13229916       0.00299953       0.00349473      -0.00186096
O        4.79879439      -2.74240213      -0.31828600       0.00015867      -0.00210186       0.00633477
N        0.76421273      -0.70735680       0.52669377      -0.00039558      -0.00128736       0.00127600
N        5.08201395      -0.49637495      -0.38767906      -0.00110858      -0.00185395      -0.00326792
C        1.95589065      -0.96864807      -0.26070542       0.00009042       0.00057937       0.00159950
C        3.09763209      -1.38179081       0.68115877       0.00010242       0.00091028       0.00171170
C        1.72022122      -2.06806643      -1.28457565      -0.00085832      -0.00180147       0.00088865
C        4.40814883      -1.62172909      -0.05315701      -0.00016060      -0.00134018       0.00170793
H        2.24510948      -0.06656971      -0.79737496      -0.00057535       0.00088524       0.00223988
H        3.21579764      -0.58715262       1.41909923       0.00097194       0.00194292       0.00046828
H        2.83545366      -2.30698078       1.19446941      -0.00032740       0.00189011       0.00323077
H        0.46251013      -1.56522687       0.97338351      -0.00046829      -0.00187384      -0.00014001
H        0.04961281       0.72373912      -1.92843872      -0.00114374       0.00266583       0.00288653
H        4.70566570       0.42453226      -0.21090403      -0.00228743      -0.00083728      -0.00864030
H        5.91085638      -0.59715604      -0.94766590      -0.00210820      -0.00364481      -0.00460604
H        2.37131731      -2.74136495      -2.90358876       0.00447739       0.00182480       0.00142358
O        3.72294148       2.14201282       0.16911386       0.00230348       0.00238654      -0.01148049
H        2.80023271       2.36357306      -0.02818848      -0.00265431       0.00612236      -0.00426004
H        4.06717281       2.88416011       0.67414905       0.00384509      -0.00041946      -0.00803658
44
Properties=species:S:1:pos:R:3:forces:R:3 reactant=T mapped=T (centered)=T charge=0 spin=1 energy=-34183.04634524634 free_energy=-34183.04634524634 stress="-0.4331234339061581 -0.30221167509704594 0.0007968877522646012 -0.30221167509704594 0.11599277531776808 0.1372204427138107 0.0007968877522646012 0.1372204427138107 0.003137993459039306" pbc="F F F"
O       -3.11819771       0.16655302      -1.43707755      -0.00281937       0.00180655      -0.00160417
O       -2.98093963       0.93311761       2.06721234      -0.00737163      -0.00884843       0.00067240
O       -1.66357013      -2.06981670      -0.30920407      -0.00348985      -0.00096237      -0.00500792
O       -5.34407805       2.29944325       1.47975879      -0.00307989      -0.00172647       0.00020449
O       -0.23324735      -0.22407714      -1.64912768      -0.00097527       0.00103752       0.00070452
O        0.83302942       2.10284463      -0.12061680      -0.00417125      -0.00318795       0.01459897
C       -2.98010015      -0.17448247      -0.06887685      -0.00448267      -0.00147507      -0.00242724
C       -3.41844272       1.05208268       0.72372145      -0.00388674      -0.00321930       0.00037554
C       -1.60801903      -0.76954988       0.25254047      -0.00495541      -0.00191643      -0.00267147
C       -4.92975417       1.18919238       0.68627968      -0.00330143      -0.00008320      -0.00199954
C       -0.35756839      -0.02293384      -0.24584335      -0.00601752       0.00041082      -0.00007394
C       -0.43196681       1.47343896       0.04905450      -0.00496227       0.00020663       0.00164665
H       -3.66969370      -0.99148499       0.18597453      -0.00508879      -0.00154918      -0.00512240
H       -2.98764665       1.94860903       0.26137711      -0.00078378      -0.00295405       0.00453447
H       -1.52682002      -0.81811420       1.34523626      -0.00601128      -0.00387279      -0.00290302
H       -5.27818995       1.26977748      -0.34522093      -0.00123578       0.00331273      -0.00202871
H       -5.37965065       0.30697381       1.14414897      -0.00553879      -0.00021561      -0.00530462
H       -2.64457634      -0.50610125      -1.94358368      -0.00297353       0.00271967      -0.00284100
H       -3.52638260       1.54010660       2.58471053      -0.00637580      -0.00844461       0.00119205
H       -1.11657369       1.93828821      -0.65880443       0.00472473       0.00525974      -0.00351103
H       -0.80139932       1.62395958       1.06506011      -0.01581894       0.00090085      -0.00150672
H       -0.77583464      -2.40630068      -0.51658695      -0.00320527      -0.00006399      -0.00397326
H        1.33153715       1.90754030       0.68107481       0.06142922      -0.13430575       0.06531791
H       -5.21629781       3.10669349       0.97207213       0.00113652      -0.00064510       0.00351599
O        2.36648489      -1.88275781      -2.47289798       0.00135396       0.00534362       0.00419522
O        0.95154087      -2.96746560      -1.12066320      -0.00001713       0.00136984       0.00075503
O        4.71588172      -2.70312562      -0.58943049      -0.00811540      -0.00157839       0.01104900
N        0.79877588      -0.59930925       0.46988015      -0.00526093       0.00209423       0.00163486
N        5.15350612      -0.50680802      -0.26079589      -0.00018017      -0.00416891       0.00397856
C        1.96493783      -0.92767706      -0.32612555      -0.00369965       0.00342134       0.00320630
C        3.08479407      -1.41331991       0.60951278      -0.00457700       0.00667745       0.00555824
C        1.68016122      -2.02972619      -1.33905153       0.00059773       0.00463200       0.00240656
C        4.39559797      -1.62501854      -0.12947767      -0.00484178       0.00017822       0.00720397
H        2.30111932      -0.04529125      -0.87026561      -0.00466634       0.00401217       0.00354932
H        3.19562979      -0.67022275       1.39798449      -0.00358624       0.01036867       0.00190564
H        2.79701560      -2.36880733       1.04919877      -0.00623143       0.00962952       0.01060546
H        0.51989790      -1.42069651       0.99405355      -0.00458861       0.00242288       0.00217383
H        0.21227577       0.54437490      -2.02492955      -0.01105801       0.00583967       0.00153382
H        4.88340045       0.36202886       0.17273025       0.00214096      -0.00246110      -0.00247502
H        6.02368467      -0.57768123      -0.75901225      -0.00090653      -0.00995794       0.00360514
H        2.21233694      -2.67408874      -3.01173825       0.00298713       0.00618969       0.00276930
O        3.56460595       1.86195722       0.84067001       0.00728681       0.02969106      -0.04817721
H        3.12029575       2.05550075       0.00554147       0.06262516       0.07644191      -0.07414994
H        3.88244075       2.71237409       1.16153590       0.00999237       0.00767025       0.00688355
44
Properties=species:S:1:pos:R:3:forces:R:3 reactant=T mapped=T (centered)=T charge=0 spin=1 energy=-34183.13628314509 free_energy=-34183.13628314509 stress="0.002366674043641253 0.011394661150250455 0.05113494956311771 0.011394661150250455 0.05974954459203396 0.05608560299196657 0.05113494956311771 0.05608560299196657 -0.0521224491765677" pbc="F F F"
O       -3.07535269       0.20881515      -1.42480186       0.00161588       0.00592103       0.00030708
O       -2.95695974       0.93741871       2.08475342      -0.00138797      -0.00471687       0.00257748
O       -1.64781595      -2.05357633      -0.31462438      -0.00087534       0.00040430      -0.00109545
O       -5.32565171       2.30440146       1.49370889      -0.00137499      -0.00244884       0.00384835
O       -0.21272599      -0.19109028      -1.62668677       0.00003325      -0.00072442       0.00011777
O        0.92079053       2.00488064      -0.27927452      -0.00114987      -0.00043464      -0.01046630
C       -2.94774742      -0.15130042      -0.06088975      -0.00017527       0.00145988      -0.00063810
C       -3.39181921       1.06591803       0.74273488      -0.00067592      -0.00089479       0.00270654
C       -1.58263823      -0.76247852       0.26621616      -0.00080441       0.00033877      -0.00045835
C       -4.90366099       1.20013841       0.69621200      -0.00068098      -0.00087127       0.00200926
C       -0.31292660      -0.03548365      -0.21715739      -0.00048310      -0.00020018       0.00002434
C       -0.34565989       1.44844391       0.11167029       0.00119396       0.00034005      -0.00183617
H       -3.64282998      -0.96861446       0.17777634      -0.00076717       0.00094654      -0.00415728
H       -2.96558205       1.97008356       0.29003484      -0.00039691       0.00047732       0.00558657
H       -1.51119622      -0.82759770       1.35838753      -0.00129932      -0.00033941      -0.00046032
H       -5.24401296       1.28705110      -0.33756708       0.00006188       0.00105434       0.00186745
H       -5.35557041       0.31367632       1.14368786      -0.00092877      -0.00183036       0.00000456
H       -2.60106593      -0.45818689      -1.93824878       0.00291168       0.00812059      -0.00136329
H       -3.51038794       1.53118462       2.60896333      -0.00136086      -0.00591767       0.00399454
H       -1.13636448       1.91886857      -0.47162226      -0.00219349       0.00001883       0.00279265
H       -0.52173110       1.58778604       1.17926008       0.00882023       0.00237603      -0.00097714
H       -0.76339287      -2.39430801      -0.53244392      -0.00097828       0.00142803      -0.00285652
H        0.80585284       2.94944828      -0.41794500      -0.00133576      -0.01333137      -0.02722984
H       -5.21128146       3.11383277       0.98654001      -0.00049563      -0.00140744       0.00564286
O        2.41526310      -1.92766805      -2.46742839       0.00395160       0.00398311       0.00197039
O        0.94081590      -2.98177812      -1.15677287       0.00128863       0.00126963      -0.00237776
O        4.80761204      -2.72690421      -0.54662264      -0.00126132      -0.00434575       0.00807992
N        0.82776445      -0.65686085       0.47519741      -0.00122312      -0.00044750       0.00108123
N        5.12331543      -0.49743476      -0.29264954      -0.00110418      -0.00335478      -0.00115278
C        1.99322237      -0.97659668      -0.32344151      -0.00001662       0.00067498       0.00242672
C        3.11007913      -1.47934188       0.60670201      -0.00111068       0.00024698       0.00340794
C        1.70111583      -2.06296287      -1.34948468       0.00218239       0.00241491       0.00044232
C        4.42997356      -1.64919057      -0.12751803      -0.00128685      -0.00261706       0.00385862
H        2.33920842      -0.08721356      -0.84939436       0.00049728       0.00137193       0.00391207
H        3.21005053      -0.75382405       1.41280658      -0.00044530       0.00149806       0.00226687
H        2.83144435      -2.44845362       1.02109119      -0.00257287       0.00110303       0.00457590
H        0.53485858      -1.48529935       0.97957958      -0.00184397      -0.00137849      -0.00072544
H        0.31939534       0.54002037      -1.96479991       0.00410473      -0.00298516       0.00147275
H        4.77557935       0.37661846       0.07588570      -0.00079663      -0.00147521      -0.00550705
H        5.98452305      -0.53066616      -0.80942095      -0.00204491      -0.00557593      -0.00263503
H        2.25213589      -2.71146285      -3.01453842       0.00505376       0.00506915       0.00016011
O        3.51509544       1.70995157       0.94941286      -0.00094746       0.00417012      -0.01208376
H        2.58298579       1.73863302       0.67197710       0.00237248       0.01490947      -0.01612596
H        3.74529244       2.61112273       1.19073372      -0.00206973      -0.00429983       0.02701222
44
Properties=species:S:1:pos:R:3:forces:R:3 reactant=T mapped=T (centered)=T charge=0 spin=1 energy=-34183.09937079723 free_energy=-34183.09937079723 stress="-0.065231791256207 -0.1539807145234312 -0.043967484523160315 -0.1539807145234312 0.021369988106041793 0.011571545128974632 -0.043967484523160315 0.011571545128974632 -0.05560795555105569" pbc="F F F"
O       -2.93315302       0.38461053      -1.34657183      -0.00502780      -0.00424726       0.00072866
O       -3.08550309       0.80765084       2.22009652       0.00074494      -0.00290654       0.00159141
O       -1.53734137      -2.01172525       0.00610131      -0.00196365      -0.00201516      -0.00518306
O       -5.36669082       2.24874925       1.54478177       0.00341097       0.00164925       0.00296536
O       -0.20636169      -0.27270727      -1.63365844      -0.00258367      -0.00015828      -0.00107171
O        0.86862507       2.06548863      -0.80255143       0.04647415      -0.01424158       0.03376718
C       -2.84474412      -0.06036832      -0.00115573      -0.00200516      -0.00263959       0.00125969
C       -3.35804912       1.08920217       0.86074255       0.00181270      -0.00113307       0.00165612
C       -1.47530735      -0.64430254       0.37484291      -0.00182468      -0.00328356      -0.00119137
C       -4.85498327       1.25799822       0.65618617       0.00204602       0.00204581       0.00173862
C       -0.23170391       0.01537312      -0.24390849      -0.00238863      -0.00147790      -0.00020988
C       -0.24512565       1.52979281      -0.07584957      -0.00814342      -0.00395832      -0.00206451
H       -3.52523967      -0.90582239       0.16010674      -0.00259823      -0.00182860       0.00378388
H       -2.86804092       2.02664869       0.56434023       0.00508248      -0.00246413       0.00278002
H       -1.37507710      -0.55442485       1.46271735      -0.00114128      -0.00556475      -0.00102842
H       -5.07436045       1.49040034      -0.38725462       0.00217359       0.00346702       0.00204115
H       -5.35623609       0.32598283       0.92226776       0.00067983       0.00241356       0.00065580
H       -2.37483764      -0.19226688      -1.88343899      -0.00283831      -0.00226802       0.00063180
H       -3.69897779       1.34394102       2.73949042       0.00183179      -0.00165490       0.00169137
H       -1.16418267       1.92079351      -0.49220559      -0.17608766       0.01532464      -0.12568308
H       -0.19145757       1.79320573       0.98054834       0.10647497      -0.01927933       0.07849483
H       -0.69260968      -2.33772963      -0.34726739      -0.00022089      -0.00250014      -0.00071772
H        0.57832655       2.86977556      -1.24161757       0.07912289       0.00887287       0.02628657
H       -5.20910046       3.11855027       1.16568114       0.00399148       0.00186134       0.00370778
O        2.33979635      -1.97767271      -2.53228369      -0.00269117       0.00154906      -0.00084552
O        0.91028739      -2.97891658      -1.13128847       0.00087956      -0.00094677       0.00134808
O        5.00331274      -2.55497592      -0.68274998      -0.00032712       0.00451810       0.00011376
N        0.95090174      -0.55796154       0.44324488      -0.00104078       0.00132865      -0.00071457
N        5.11515715      -0.35583293      -0.13527734       0.00118951       0.00264907       0.00783260
C        2.06364736      -0.99524896      -0.38671791      -0.00059158       0.00091845      -0.00025469
C        3.15862052      -1.59339139       0.52080384      -0.00089969       0.00218407       0.00093540
C        1.67633620      -2.07951817      -1.38052999      -0.00018561       0.00041338       0.00037148
C        4.51946378      -1.57309777      -0.15569690      -0.00009288       0.00334130       0.00233568
H        2.46425110      -0.14012614      -0.93044496      -0.00080724       0.00090843      -0.00023425
H        3.19979984      -1.01126048       1.44036380      -0.00244368       0.00257522       0.00079956
H        2.91392311      -2.62556072       0.76950348       0.00007635       0.00190774       0.00092620
H        0.66162555      -1.32986635       1.03488946       0.00029106       0.00207648       0.00129169
H        0.31054647       0.43139855      -2.05104406       0.00966851      -0.00675701       0.00079438
H        4.68555050       0.41996451       0.34942405      -0.00391396       0.00468542       0.00041351
H        6.01427505      -0.25536617      -0.57277052      -0.00048815       0.00454278       0.00487591
H        2.12842200      -2.76084551      -3.06361278      -0.00309527       0.00171658      -0.00098277
O        3.04773498       1.48642101       1.28420860      -0.01011538       0.00752711      -0.01568583
H        2.26173021       0.91268727       1.25167013      -0.00689894       0.00072615      -0.00437539
H        2.79675031       2.23035349       0.72588355      -0.02553597       0.00012229      -0.02557566
44
Properties=species:S:1:pos:R:3:forces:R:3 reactant=T mapped=T (centered)=T charge=0 spin=1 energy=-34182.856942352 free_energy=-34182.856942352 stress="-0.5310329171950825 0.011338148252441093 -0.1563574876121242 0.011338148252441093 0.31797641807470706 -0.1660875187232734 -0.1563574876121242 -0.1660875187232734 -0.010820738649934708" pbc="F F F"
O       -2.84770010       0.48187438      -1.35558371       0.01125809       0.01476191      -0.00019208
O       -3.08917335       0.82335549       2.20718973      -0.00025222       0.00699225      -0.00119482
O       -1.53290868      -1.98774180       0.02214283       0.00352597       0.00218924       0.02045381
O       -5.39507095       2.22784712       1.53515617      -0.00763403      -0.00502117       0.00108818
O       -0.16049933      -0.25472861      -1.60685541       0.00273711      -0.00047150       0.00394505
O        0.38407851       2.23305186      -1.14590857      -0.11990073       0.03231039      -0.08713166
C       -2.81407504      -0.01284070      -0.02464679       0.00293946       0.00732958      -0.00268048
C       -3.36940202       1.10714854       0.85133009      -0.00480573       0.00330709      -0.00113483
C       -1.45829008      -0.61596503       0.38262657       0.00119161       0.00625433       0.00494608
C       -4.86784346       1.24773836       0.64394566      -0.00568857      -0.00478053       0.00180618
C       -0.19379651       0.02079178      -0.22082635       0.00145909       0.00125325       0.00227553
C       -0.14493973       1.55720322      -0.00526898       0.00446432       0.00578508       0.00043938
H       -3.50003259      -0.86316807       0.07944756       0.00277130       0.00641513      -0.01237448
H       -2.91416576       2.06409532       0.55998848      -0.01319643       0.00683172      -0.00296240
H       -1.37731091      -0.52888388       1.47194564      -0.00218260       0.01367826       0.00419083
H       -5.08461151       1.48385529      -0.39953556      -0.00823159      -0.00703297       0.00176391
H       -5.35735438       0.30816413       0.90358525      -0.00169554      -0.00604498       0.00451149
H       -2.32960747      -0.12457132      -1.90031816       0.01078328       0.01697979      -0.00151136
H       -3.71498148       1.33986064       2.73184277      -0.00268786       0.00397281      -0.00111751
H        0.50129179       1.77122997       0.82634265       0.36045033      -0.02319321       0.34146893
H       -1.10650745       1.94962167       0.28614965      -0.26285881       0.02718063      -0.27717581
H       -0.70404988      -2.31340345      -0.36656889      -0.00949917       0.00769970      -0.00958364
H       -0.31112622       2.75874083      -1.56078724       0.09891647      -0.15867941       0.09322292
H       -5.23034267       3.10237626       1.16947853      -0.00338573      -0.00489630       0.00299626
O        2.36055929      -1.97212816      -2.52723850       0.00241405       0.00131817      -0.00095676
O        0.90841214      -2.97759637      -1.15268149      -0.00137807       0.00318578      -0.00632446
O        5.01234232      -2.55744412      -0.71121637       0.00175447      -0.00198133       0.00065530
N        0.96118444      -0.60865468       0.46996616       0.00128329      -0.00312664       0.00161933
N        5.14607065      -0.38554708      -0.07029012       0.01271861      -0.00698883       0.01277006
C        2.07660661      -1.02274174      -0.36558957       0.00032956      -0.00233362      -0.00087380
C        3.17461548      -1.63319404       0.52949618       0.00192205      -0.00014296      -0.00106561
C        1.68750931      -2.08419447      -1.38336214      -0.00235595      -0.00223234      -0.00243832
C        4.53737468      -1.59513364      -0.14258136       0.00337183      -0.00155405       0.00259083
H        2.47551866      -0.15821172      -0.89778262      -0.00149077      -0.00317308      -0.00304034
H        3.20806555      -1.07276763       1.46294174       0.00007393       0.00058856      -0.00120455
H        2.93324010      -2.67107642       0.75681303       0.00251531       0.00031095       0.00097238
H        0.64637193      -1.40796972       1.01011272      -0.00213936      -0.00771015      -0.00653803
H        0.22750466       0.52985115      -2.02792742      -0.04363169       0.02602004       0.00056115
H        4.73144115       0.37193708       0.45385407       0.00013441       0.00392762      -0.01980553
H        6.05032532      -0.27861481      -0.49550065       0.00522225      -0.00544596      -0.00146713
H        2.14166222      -2.74273590      -3.07358055      -0.00091707       0.00477318      -0.00485291
O        3.11035831       1.51266102       1.24552628      -0.04138540       0.03171765      -0.13484836
H        2.35911465       0.90231828       1.33628546      -0.01234718       0.01145846      -0.04607295
H        2.87014230       2.07559087       0.49788201       0.01542766      -0.00143269       0.12426996
44
Properties=species:S:1:pos:R:3:forces:R:3 reactant=T mapped=T (centered)=T charge=0 spin=1 energy=-34183.138820842185 free_energy=-34183.138820842185 stress="-0.397010011227214 -0.4396129286001315 0.2934701102867513 -0.4396129286001315 0.14106176358619907 -0.23389710896513147 0.2934701102867513 -0.23389710896513147 -0.09500068592791291" pbc="F F F"
O       -2.94991953       0.37767777      -1.33396592      -0.01252120      -0.01136516       0.00384994
O       -3.11381884       0.80528800       2.23357483      -0.00744172      -0.00454015       0.00481115
O       -1.50498429      -2.00869378       0.12045757       0.00617913      -0.00365785       0.02468711
O       -5.39935945       2.23261701       1.54598525      -0.00449579      -0.00240255       0.00138778
O       -0.23140797      -0.28420105      -1.63582091      -0.01185107      -0.00438261      -0.00220008
O        0.54491772       2.15792958      -1.13431242       0.00879233      -0.00901157      -0.00591439
C       -2.85134453      -0.06145999       0.01174433      -0.00516007      -0.00626347       0.00524803
C       -3.38643774       1.08171262       0.87191894      -0.00501771      -0.00462835       0.00393328
C       -1.47099147      -0.61734102       0.40168657      -0.00185700       0.00077004       0.00605554
C       -4.88275163       1.23794417       0.66319259      -0.00450295      -0.00332641       0.00207155
C       -0.24356447       0.03103176      -0.25599295      -0.00708195       0.00075673      -0.00294226
C       -0.25934002       1.56186171      -0.12568844      -0.01772048       0.00010144      -0.01461099
H       -3.51722506      -0.91776875       0.17630085      -0.00215457      -0.00784404       0.01076586
H       -2.91270606       2.02741032       0.57922454      -0.00360594      -0.00508768       0.00547656
H       -1.36780563      -0.47814142       1.48356911      -0.00004253       0.01180096       0.00461977
H       -5.09894331       1.46643702      -0.38172573      -0.00312010      -0.00316048       0.00186712
H       -5.38168287       0.30595485       0.93273533      -0.00575403      -0.00272742       0.00185805
H       -2.35104446      -0.16083118      -1.86699335       0.00234215       0.00149648       0.00568069
H       -3.73189497       1.34032289       2.74851860      -0.00744586      -0.00277447       0.00303046
H        0.06650672       1.84843438       0.87523060      -0.05450936       0.01099787       0.00962593
H       -1.26323974       1.92819072      -0.29387515      -0.02878029      -0.00420195      -0.07461955
H       -0.71495822      -2.30814494      -0.35816422      -0.00612327       0.00255029      -0.00145764
H        1.42994417       2.28802809      -0.78169020       0.30568668      -0.08074385       0.11668728
H       -5.22511095       3.10074645       1.16965932      -0.00087192      -0.00278905       0.00204896
O        2.33714571      -1.98826767      -2.54446240      -0.00384172      -0.00233220      -0.00377541
O        0.89226884      -2.97270015      -1.14592191      -0.00366161       0.00136980      -0.00216018
O        5.00494517      -2.57158531      -0.66934939       0.00029131      -0.00121825       0.00492677
N        0.95524114      -0.53695805       0.42621529      -0.00025072       0.00856133      -0.00604639
N        5.13542959      -0.36721964      -0.15646652       0.00258676       0.00091796      -0.00166712
C        2.05684337      -0.99021012      -0.41322268      -0.00280489       0.00275241      -0.00754164
C        3.15542387      -1.57777352       0.49845324      -0.00278823       0.00615998      -0.00474886
C        1.66348549      -2.07968730      -1.39792734      -0.00518646      -0.00135320      -0.00329039
C        4.52023467      -1.57768167      -0.16961013      -0.00140918       0.00271450      -0.00125617
H        2.45570689      -0.14619785      -0.97532040      -0.00282928      -0.00036693      -0.01188154
H        3.19729262      -0.98293472       1.41101224      -0.00379855       0.01034733      -0.00699926
H        2.90648714      -2.60445462       0.76563584      -0.00317798       0.00733265      -0.00002717
H        0.66484554      -1.31172708       1.01538076       0.00289292       0.01151582       0.00028997
H        0.16223148       0.48848950      -2.07694516      -0.02031679      -0.00140356      -0.00568673
H        4.66784117       0.44757618       0.20937619      -0.01006895       0.01121439      -0.03340195
H        6.01018851      -0.27125405      -0.64209292      -0.00328604       0.00110350      -0.01301505
H        2.11936524      -2.76831579      -3.07756233      -0.00516217      -0.00241814      -0.00325494
O        2.85021531       1.60659120       0.77920745      -0.04434906       0.01616734      -0.10269043
H        2.16979942       0.96179077       1.06381621      -0.02940756       0.01181548      -0.05864115
H        2.89217192       2.28751460       1.45421359       0.00362597       0.04755312       0.14890704
44
Properties=species:S:1:pos:R:3:forces:R:3 reactant=T mapped=T (centered)=T charge=0 spin=1 energy=-34183.27363910914 free_energy=-34183.27363910914 stress="0.06852794963508635 -0.019197886309203955 0.0031713486268250234 -0.019197886309203955 0.005510389144538729 -0.0271237409743624 0.0031713486268250234 -0.0271237409743624 -0.03202127075890667" pbc="F F F"
O       -3.05147702       0.25112845      -1.35516442      -0.00093142      -0.00121038       0.00039296
O       -2.86465602       0.98698367       2.15842081       0.00060431       0.00024438       0.00093531
O       -1.59031140      -2.03518100      -0.07663865      -0.00067796      -0.00051748      -0.00016475
O       -5.20330611       2.38866951       1.60637730       0.00174380       0.00171771       0.00068795
O       -0.23117537      -0.35963036      -1.70767449      -0.00089878      -0.00179594      -0.00085014
O        0.82208128       2.03977935      -0.97226851       0.00539067      -0.00272156       0.00128655
C       -2.87477203      -0.08579889       0.01026442      -0.00014806      -0.00033874       0.00067091
C       -3.28996690       1.14168467       0.81510431       0.00109565       0.00042909       0.00043727
C       -1.49608323      -0.67489264       0.31764629      -0.00007846      -0.00047150      -0.00013327
C       -4.79931443       1.30779636       0.76837243       0.00100716       0.00162153       0.00012118
C       -0.27105670      -0.01469703      -0.33520653      -0.00048133      -0.00071445      -0.00103825
C       -0.27690277       1.51012219      -0.24705991       0.00002373      -0.00080508      -0.00252957
H       -3.55866460      -0.89901334       0.28858904      -0.00040449       0.00001071       0.00178321
H       -2.83645976       2.03932867       0.37754453       0.00250830      -0.00002715       0.00026516
H       -1.35579678      -0.60390150       1.40261282       0.00069327      -0.00021252      -0.00016046
H       -5.13577117       1.43973845      -0.26158657       0.00129474       0.00220189      -0.00017621
H       -5.26988028       0.41423891       1.18165117      -0.00005146       0.00170673      -0.00019996
H       -2.57631446      -0.40507043      -1.88068851      -0.00088079      -0.00150365       0.00011792
H       -3.41862966       1.57665008       2.68684047       0.00064502       0.00047573       0.00089113
H       -0.27668000       1.83023957       0.79834841      -0.00493038       0.00023278      -0.00146681
H       -1.17475162       1.87677084      -0.73817167       0.00131887      -0.00070526      -0.00800436
H       -0.74261060      -2.37903430      -0.40261240       0.00018859      -0.00092864       0.00106520
H        1.58617437       2.09190103      -0.37720824       0.00404806      -0.00462826       0.00518540
H       -5.06797874       3.21524853       1.13308643       0.00253985       0.00188812       0.00087665
O        2.31754573      -2.05854624      -2.55281996      -0.00111136      -0.00090231      -0.00076866
O        0.91490770      -3.02401721      -1.09909977       0.00101064      -0.00019983       0.00060217
O        5.10142925      -2.37052869      -0.70109293       0.00146173       0.00309077      -0.00124087
N        0.92551346      -0.55637326       0.38060216      -0.00017160      -0.00007700      -0.00094809
N        5.03204738      -0.15503323      -0.22658752      -0.00093062       0.00310735      -0.00017460
C        2.04159343      -0.99529697      -0.44897524      -0.00010943      -0.00001472      -0.00093434
C        3.17256891      -1.52648315       0.45828697       0.00030751       0.00071402      -0.00093479
C        1.66230133      -2.12308835      -1.39505100      -0.00097886      -0.00165697       0.00003628
C        4.53157834      -1.41754750      -0.21207326       0.00025698       0.00260565      -0.00068138
H        2.40229128      -0.15234089      -1.03717262      -0.00068252      -0.00024791      -0.00149834
H        3.17926949      -0.94304348       1.37837187      -0.00044600       0.00051433      -0.00076941
H        2.99597506      -2.57127031       0.71045061       0.00134941       0.00041618      -0.00124927
H        0.64132564      -1.33577525       0.96644437       0.00019435       0.00012711      -0.00052273
H        0.23026831       0.36519891      -2.15675179       0.00037540      -0.00297575      -0.00148304
H        4.53276754       0.61019270       0.19878772      -0.00171316       0.00243458       0.00047992
H        5.90659108       0.00891268      -0.69386201      -0.00099911       0.00428460       0.00002325
H        2.10147589      -2.85643666      -3.05974910      -0.00139707      -0.00124710      -0.00031561
O        2.66024798       1.55120752       1.13798804      -0.00282255      -0.00007006       0.00376909
H        1.98156367       0.84093945       1.20588703      -0.00276575      -0.00149659       0.00053159
H        2.62304305       2.05626904       1.95583667      -0.00444682      -0.00235428       0.00608573
44
Properties=species:S:1:pos:R:3:forces:R:3 product=T mapped+aligned=T onto=T reactant=T charge=0 spin=1 energy=-34183.27674661489 free_energy=-34183.27674661489 stress="-0.1661008362353882 0.026632906457921244 0.005843319231323605 0.026632906457921244 -0.25928335251948303 -0.07446886373612657 0.005843319231323605 -0.07446886373612657 -0.10879613720619126" pbc="F F F"
O       -3.09430296       0.21195287      -1.36225970      -0.01371382      -0.00326140      -0.01032017
O       -2.67417827       1.09070109       2.09193999       0.00024143       0.00013360       0.01296359
O       -1.67113767      -2.06239763      -0.18189755       0.00688563      -0.01478778       0.02227684
O       -5.01466780       2.53221496       1.65421286      -0.00526101       0.00679310      -0.00270644
O       -0.24874892      -0.45013153      -1.74758077       0.02666525       0.00207506      -0.00997368
O        0.87971473       1.94691407      -0.96857300       0.00070497       0.00776783      -0.00760978
C       -2.88399375      -0.08388108       0.00670211      -0.00468353      -0.00147273      -0.01275949
C       -3.20876827       1.18866696       0.78192018       0.00631586      -0.00448119       0.01610501
C       -1.52181803      -0.72473165       0.27109173      -0.00305905      -0.01494817      -0.00995515
C       -4.71122400       1.39198397       0.85378787      -0.00396960       0.01027211       0.00728054
C       -0.28514829      -0.08320497      -0.38002950       0.00337658      -0.00823969      -0.01598737
C       -0.27127496       1.44095437      -0.31096736       0.00934910       0.00582555      -0.01276600
H       -3.59272187      -0.85597746       0.33794255       0.00963116      -0.00255874      -0.00318027
H       -2.77720492       2.05242055       0.26209169       0.00211496      -0.01368412       0.00098762
H       -1.36438388      -0.70159370       1.35544841       0.00616515       0.00221437      -0.00463574
H       -5.13205330       1.47159356      -0.15063212      -0.00220301      -0.00075464       0.00216460
H       -5.16492636       0.54010089       1.36232346      -0.00534987      -0.00676256      -0.00837427
H       -2.70346789      -0.50905982      -1.87289101      -0.00627146       0.00498182      -0.00042988
H       -3.17386992       1.71460420       2.63498478       0.00138993       0.00781821      -0.00076119
H       -0.33806032       1.77458672       0.72801557       0.01007563       0.00968468      -0.01312532
H       -1.13038368       1.80835764      -0.86747495      -0.00986972       0.00562494       0.01267614
H       -0.82795418      -2.43104953      -0.49085298       0.00564203       0.00402230       0.01264811
H        1.59548378       2.01406375      -0.31772943      -0.01611641       0.00099843       0.00645582
H       -4.87036326       3.32556215       1.12900232      -0.00649482       0.00272688       0.00276145
O        2.34025694      -2.14868027      -2.54985632      -0.00795237      -0.00851293      -0.00517127
O        0.92300450      -3.08584196      -1.08915085      -0.01302130      -0.01933850      -0.01478626
O        5.21437473      -2.08593629      -0.75071540       0.02267746      -0.01623634      -0.01079657
N        0.89919033      -0.63101069       0.35013323       0.00036657      -0.00390811       0.00628698
N        4.91210863       0.07406387      -0.13123310       0.00834911       0.00966763      -0.00288172
C        2.03020000      -1.03822150      -0.47650889      -0.00665649      -0.01316583      -0.00436170
C        3.19356421      -1.52090822       0.42094430       0.00302529      -0.00201054      -0.00312904
C        1.67053000      -2.18967736      -1.39944952       0.00084310       0.01583668      -0.00867705
C        4.54484413      -1.23053330      -0.21058014      -0.01255321       0.00547177       0.01088114
H        2.35278403      -0.18911481      -1.07728980      -0.00088022      -0.01464806       0.00095098
H        3.12962848      -1.00463317       1.37800964      -0.00906976      -0.00881089       0.00276057
H        3.12203427      -2.59248226       0.60003175       0.00242817      -0.00155922       0.00667756
H        0.61273101      -1.43447679       0.90191495      -0.01569974       0.00148420      -0.00510745
H        0.22553556       0.25318882      -2.21411733       0.00426008       0.01832190       0.00904670
H        4.33894103       0.74877493       0.35241438       0.01350750      -0.00465556      -0.00259874
H        5.77677814       0.35514120      -0.55936299       0.00054535       0.00107198      -0.00114894
H        2.13399190      -2.95681404      -3.04431351      -0.00728674      -0.00297662       0.00460232
O        2.50832456       1.45193762       1.28703899       0.01273237       0.02150024       0.01038779
H        1.84430840       0.72086008       1.26211282       0.01407605       0.02249000       0.01212778
H        2.41232367       1.90171367       2.13140142      -0.02125657      -0.00000957       0.01120179
