44
Properties=species:S:1:pos:R:3 reactant=T mapped=T (centered)=T charge=0 spin=1 pbc="F F F"
O       -3.27847865       0.44109168      -1.53381928
O       -2.82060594       0.60460876       2.06689725
O       -1.90081123      -1.88693009      -1.14858994
O       -4.93713523       2.36108458       1.99162797
O       -0.13044938       0.00048588      -1.81724667
O        1.04683332       1.54796407       0.61151018
C       -3.07231449      -0.05783661      -0.21087709
C       -3.28339519       1.05894704       0.80870705
C       -1.75164162      -0.84979954      -0.18832264
C       -4.75433185       1.43200700       0.92875479
C       -0.36351648      -0.17689628      -0.43243309
C       -0.27447625       1.20561706       0.21497723
H       -3.81797574      -0.83243802       0.00793211
H       -2.73285295       1.95066150       0.48335194
H       -1.69950627      -1.32266264       0.79308536
H       -5.13872887       1.82836640      -0.01460291
H       -5.32930283       0.54608534       1.20505003
H       -4.20358318       0.33236931      -1.77157077
H       -3.22214089       1.17838950       2.73368766
H       -0.60357088       1.95962955      -0.49786064
H       -0.90284957       1.22021493       1.10212792
H       -2.29768939      -1.46508339      -1.92469405
H        1.29608425       0.87673369       1.25968597
H       -4.72250643       3.24608072       1.68044326
O        3.25346733      -2.20269224      -1.99100734
O        1.62444212      -3.37396076      -0.98827495
O        4.98006621      -2.36730797       0.49894214
N        0.61711228      -1.06832833       0.19762326
N        5.09704625      -0.15602089       0.02518467
C        1.98455585      -1.08208358      -0.32672024
C        2.99876203      -1.06869925       0.84213336
C        2.23556070      -2.34813970      -1.13157939
C        4.45269512      -1.27124333       0.43430130
H        2.15551292      -0.22883219      -0.98050566
H        2.91247634      -0.11870829       1.37067355
H        2.74232623      -1.87323306       1.52954357
H        0.27671037      -2.02584514       0.19160015
H       -0.22178544      -0.87028738      -2.22748527
H        4.60730733       0.71688854      -0.13628739
H        6.02941503      -0.27194679      -0.33371264
H        3.48410526      -3.08341772      -2.32413145
O        3.45781263       2.24774591      -0.51706289
H        2.53726276       2.10078427      -0.22912449
H        3.67009494       3.14663736      -0.25193320
