44
Properties=species:S:1:pos:R:3:energies:R:1:forces:R:3:charge:R:1 charge=0 multiplicity=1 source=products.log spin=1 energy=-2153.663911414212 free_energy=-2153.663911414212 dipole="0.0008086098323702215 1.0063587168099646 0.12406404857042294" pbc="F F F"
O       -3.05072248       0.07801909      -1.34728066    -113.17419906       0.01065703       0.00511898      -0.00222339      -0.45433343
O       -3.13693572       1.64096317       1.87594839    -113.29718060       0.00271148       0.00431529      -0.00407261      -0.46161838
O       -2.01982524      -1.96445360       0.65514260    -113.00223842       0.00243685       0.00380600       0.01940494      -0.45681715
O       -5.41319041       2.91409017       0.87254792    -113.05353801      -0.00362385      -0.00436684       0.00240035      -0.43860350
O       -0.33232991      -0.81884814      -1.10959074    -113.16739658      -0.00102949      -0.00420526       0.00329285      -0.45589941
O        0.81071036       1.72686950      -0.71907283    -113.29562124       0.00454679      -0.00335992       0.00011655      -0.46142571
C       -3.14230545       0.02101116       0.05351916     -59.12700708       0.00347284       0.00119986      -0.00275246       0.09398430
C       -3.53315566       1.42732096       0.54111847     -59.13802778      -0.00029633       0.00052421      -0.00249461       0.09009822
C       -1.87643042      -0.56460860       0.71715399     -59.08099522       0.00129468       0.00406007       0.00412032       0.08893081
C       -5.04821782       1.63465832       0.40671832     -59.24928655      -0.00103486      -0.00317801       0.00086909       0.05942318
C       -0.52246919      -0.13331642       0.10815920     -58.89014646       0.00142637      -0.00068504       0.00226715       0.18289878
C       -0.43958658       1.38011340      -0.17734539     -59.30324311       0.00341753      -0.00153792      -0.00125221       0.05023847
H       -3.94114187      -0.67909932       0.34965043     -12.95551161       0.00318477      -0.00107790      -0.00942835       0.04836237
H       -3.03591364       2.16713039      -0.10647835     -13.10978411      -0.00328837       0.00058559      -0.00490106       0.03326106
H       -1.88897160      -0.23680601       1.76837229     -13.02281013       0.00036483       0.01313915       0.00110283       0.04704298
H       -5.35029621       1.47477027      -0.63312405     -13.19319909      -0.00266219      -0.00341755       0.00135346       0.04202832
H       -5.57471932       0.92548240       1.04971253     -12.99846637       0.00146290      -0.00441199       0.00150345       0.06222067
H       -2.65510674      -0.75465175      -1.63865897     -11.31864254       0.01616197       0.00805783      -0.00256713       0.32281699
H       -3.80007406       2.23070229       2.26571385     -11.27679371      -0.00032132      -0.00076278      -0.00173867       0.31928623
H       -1.17662807       1.61048646      -0.94938269     -12.92427872       0.00472668      -0.00228088      -0.00267088       0.06969893
H       -0.67117908       1.94039539       0.73256652     -13.24965714       0.00214190       0.00039577      -0.00278936       0.03659001
H       -1.17231276      -2.39998828       0.46036714     -11.42240621      -0.00099517       0.00293875       0.00536332       0.32748424
H        1.44321347       1.85093508       0.00843219     -11.31721881       0.00408512      -0.00466475       0.00065787       0.32194650
H       -5.06915351       3.57795736       0.26386297     -11.56265326      -0.00397087      -0.00247344       0.00441204       0.29375642
O        2.17591316      -2.58450195      -1.25845386    -112.46924546      -0.00914040       0.00402568      -0.00592085      -0.36004512
O        0.57578376      -3.17860497       0.18498671    -112.47155477       0.00447304       0.00461379      -0.00244988      -0.42820519
O        4.88473465      -2.19865588       0.89541578    -112.29470761       0.00334679       0.00343300       0.00015044      -0.42183349
N        0.52094929      -0.49218252       1.09932498     -81.22863422       0.00088909      -0.00110286       0.00188686      -0.30898395
N        4.51928499       0.02490882       1.00157836     -80.92978338      -0.00465433       0.00195989      -0.00055624      -0.27554510
C        1.72466217      -1.08907208       0.52625600     -58.83580144      -0.00018164      -0.00162643       0.00102668       0.03240013
C        2.72627073      -1.42232885       1.64984735     -59.31056666       0.00044481      -0.00401577      -0.00035608      -0.10497643
C        1.40328886      -2.38955780      -0.20177645     -58.85217317      -0.01029437      -0.00666271       0.00171572       0.36519860
C        4.15804306      -1.26625227       1.14552271     -59.18060367      -0.00005858       0.00128167      -0.00002449       0.28594159
H        2.16895664      -0.38797706      -0.18572990     -12.89124014       0.00009972      -0.00209222       0.00088160       0.07475951
H        2.57166905      -0.74127801       2.48644764     -12.93665761      -0.00102515      -0.00716187       0.00196012       0.07398513
H        2.57628687      -2.44483091       1.99859780     -13.06557013       0.00244526      -0.00544050      -0.00402831       0.07070579
H        0.13254647      -1.16781870       1.75473136     -12.36634314       0.00018175      -0.00183953       0.00111645       0.17116742
H        1.42927758       1.00473819       1.81456993     -11.47843711      -0.00072761      -0.00002414       0.00198807       0.31422794
H        3.89272157       0.77946921       1.23562029     -12.04011493      -0.00672297       0.00017359       0.00012641       0.21145321
H        5.43974725       0.23862780       0.65654600     -12.21217336      -0.00504570       0.00502013       0.00005009       0.19316939
H        2.00922898      -3.45265970      -1.65955257     -10.89887210      -0.01266023       0.00569998      -0.00890828       0.34033221
O        2.07818163       1.73605336       1.80919506    -114.97041266      -0.00144546       0.00048352       0.00207419      -0.60342197
H        1.80413813       2.36837789       2.47563460     -11.81282951      -0.00595435       0.00348790      -0.00264671       0.28567839
H        0.17379940      -0.23442111      -1.69241209     -11.28788852       0.00116104      -0.00793235       0.00194071       0.32262101
44
Properties=species:S:1:pos:R:3:energies:R:1:forces:R:3:charge:R:1 charge=0 multiplicity=1 source=products.log spin=1 energy=-2153.7271234128675 free_energy=-2153.7271234128675 dipole="-0.22641650132301985 0.9251960940184988 -0.04889565847102426" pbc="F F F"
O       -2.97827078       0.03879554      -1.25190805    -113.26254859      -0.00009161       0.00078900      -0.00012490      -0.46599509
O       -3.34684073       1.73104941       1.89420447    -113.27747564      -0.00152205      -0.00188628       0.00125856      -0.45991878
O       -1.84995947      -1.71744656       1.30665132    -112.96846216      -0.00048873      -0.00047786      -0.00290373      -0.44017486
O       -5.59126802       2.80813242       0.64952852    -113.05405810      -0.00007967      -0.00020074      -0.00040075      -0.43830859
O       -0.44170833      -0.84579438      -1.01030977    -113.35864135       0.00091700       0.00083699      -0.00028683      -0.46747001
O        0.96109280       1.67123474      -0.70736837    -113.27428039      -0.00064831       0.00064256      -0.00029529      -0.45754195
C       -3.08673495       0.03640336       0.15067668     -59.13252958      -0.00008815       0.00004488      -0.00009629       0.08812096
C       -3.59540573       1.44015187       0.54034221     -59.09768023      -0.00021327      -0.00033399       0.00072451       0.09196449
C       -1.80526979      -0.36684500       0.92071278     -59.18570203      -0.00000400      -0.00045690      -0.00071267       0.07823232
C       -5.09821376       1.55026000       0.24923469     -59.24838810       0.00016520       0.00002797      -0.00069539       0.06023067
C       -0.46832767      -0.09107346       0.19387626     -58.81303141       0.00001903       0.00034842      -0.00021124       0.18134808
C       -0.30343864       1.40142605      -0.15942784     -59.32889885      -0.00040243       0.00046045       0.00017810       0.05134354
H       -3.84396356      -0.70222763       0.46360719     -12.99401264       0.00004423      -0.00021221      -0.00032828       0.04565467
H       -3.06515710       2.17459233      -0.08902133     -13.15065843       0.00044141       0.00033599       0.00201626       0.02986772
H       -1.81051298       0.20033253       1.85758937     -12.79887418      -0.00004534      -0.00151937      -0.00030357       0.07635203
H       -5.28379883       1.35209635      -0.81092640     -13.18292771       0.00127130       0.00079920      -0.00100832       0.04339228
H       -5.63862223       0.81740582       0.85345108     -12.99748696      -0.00053641      -0.00035866      -0.00175011       0.06184627
H       -2.32709681      -0.63158377      -1.50720056     -11.34961105      -0.00190845      -0.00053931      -0.00031484       0.32169445
H       -4.09518205       2.26367370       2.20296170     -11.27280189      -0.00160123      -0.00200787       0.00107985       0.32012170
H       -1.03655277       1.64186781      -0.93394811     -12.96284818      -0.00071062       0.00054052       0.00050048       0.06539269
H       -0.50746587       2.01007287       0.72614998     -13.24105969      -0.00004036       0.00020414       0.00042081       0.03617275
H       -1.55951078      -2.28008775       0.57355528     -11.40308125       0.00328091      -0.00021686       0.00158023       0.31871724
H        1.58603670       1.81048950       0.02304934     -11.27344522      -0.00028563       0.00046167      -0.00057892       0.32462597
H       -5.23326828       3.48573317       0.06478540     -11.56484766       0.00055491       0.00015736       0.00036073       0.29363682
O        1.96045741      -2.52306905      -1.45040562    -112.56251338      -0.00005229      -0.00096521       0.00118932      -0.37143153
O        0.58201485      -3.25308006       0.15063577    -112.33194928      -0.00139457       0.00103187       0.00071356      -0.41732908
O        4.99428172      -2.07412535       0.71105895    -112.31127467      -0.00051155      -0.00088128       0.00019944      -0.42493794
N        0.59353442      -0.52293579       1.11782304     -81.23010571       0.00011184       0.00075765      -0.00000198      -0.30485634
N        4.46332766       0.09354448       1.03094629     -80.95631540       0.00049846      -0.00068225      -0.00036937      -0.27971489
C        1.74508808      -1.15535896       0.47395016     -58.84330817      -0.00009674       0.00030298       0.00013551       0.03022932
C        2.78929801      -1.54640192       1.53979057     -59.31176930      -0.00013611       0.00026787       0.00012487      -0.10479052
C        1.33893521      -2.42193782      -0.27757280     -58.87917411      -0.00058294       0.00021926       0.00059526       0.36253437
C        4.20054389      -1.22825855       1.05176430     -59.19104940      -0.00007994      -0.00048777      -0.00002743       0.28517768
H        2.17981900      -0.45416574      -0.24494611     -12.91178607       0.00004118      -0.00001119      -0.00008439       0.07291582
H        2.59660230      -0.98776010       2.45571820     -12.96039704       0.00022593       0.00057649      -0.00008391       0.07216093
H        2.72203470      -2.61153406       1.76363755     -13.04461632      -0.00051486       0.00044190       0.00043339       0.07306473
H        0.18192036      -1.21384852       1.74889503     -12.21088998       0.00024539       0.00125394       0.00058655       0.18851721
H        1.48290047       0.91218305       1.85325262     -11.49110119       0.00059272       0.00074683      -0.00056137       0.31361015
H        3.78792560       0.77815501       1.33834150     -12.02001890       0.00079210      -0.00032036      -0.00066553       0.21539371
H        5.36385527       0.40436023       0.70790263     -12.24067372       0.00057715      -0.00119024      -0.00051864       0.19124191
H        1.74788505      -3.36422025      -1.88503929     -10.96603733      -0.00053689      -0.00101498       0.00155063       0.33567832
O        2.09637829       1.67596685       1.89529884    -114.98491260       0.00090482       0.00048626      -0.00075131      -0.60593159
H        1.82209713       2.22489126       2.63158903     -11.82647508       0.00170013       0.00030736      -0.00038079       0.28487411
H        0.13928258      -0.37989686      -1.62850451     -11.25940448       0.00018843       0.00172174      -0.00019224       0.32428826
44
Properties=species:S:1:pos:R:3:energies:R:1:forces:R:3:charge:R:1 charge=0 multiplicity=1 source=products.log spin=1 energy=-2153.7209469492686 free_energy=-2153.7209469492686 dipole="-0.23692133183853367 1.0232043353429081 -0.015405983986568082" pbc="F F F"
O       -3.21836041      -0.52214057      -1.05171688    -113.21701804      -0.00007233      -0.00255579       0.00110074      -0.46500366
O       -3.06605495       1.98736014       1.56043052    -113.36958326       0.00063535       0.00109496      -0.00236525      -0.46532260
O       -1.80879198      -1.78357931       1.38113869    -112.93994129       0.00141931       0.00090353       0.00128209      -0.43494942
O       -5.40138655       2.92949050       0.39602861    -113.06050542      -0.00087947      -0.00132462      -0.00101186      -0.43842741
O       -0.50903624      -0.75739694      -0.99970902    -113.39516439       0.00042957       0.00224377      -0.00019381      -0.46902488
O        0.95881824       1.73320811      -0.44919995    -113.29880758      -0.00023987       0.00066954      -0.00146369      -0.46076516
C       -3.14935178      -0.09434707       0.28455946     -59.20291361       0.00022763      -0.00066479       0.00047526       0.08717249
C       -3.52214858       1.40460086       0.36190791     -59.06592891      -0.00032397      -0.00068083      -0.00113542       0.08645470
C       -1.82813182      -0.43082433       1.00582370     -59.18641856       0.00056694       0.00066487       0.00047397       0.08163870
C       -5.04381225       1.57377506       0.24996938     -59.23977463      -0.00052137      -0.00138629       0.00024695       0.06007766
C       -0.50722268      -0.09304119       0.25920508     -58.80646673       0.00035143       0.00121554       0.00027480       0.17853585
C       -0.33239326       1.42101812       0.00507419     -59.31258405       0.00037329       0.00132201       0.00107511       0.05209869
H       -3.91767663      -0.65335912       0.83984195     -12.89627791       0.00061106      -0.00033395       0.00133419       0.05702695
H       -3.06148842       1.92512568      -0.49485014     -13.22031829      -0.00142738      -0.00161967      -0.00233676       0.02326823
H       -1.82861234       0.13187996       1.94507374     -12.83672719       0.00029877       0.00121751       0.00014882       0.07225742
H       -5.39398893       1.15266264      -0.69744935     -13.18798602      -0.00138698      -0.00265844       0.00112581       0.04328332
H       -5.53002707       1.05138260       1.07720820     -12.99816460       0.00055202      -0.00056387       0.00141540       0.06194755
H       -2.31468389      -0.67630188      -1.37088747     -11.37740943       0.00006917      -0.00014859       0.00024854       0.32291600
H       -3.72005133       2.66165653       1.80143272     -11.25710304       0.00071059       0.00133752      -0.00275753       0.32065726
H       -1.01130172       1.70858112      -0.80104621     -13.05453956      -0.00111710       0.00225728       0.00262989       0.05337287
H       -0.60233926       1.97865511       0.90558085     -13.16938088       0.00248806       0.00090367       0.00200510       0.04468060
H       -1.70895349      -2.33442096       0.59144227     -11.36577352       0.00162955       0.00040506       0.00160117       0.32037175
H        1.54011648       1.82595753       0.32483302     -11.26327867       0.00134026       0.00041630      -0.00259024       0.32587467
H       -5.10539497       3.41918083      -0.37976257     -11.56514386      -0.00193107      -0.00214778      -0.00194714       0.29333818
O        1.93792530      -2.38175708      -1.57442111    -112.57813672      -0.00203875      -0.00018465      -0.00098955      -0.37312009
O        0.64902516      -3.26017998       0.02722272    -112.26377524      -0.00335028       0.00131000      -0.00126940      -0.41093188
O        4.98335460      -1.98228278       0.49289937    -112.30560493       0.00120236       0.00143903       0.00089096      -0.42407490
N        0.57114719      -0.58190141       1.13088441     -81.20074377       0.00069855       0.00089282      -0.00018855      -0.30354676
N        4.43644806       0.15115087       0.97640878     -80.93704135      -0.00124147       0.00035341       0.00377082      -0.27716957
C        1.73045173      -1.13504062       0.43231254     -58.84770557      -0.00015659      -0.00041303      -0.00064161       0.02967779
C        2.81193737      -1.54353390       1.45410321     -59.32070254      -0.00053071      -0.00215843      -0.00087925      -0.10585224
C        1.35633572      -2.37620907      -0.37581705     -58.88196149      -0.00211213       0.00032747      -0.00099800       0.36117218
C        4.19557322      -1.17482717       0.92719711     -59.18567613      -0.00004585       0.00006431       0.00121075       0.28542128
H        2.12657550      -0.37983410      -0.25344137     -12.91282184       0.00071494      -0.00074670      -0.00053410       0.07324266
H        2.63833490      -1.02075414       2.39416838     -12.93913293      -0.00169677      -0.00459803       0.00046875       0.07440519
H        2.77145225      -2.61699402       1.64054980     -13.04396608       0.00011160      -0.00277750      -0.00351393       0.07327639
H        0.17592323      -1.33055710       1.70568940     -12.18702321       0.00048484       0.00141471       0.00039473       0.19195105
H        1.41716991       0.79320060       2.03537621     -11.49247130       0.00260209       0.00043318      -0.00201465       0.31349582
H        3.77453838       0.79735321       1.37787334     -12.03286925      -0.00238967      -0.00072895       0.00396648       0.21311285
H        5.31710713       0.49891567       0.63653929     -12.23188744      -0.00098151       0.00163019       0.00540070       0.19185952
H        1.75115725      -3.20856446      -2.04683817     -10.96921914      -0.00353910       0.00033073      -0.00133669       0.33576615
O        2.01205454       1.56371597       2.15199725    -114.98479638       0.00333823       0.00002900      -0.00237059      -0.60635216
H        1.66542029       2.08636259       2.87689563     -11.82724634       0.00508884      -0.00043245      -0.00110434       0.28502623
H        0.12908442      -0.30621974      -1.57012646     -11.29095585       0.00003792       0.00324790       0.00010134       0.32116074
44
Properties=species:S:1:pos:R:3:energies:R:1:forces:R:3:charge:R:1 charge=0 multiplicity=1 source=products.log spin=1 energy=-2153.6977002996555 free_energy=-2153.6977002996555 dipole="-0.14646319726981075 1.054550175637837 -0.1936536431151617" pbc="F F F"
O       -3.27748377      -0.65535436      -0.93591582    -113.20246921       0.00016504      -0.00120629       0.00062347      -0.46204591
O       -3.08173402       2.02499806       1.51142237    -113.36461182      -0.00074370       0.00018166      -0.00078759      -0.46488946
O       -1.82108113      -1.79870305       1.41950087    -112.93029759       0.00071524       0.00043695       0.00057600      -0.43341481
O       -5.35269000       2.95731544       0.21126473    -113.06051641      -0.00110317      -0.00125407      -0.00140132      -0.43838245
O       -0.56183718      -0.74061071      -0.96174582    -113.40334191       0.00023548       0.00154802       0.00018125      -0.47216729
O        0.98521448       1.79710630      -0.15995749    -113.30331595      -0.00031853       0.00110869       0.00044702      -0.46304014
C       -3.17414346      -0.11550275       0.35556233     -59.21151883      -0.00000405      -0.00040776       0.00029713       0.08759040
C       -3.51149274       1.39098613       0.32905474     -59.07397905      -0.00053687      -0.00054522      -0.00046702       0.08595740
C       -1.84415764      -0.44056047       1.06523751     -59.16608041       0.00012864       0.00038488       0.00040729       0.08294274
C       -5.02440462       1.58751523       0.15810480     -59.23689130      -0.00061653      -0.00117302      -0.00052829       0.06024192
C       -0.52860495      -0.09237124       0.30756580     -58.82083504       0.00003515       0.00095195       0.00047124       0.17738194
C       -0.34565861       1.43092568       0.09040238     -59.32293217      -0.00019667       0.00105658       0.00107139       0.05180061
H       -3.94410544      -0.61363042       0.96250207     -12.88405389       0.00018331      -0.00038188       0.00055027       0.05912721
H       -3.00917079       1.85244567      -0.53811225     -13.24335330      -0.00071697      -0.00079447      -0.00071432       0.02135906
H       -1.83651944       0.11132416       2.01014901     -12.86816964      -0.00018379       0.00050795       0.00033753       0.06950630
H       -5.35691893       1.11723059      -0.77239594     -13.18900505      -0.00050682      -0.00188403      -0.00020934       0.04321312
H       -5.54770313       1.12746062       0.99958901     -12.99427806      -0.00040897      -0.00082016      -0.00020209       0.06230883
H       -2.38439722      -0.71727879      -1.31153327     -11.38280359       0.00010131      -0.00022665       0.00030445       0.32192476
H       -3.71809578       2.73530689       1.68725261     -11.25695253      -0.00086366       0.00019091      -0.00125309       0.32067055
H       -0.90795088       1.71474366      -0.80322428     -13.09621525      -0.00069032       0.00145475       0.00151269       0.04883367
H       -0.75814784       1.96952018       0.94791321     -13.13948004       0.00025168       0.00068884       0.00151558       0.04730422
H       -1.82310810      -2.33118810       0.61155602     -11.36112068       0.00080733       0.00032268       0.00064021       0.31954283
H        1.44538198       1.85666004       0.69739459     -11.26636699       0.00017163       0.00086803       0.00020299       0.32747101
H       -5.02322592       3.39240279      -0.58330949     -11.56644694      -0.00132074      -0.00165726      -0.00171431       0.29314186
O        2.03136963      -2.23589846      -1.59013011    -112.61360116      -0.00019806       0.00157721      -0.00041739      -0.37642344
O        0.84395080      -3.24726624       0.01290612    -112.18070682      -0.00071783       0.00128999      -0.00097745      -0.40350576
O        4.81347544      -2.25809382       0.32771861    -112.28402449      -0.00167939      -0.00270646      -0.00051477      -0.42087929
N        0.54902278      -0.60611474       1.15706468     -81.12263322       0.00018626       0.00086254       0.00026379      -0.29777192
N        4.64720914      -0.03000673       0.61468382     -80.86460263       0.00158520      -0.00251936      -0.00015401      -0.27008662
C        1.74436757      -1.04697150       0.44411553     -58.85350682       0.00003320       0.00078212       0.00007451       0.02993702
C        2.85942813      -1.38743980       1.45016117     -59.37423940      -0.00019786      -0.00011460       0.00000930      -0.10919372
C        1.47209201      -2.30325563      -0.38130910     -58.88783230      -0.00035341       0.00124026      -0.00051090       0.35990458
C        4.20812974      -1.30080265       0.74812324     -59.16729907      -0.00022636      -0.00190732      -0.00024830       0.28670372
H        2.07720850      -0.24608171      -0.22299946     -12.91837048       0.00036791       0.00096272       0.00045293       0.07356521
H        2.83250614      -0.67516030       2.27354341     -12.88328289       0.00069244       0.00017173      -0.00020953       0.08154947
H        2.71143752      -2.39547649       1.83884513     -13.02096561      -0.00129270       0.00015566       0.00029923       0.07564753
H        0.17778325      -1.40924693       1.67105472     -12.19821298       0.00020894       0.00085804       0.00028162       0.19216423
H        1.19742031       0.72132738       2.29947460     -11.55603034       0.00079912       0.00059659       0.00012279       0.31003619
H        4.13437208       0.74923067       0.98870459     -12.14493860       0.00271763      -0.00181503      -0.00007920       0.19722879
H        5.51885073       0.14180701       0.14262050     -12.18908177       0.00172430      -0.00370484      -0.00032791       0.19476481
H        1.92437003      -3.07451463      -2.06664875     -10.97028051      -0.00043163       0.00181663      -0.00078494       0.33653321
O        1.70634649       1.52816187       2.51834322    -114.89113044       0.00096768       0.00049345       0.00013821      -0.60498459
H        1.20851735       2.00535860       3.18417748     -11.86342519       0.00120917       0.00043785       0.00036186       0.28341850
H        0.11291980      -0.33913070      -1.52432509     -11.36849992       0.00002134       0.00217174       0.00035907       0.31501370
44
Properties=species:S:1:pos:R:3:energies:R:1:forces:R:3:charge:R:1 charge=0 multiplicity=1 source=products.log spin=1 energy=-2153.707363446446 free_energy=-2153.707363446446 dipole="-0.1993471988013097 0.9969894864358912 -0.4548234600787789" pbc="F F F"
O       -3.34744282      -0.81435277      -0.71716218    -113.19897477       0.00011726      -0.00120778       0.00133066      -0.45883763
O       -3.09573932       2.11232627       1.43790193    -113.34515205      -0.00094553       0.00033363      -0.00074524      -0.46345152
O       -1.82256009      -1.76894077       1.53833002    -112.93966637       0.00059369       0.00056941       0.00096636      -0.43336949
O       -5.24751616       2.98954552      -0.07803168    -113.06200176      -0.00060130      -0.00124701      -0.00219670      -0.43811294
O       -0.65554944      -0.67936266      -0.91619673    -113.41561877      -0.00020013       0.00164619       0.00037250      -0.47563334
O        1.04749668       1.82451072       0.20912906    -113.30667823      -0.00022251       0.00104657       0.00141752      -0.46374132
C       -3.18447594      -0.10996522       0.48445356     -59.20742865      -0.00001376      -0.00021634       0.00070518       0.08881348
C       -3.46847248       1.39060897       0.28707548     -59.08863236      -0.00033177      -0.00048163      -0.00040860       0.08608846
C       -1.83768212      -0.41387732       1.17289838     -59.13671332       0.00011735       0.00051178       0.00077235       0.08419401
C       -4.96075118       1.61190047       0.00099162     -59.23115628      -0.00027585      -0.00109461      -0.00110326       0.06061756
C       -0.53781666      -0.08035851       0.37380170     -58.83976835      -0.00004091       0.00095816       0.00066034       0.17594587
C       -0.30369982       1.45058014       0.21895943     -59.33072271      -0.00014286       0.00104537       0.00135737       0.05041147
H       -3.94963001      -0.50204802       1.16858180     -12.87483052       0.00011422       0.00013702       0.00099977       0.06120616
H       -2.89320317       1.75603274      -0.58088615     -13.27504191      -0.00010283      -0.00089448      -0.00040398       0.01880284
H       -1.80286535       0.15122550       2.10867680     -12.91211034      -0.00007554       0.00068134       0.00067354       0.06511604
H       -5.25072705       1.07505133      -0.90745419     -13.19238223       0.00016956      -0.00181444      -0.00080684       0.04280945
H       -5.55005538       1.23699465       0.84099445     -12.98632921      -0.00046689      -0.00064983      -0.00106434       0.06310385
H       -2.49934902      -0.80038204      -1.18932758     -11.37592156      -0.00017656      -0.00066787       0.00088133       0.32181250
H       -3.71290252       2.85711033       1.50770450     -11.25392461      -0.00105857       0.00027852      -0.00152358       0.32094963
H       -0.70710334       1.76057866      -0.74948948     -13.12744822      -0.00018214       0.00147736       0.00157170       0.04574046
H       -0.84905171       1.97712232       1.00711138     -13.11051863      -0.00011881       0.00070668       0.00155133       0.04998352
H       -1.98711156      -2.29738408       0.74417633     -11.34510681       0.00018052       0.00045245       0.00117792       0.31986338
H        1.36919216       1.79848150       1.13006937     -11.26353849      -0.00009847       0.00058272       0.00129781       0.32918071
H       -4.85430352       3.34983330      -0.88098178     -11.56613065      -0.00040205      -0.00172555      -0.00229188       0.29287339
O        2.11888191      -2.20294102      -1.61113743    -112.65666374       0.00027295       0.00163192      -0.00049509      -0.37967786
O        0.96030983      -3.25107353      -0.00972649    -112.12524764      -0.00061899       0.00133842      -0.00130076      -0.39765811
O        4.79698110      -2.29297548       0.26656907    -112.29222519      -0.00176065      -0.00240979      -0.00065416      -0.42210425
N        0.54710603      -0.66323351       1.15647464     -81.04016858       0.00014599       0.00067684       0.00016432      -0.29197569
N        4.66111796      -0.04684307       0.22921996     -80.85340671       0.00126793      -0.00232285      -0.00099283      -0.26947765
C        1.74736399      -1.00607925       0.40445930     -58.86864700      -0.00001340       0.00092309      -0.00014391       0.02985507
C        2.92256249      -1.24569983       1.36996078     -59.38861791      -0.00001514       0.00025882      -0.00033441      -0.11035052
C        1.55098242      -2.28489198      -0.40578797     -58.89120869      -0.00017149       0.00134096      -0.00073745       0.35716253
C        4.22207973      -1.27648476       0.57742289     -59.16855140      -0.00029032      -0.00159352      -0.00065029       0.28687987
H        1.99687712      -0.18259948      -0.27098209     -12.91825977       0.00006814       0.00120982       0.00025075       0.07336632
H        2.95256119      -0.43937951       2.10202137     -12.85522903       0.00093502       0.00056776      -0.00075956       0.08577911
H        2.78767226      -2.19890473       1.88212831     -13.00748363      -0.00087412       0.00066206       0.00013086       0.07666840
H        0.19216991      -1.51405126       1.60063351     -12.20679995       0.00021874       0.00053132      -0.00007473       0.19287014
H        1.00723475       0.49113038       2.57332303     -11.58716441       0.00058675      -0.00029491       0.00060580       0.30871432
H        4.16435875       0.78822468       0.48468944     -12.17472437       0.00249444      -0.00162848      -0.00100292       0.19405545
H        5.49710581       0.03546582      -0.32447536     -12.18452239       0.00119512      -0.00362076      -0.00124953       0.19503796
H        2.06972988      -3.05504925      -2.07328800     -10.96360635       0.00027735       0.00180710      -0.00080076       0.33707678
O        1.40755503       1.31191069       2.92107906    -114.81800677       0.00038266      -0.00044694       0.00105591      -0.60172930
H        0.80463253       1.66859047       3.57540863     -11.86613589       0.00041395      -0.00109419       0.00136893       0.28384901
H        0.06277944      -0.35917969      -1.47491670     -11.45489724      -0.00035103       0.00203566       0.00042858       0.30729189
44
Properties=species:S:1:pos:R:3:energies:R:1:forces:R:3:charge:R:1 charge=0 multiplicity=1 source=products.log spin=1 energy=-2153.7171716187704 free_energy=-2153.7171716187704 dipole="-0.4210855552109894 0.8489357022920854 -0.5924393233770574" pbc="F F F"
O       -3.43675998      -0.94903378      -0.37721149    -113.21574463      -0.00029657      -0.00086883       0.00302587      -0.45653812
O       -3.03658220       2.26971940       1.28785424    -113.31942293      -0.00013613       0.00106225      -0.00159057      -0.46182487
O       -1.83560945      -1.67455404       1.76579650    -112.99092064       0.00044380       0.00134668       0.00227810      -0.43689264
O       -5.05929421       3.01303443      -0.43782503    -113.06611632       0.00064633      -0.00135615      -0.00336136      -0.43768875
O       -0.81417476      -0.62477381      -0.85379766    -113.44203663      -0.00119776       0.00139978       0.00070236      -0.47998115
O        1.15462454       1.73784782       0.54610222    -113.33039166       0.00025008       0.00003512       0.00244893      -0.46522897
C       -3.17869929      -0.05051973       0.66798281     -59.18281593       0.00010790       0.00048971       0.00151150       0.09058927
C       -3.37719775       1.40730414       0.22783420     -59.10860215       0.00029760      -0.00029734      -0.00051487       0.08664411
C       -1.81317145      -0.34153404       1.32717748     -59.10217700       0.00028877       0.00103818       0.00140729       0.08525543
C       -4.83954826       1.64573538      -0.17750597     -59.22457103       0.00049767      -0.00091566      -0.00147192       0.06108857
C       -0.54508145      -0.09046526       0.44401702     -58.86193548      -0.00011823       0.00063431       0.00073794       0.17492686
C       -0.19437997       1.42859228       0.32470262     -59.33106027       0.00054714       0.00048826       0.00106144       0.04906320
H       -3.93056271      -0.26982495       1.43735319     -12.88136979       0.00031411       0.00177528       0.00188378       0.06174143
H       -2.73181007       1.61605428      -0.64300129     -13.28467195       0.00067450      -0.00148034      -0.00038907       0.01876766
H       -1.71872299       0.27931447       2.22218488     -12.95412739       0.00052915       0.00166075       0.00091356       0.06036252
H       -5.10240424       1.01405390      -1.03157191     -13.20155798       0.00082836      -0.00201033      -0.00070839       0.04167101
H       -5.49246634       1.39771367       0.66246542     -12.97736074       0.00014914       0.00020038      -0.00150503       0.06399420
H       -2.66384467      -0.94390528      -0.96429599     -11.35339238      -0.00087956      -0.00127244       0.00238101       0.32293092
H       -3.62324399       3.03906072       1.21918338     -11.24947682      -0.00004480       0.00090947      -0.00289761       0.32135823
H       -0.40997146       1.75044475      -0.69889853     -13.14187129       0.00178032       0.00045362       0.00093108       0.04439887
H       -0.83415547       1.99770754       1.00522671     -13.09598981       0.00007948       0.00080934       0.00023600       0.05141850
H       -2.21495956      -2.20938523       1.05169020     -11.32209271      -0.00067810       0.00119718       0.00324078       0.32078468
H        1.33653824       1.61823614       1.49776003     -11.26714876      -0.00056966      -0.00059737       0.00239935       0.33009264
H       -4.60200996       3.25967499      -1.24975143     -11.56116646       0.00102227      -0.00244427      -0.00339924       0.29287124
O        2.14177246      -2.26061398      -1.68031042    -112.65828492       0.00026823       0.00142384      -0.00108286      -0.37932824
O        1.01054537      -3.33372443      -0.07598762    -112.13827051      -0.00034811       0.00076635      -0.00198849      -0.39792014
O        4.95599799      -1.95864129       0.11559389    -112.29955106      -0.00089956      -0.00007294      -0.00173547      -0.42331211
N        0.53528753      -0.78422821       1.12013356     -80.94908202      -0.00012392      -0.00012897      -0.00028987      -0.28548777
N        4.44246609       0.23316725       0.04607160     -80.86464369      -0.00004032      -0.00008781      -0.00058395      -0.27074678
C        1.71838625      -1.06013469       0.32041879     -58.89070295      -0.00028482       0.00047446      -0.00065543       0.02967709
C        2.94945564      -1.21621418       1.23560586     -59.37108006      -0.00015695       0.00009757      -0.00092327      -0.11076952
C        1.57128101      -2.35128123      -0.47674365     -58.89771308      -0.00017027       0.00085411      -0.00131645       0.35397947
C        4.22199737      -1.04685710       0.41745633     -59.17710075      -0.00039088      -0.00002972      -0.00112074       0.28667950
H        1.89458678      -0.22884907      -0.36725360     -12.91014766      -0.00045563       0.00084395      -0.00021670       0.07266377
H        2.91012875      -0.44940332       2.00878207     -12.80184946       0.00012229      -0.00008383      -0.00077040       0.09074189
H        2.94444196      -2.20099354       1.70329960     -13.02609818      -0.00026799       0.00006681      -0.00115053       0.07511600
H        0.17496486      -1.66183684       1.50083427     -12.22864716      -0.00012353      -0.00032474      -0.00082583       0.19202715
H        0.89095901       0.15070449       2.76550586     -11.58524261      -0.00022334      -0.00206045       0.00092820       0.30927585
H        3.80765816       0.97388848       0.29045802     -12.13726454       0.00042526      -0.00004821       0.00008199       0.19930783
H        5.24625499       0.44674630      -0.51992642     -12.20190955      -0.00013665      -0.00013915      -0.00061732       0.19393048
H        2.13236020      -3.11868749      -2.13416205     -10.95349257       0.00051166       0.00162124      -0.00144734       0.33706654
O        1.23836326       0.94689569       3.20809062    -114.78605067      -0.00056951      -0.00238888       0.00164694      -0.59873003
H        0.60645939       1.19994214       3.88308956     -11.85031992      -0.00034594      -0.00371392       0.00228508       0.28516821
H       -0.06113727      -0.44920997      -1.43002589     -11.52369954      -0.00132581       0.00067270       0.00046152       0.30085596
44
Properties=species:S:1:pos:R:3:energies:R:1:forces:R:3:charge:R:1 charge=0 multiplicity=1 source=products.log spin=1 energy=-2153.75739791525 free_energy=-2153.75739791525 dipole="-0.6625306853902251 0.5434121045773745 -0.6254442798883042" pbc="F F F"
O       -3.45360486      -1.01012501       0.06195112    -113.23616988      -0.00478400      -0.00174847       0.00531570      -0.45568249
O       -2.93899147       2.46955512       1.02630088    -113.29859623       0.00565846       0.00309685      -0.00281370      -0.46110189
O       -1.73154269      -1.38323685       2.12707981    -113.10403839      -0.00139435      -0.00457279       0.00668965      -0.44436126
O       -4.94540981       2.88918718      -0.81847535    -113.06956907       0.00247515       0.00433415      -0.00431840      -0.43779364
O       -0.98430149      -0.47591729      -0.80433732    -113.47962145      -0.00275110      -0.00201975       0.00253525      -0.48452999
O        1.29927189       1.62165055       0.88719905    -113.31721070      -0.00415621      -0.00736606       0.03445183      -0.45898868
C       -3.11026954       0.08199295       0.87272528     -59.14487050      -0.00042143       0.00039283       0.00343845       0.09273426
C       -3.28224269       1.42268960       0.14863595     -59.12740830       0.00257984       0.00060942      -0.00039146       0.08634361
C       -1.71084654      -0.13303586       1.48802245     -59.07575012       0.00078905      -0.00338313       0.00466339       0.08422387
C       -4.73761366       1.59095315      -0.31287132     -59.22489048       0.00124060       0.00255095      -0.00153750       0.06143194
C       -0.51529306      -0.03785494       0.47746961     -58.88534928      -0.00012702      -0.00520270       0.00328572       0.17578684
C        0.01489651       1.42875043       0.35921868     -59.31690124       0.00293942      -0.00669004       0.00674712       0.04969187
H       -3.81891300       0.05992276       1.71011164     -12.90443340      -0.00064290       0.00410253       0.00332162       0.06040546
H       -2.62028944       1.44887914      -0.73389227     -13.24379046       0.00264080      -0.00284051      -0.00046771       0.02438597
H       -1.54687815       0.61910033       2.26388726     -12.92669948       0.00444207      -0.00202906       0.00464629       0.06268917
H       -4.99446111       0.81738994      -1.04333456     -13.21164065      -0.00155513       0.00051485      -0.00108155       0.04023971
H       -5.40362132       1.49961581       0.54829736     -12.97989378       0.00180858       0.00481770      -0.00062041       0.06376706
H       -2.77262915      -1.07791923      -0.62621198     -11.34500219      -0.00635916      -0.00278418       0.00385144       0.32290541
H       -3.52890861       3.21099276       0.81974704     -11.26323355       0.00540429       0.00368962      -0.00368530       0.32065067
H        0.07898436       1.69721501      -0.70048951     -13.15492362       0.02397659      -0.01248629       0.00335358       0.04326871
H       -0.70088148       2.10764292       0.83432812     -13.08458957      -0.00956252      -0.00179063      -0.00970831       0.05242645
H       -2.26519225      -1.97398291       1.57111861     -11.31041365      -0.01352863      -0.00316519       0.01142299       0.32075814
H        1.28212458       1.37967739       1.83165771     -11.26397122      -0.02024652      -0.02184733       0.03259444       0.33065495
H       -4.46549381       2.98590299      -1.64882196     -11.56093401       0.00028766       0.00159526      -0.00610525       0.29283715
O        2.14608646      -2.36731440      -1.80303175    -112.62072054       0.00180700      -0.00120195      -0.00160115      -0.37542828
O        0.90375272      -3.38365721      -0.24523688    -112.21423162      -0.00102215       0.00111503      -0.00088886      -0.40373289
O        5.09684761      -1.48152303      -0.02168911    -112.32543257       0.00374763       0.00774101      -0.00830706      -0.42728289
N        0.52574279      -0.87764698       1.00760183     -80.78439252       0.00066505      -0.00657766       0.00064406      -0.27558511
N        4.12104171       0.55165128       0.04391002     -80.90786664      -0.00166308       0.00546681      -0.00056427      -0.27581468
C        1.67620777      -1.13440395       0.16464705     -58.93627869       0.00245466      -0.00035240      -0.00101968       0.02929324
C        2.94034793      -1.27160410       1.04317820     -59.31706248       0.00471475       0.00001346      -0.00165741      -0.10959573
C        1.51853334      -2.42493468      -0.62799196     -58.90597764       0.00189675       0.00019969      -0.00185171       0.35106660
C        4.17343935      -0.77095074       0.30329886     -59.19554683       0.00271036       0.00491651      -0.00317393       0.28619229
H        1.82066622      -0.30708080      -0.53388504     -12.93604528       0.00043743       0.00313039       0.00235043       0.06833391
H        2.79833678      -0.66233492       1.93585160     -12.75429481       0.00498597      -0.00162016      -0.00013897       0.09441865
H        3.08987475      -2.30890832       1.34279446     -13.07267901       0.00753149      -0.00100203      -0.00368140       0.07044823
H        0.13679426      -1.75644248       1.34529992     -12.27950226      -0.01361234      -0.03046091      -0.02431286       0.18640996
H        0.74626442      -0.33203830       2.99481888     -11.59395432      -0.00467388       0.00987909      -0.07222178       0.30919902
H        3.33979051       1.11745384       0.34098054     -12.05145285      -0.00038912       0.00370335       0.01140095       0.21255208
H        4.89238262       0.98604277      -0.43352862     -12.24478768      -0.00238007       0.00964713       0.00105888       0.19108884
H        2.12942077      -3.22723924      -2.25331297     -10.93939941      -0.00107192      -0.00156952      -0.00137201       0.33676135
O        1.02372368       0.45836543       3.47967001    -114.75670916       0.00027063       0.02394525      -0.01958260      -0.59447677
H        0.38838246       0.58029945       4.18721059     -11.81829914       0.00804135       0.02765919       0.02731128       0.28771037
H       -0.24678699      -0.47561279      -1.42549994     -11.57286325      -0.00316406      -0.00241028       0.00202022       0.29569856
44
Properties=species:S:1:pos:R:3:energies:R:1:forces:R:3:charge:R:1 charge=0 multiplicity=1 source=products.log spin=1 energy=-2153.094384029039 free_energy=-2153.094384029039 dipole="-0.3655408252681192 0.6421175169652189 -0.43132092687758794" pbc="F F F"
O       -3.10573580      -1.05310086       0.30957595    -113.18366163      -0.02723702      -0.00019458      -0.01986896      -0.45256302
O       -3.22084161       2.56828501       0.74015603    -113.28589229      -0.00338396       0.01107439      -0.00969031      -0.46147025
O       -1.37416100      -0.71019612       2.38967498    -113.21544450      -0.07805240      -0.04637309       0.04684231      -0.44685641
O       -5.29736066       2.27468317      -1.15836894    -113.06053375      -0.01827721       0.02199071      -0.01637485      -0.43948523
O       -0.94487160       0.02228232      -0.84794902    -113.33920090      -0.00251742      -0.09938331       0.05439032      -0.46983528
O        1.60100983       1.86847181       0.33637044    -113.24945059      -0.00344682       0.00181647       0.03485795      -0.44624704
C       -2.97383986       0.19718082       0.92668297     -59.13399957      -0.02945404       0.00007716      -0.00770329       0.09574631
C       -3.39850156       1.36318720       0.03079501     -59.14727984      -0.01492577       0.00958845      -0.01070075       0.08335133
C       -1.55826871       0.36131545       1.49803004     -59.02287964      -0.04154760      -0.01834755       0.02941908       0.08134777
C       -4.86335599       1.18517830      -0.37905211     -59.24613421      -0.01871683       0.01868900      -0.01273225       0.06061043
C       -0.41232959       0.39592759       0.42138504     -59.05629894      -0.00975245      -0.01472707       0.06140173       0.17639857
C        0.19395983       1.84018737       0.29069805     -59.11425738      -0.05446095       0.03256123      -0.00178244       0.04536460
H       -3.64434716       0.17454547       1.79437057     -12.88913760      -0.05043540      -0.00788214      -0.02124198       0.06125686
H       -2.77174733       1.37617987      -0.87511477     -13.16892009      -0.01008782       0.00481040      -0.00844392       0.03234708
H       -1.52186430       1.27595374       2.09062517     -12.95258058      -0.02879134      -0.02102293       0.05307254       0.06364537
H       -4.98377326       0.22941013      -0.90062884     -13.19361509      -0.02442274       0.01542250      -0.01063311       0.04133308
H       -5.49283408       1.18294656       0.51361876     -13.00148669      -0.01708018       0.02208192      -0.01119036       0.06207667
H       -2.44361576      -1.09465726      -0.39868749     -11.35013338      -0.01777589       0.00827578      -0.01089246       0.32247331
H       -3.89735795       3.18146425       0.41848401     -11.30835781      -0.00769558       0.01253654      -0.00183808       0.31718812
H       -0.08345159       2.27147711      -0.66960661     -13.03677535      -0.07987290      -0.00443335      -0.11186977       0.05811442
H       -0.21309374       2.47365260       1.07776637     -13.22049441      -0.09684434       0.13900366       0.01594636       0.03748709
H       -1.58450127      -1.51020256       1.87585062     -11.14368408      -0.09939492      -0.00288588       0.16711331       0.33162071
H        1.85330298       1.74584710       1.25518286     -11.38421725       0.07301033      -0.07604930       0.18729728       0.30650160
H       -4.81525232       2.26704204      -1.99308589     -11.58528247      -0.02222264       0.01423854      -0.01844725       0.29154436
O        1.95579792      -2.23112581      -1.98263879    -112.66946743      -0.03093570       0.02024090       0.07100705      -0.38337170
O        0.46819565      -3.14167352      -0.58373778    -112.12055988      -0.04753475       0.04731234       0.07266476      -0.39373142
O        5.04556189      -1.81477889       0.18710029    -112.28749168       0.05437402      -0.00223705      -0.02852584      -0.42361102
N        0.55922599      -0.53803545       0.87033464     -80.34509629       0.02325907      -0.01727505       0.12488130      -0.27062680
N        4.23946718       0.28743220       0.11339458     -80.94204578       0.04368026      -0.00222997      -0.01158421      -0.28005262
C        1.59334284      -1.04142758       0.01705633     -59.06511671       0.02219029       0.01251920       0.08934614       0.02979306
C        2.78037798      -1.45077272       0.90395254     -59.30781430       0.06023232      -0.01335009       0.03790602      -0.10500447
C        1.23703325      -2.26089280      -0.84927130     -58.83760526      -0.02309526       0.02751985       0.07891319       0.34749313
C        4.13328789      -1.03864072       0.34951071     -59.17634915       0.04970098      -0.00596217      -0.00770669       0.28746212
H        1.89470469      -0.26601113      -0.70142649     -12.91624652       0.00807522       0.01285984       0.07801067       0.06365875
H        2.64734683      -0.95596147       1.86782732     -12.82457048       0.10005021      -0.04173177       0.06285601       0.08496978
H        2.77314284      -2.52734042       1.07256919     -13.02619059       0.06915761      -0.02002333       0.01468547       0.07388459
H        0.47285370      -0.80898190       1.85550716     -12.21163930       0.29020844      -0.08162583      -0.90914880       0.19535997
H        0.68710006      -1.16670360       5.15640396     -11.95376347      -0.02543218       0.00179138      -0.01055661       0.27899056
H        3.44719189       0.90750457       0.15183706     -12.10856041       0.03629330      -0.00667179      -0.02203658       0.20497289
H        5.10333356       0.63948510      -0.26107486     -12.23313444       0.03639945      -0.00420816      -0.04420551       0.19176775
H        1.85221997      -3.04835694      -2.49722055     -10.99890405      -0.06038091       0.02899608       0.06196347       0.33295484
O        0.76845633      -0.65704953       4.34904665    -114.56588836       0.06496576       0.01706470      -0.08864421      -0.59311705
H       -0.09757777      -0.66417844       3.92316906     -11.74611134      -0.04765670       0.01481747      -0.00790076       0.30315552
H       -0.23948788       0.04161468      -1.50471092     -11.46811056       0.05983443      -0.00867411       0.06114401       0.30310168
44
Properties=species:S:1:pos:R:3:energies:R:1:forces:R:3:charge:R:1 charge=0 multiplicity=1 source=products.log spin=1 energy=-2147.849363013576 free_energy=-2147.849363013576 dipole="0.09065641435619033 1.0986661226809207 -1.6098219821869397" pbc="F F F"
O       -2.65105552      -1.03772591       0.40809172    -112.66741068      -0.02228605      -0.00074703      -0.03397638      -0.39760075
O       -3.42316256       2.50361803       0.58195247    -113.12820355      -0.02239789      -0.00122942       0.00311664      -0.44712792
O       -0.70678919       0.17463614       2.22180212    -112.08608397      -0.02811808       0.00295630      -0.00574894      -0.47974767
O       -5.47693779       1.66192173      -1.18479594    -112.99809219      -0.02893771      -0.00510919      -0.00238328      -0.43012408
O       -0.80683590       1.13383523      -1.27827645    -113.19000728      -0.02959073       0.10077222       0.09507581      -0.44867910
O        1.85927928       1.89648369      -0.50333382    -113.15558918       0.01515796      -0.04881846      -0.01399925      -0.43411076
C       -2.70319545       0.24191037       0.90033273     -58.79843300      -0.01584989      -0.00544153      -0.02170867       0.11421485
C       -3.41366703       1.23513361      -0.02292206     -59.09584976      -0.02072640       0.00397925      -0.00933121       0.08264980
C       -1.25717347       0.83613094       1.24033105     -59.14259915      -0.00812564      -0.01056097      -0.02245940       0.13201654
C       -4.85056099       0.76500986      -0.30249805     -59.21123790      -0.02105161      -0.00114505      -0.00413397       0.06176226
C       -0.29602181       0.73626592      -0.02472768     -58.70271844       0.00240490      -0.04144024      -0.02312282       0.18431975
C        0.78424510       1.78268150       0.40381129     -58.83967200       0.01493179      -0.05027707      -0.01447896       0.06871789
H       -3.21405178       0.20279083       1.86803042     -12.67009724      -0.00880827      -0.00907153      -0.01688887       0.08587498
H       -2.87639924       1.28834651      -0.98294049     -12.99746592      -0.02669280       0.01500022      -0.01258506       0.04988497
H       -1.48744133       1.88996124       1.48241761     -12.88666307      -0.00794654      -0.00012927      -0.04659615       0.05036451
H       -4.83459624      -0.25867564      -0.69210991     -13.16815843      -0.01886348      -0.00125445      -0.00390888       0.04384223
H       -5.43166174       0.79124674       0.62110341     -12.92792803      -0.01725593      -0.00199977      -0.00143964       0.07045589
H       -1.97561923      -1.11212628      -0.28765911     -11.12377528      -0.01512703       0.00357222      -0.03137827       0.32687487
H       -4.14189988       3.00793342       0.17514131     -11.24727226      -0.02409040       0.00132575       0.00753835       0.31966326
H        0.25243782       2.73328888       0.48945075     -13.13245461       0.02535442      -0.04628596       0.00156279       0.04659734
H        1.15109866       1.50157069       1.39793172     -13.03624766       0.01671601      -0.06900075      -0.02035902       0.05750970
H       -0.15625517      -1.08061809       0.79418552     -11.92483226       0.01805340      -0.01714334      -0.06168251       0.21491098
H        1.96328870       2.81585499      -0.76461914     -11.34620887      -0.02489923      -0.05250485      -0.06119735       0.30851746
H       -5.02842188       1.62874250      -2.03837285     -11.50402949      -0.03636671      -0.00750523      -0.00672867       0.29504735
O        2.08770596      -2.23799710      -2.50708896    -112.60445318       0.00330981       0.01854592       0.03935148      -0.37281053
O        0.52976998      -3.25600471      -1.27549261    -112.03378754      -0.04940950       0.03090126      -0.00099918      -0.38543149
O        4.51310577      -2.12457751       0.50016199    -112.26766592       0.05706413      -0.00905669      -0.03335197      -0.42120753
N        0.03641526      -0.65304365      -0.11803263     -80.84031783       0.00502980       0.02141110       0.08717318      -0.27961663
N        4.02768351       0.06167645       0.22537305     -80.96488064       0.04893512      -0.00647154      -0.01013669      -0.28125540
C        1.34614359      -1.07144582      -0.59137438     -58.97846084       0.00634239       0.01469182       0.04433566       0.02317469
C        2.21134807      -1.44041391       0.62902489     -59.22917847       0.04722274      -0.00783564       0.03093409      -0.10288130
C        1.24367823      -2.31457891      -1.47411200     -58.91402952      -0.01809655       0.02329326       0.02348012       0.35279887
C        3.70258536      -1.23008328       0.42962121     -59.18529106       0.05163553      -0.00750437      -0.00842476       0.28708453
H        1.80056481      -0.27937257      -1.19254866     -12.88303915      -0.00417470       0.01910355       0.03778767       0.07782359
H        1.89356366      -0.80384261       1.45794828     -12.91873217       0.06093504      -0.01841145       0.05612068       0.07823191
H        2.02012857      -2.47992481       0.89997239     -13.01299061       0.05881632      -0.01374702       0.02634742       0.07566538
H       -1.04518503       0.96681307       8.94596294     -10.54165820       0.00092294      -0.00272205      -0.00408472       0.01599828
H        0.70376011      -2.20473081       5.49713822     -12.00554365      -0.04216073       0.06122086      -0.14322702       0.27696875
H        3.32415859       0.76833988       0.06838118     -12.06122877       0.04632086      -0.00534398       0.00128885       0.21281090
H        4.99320562       0.29877785       0.07804348     -12.24718523       0.05308975      -0.00799355      -0.03793698       0.19017506
H        2.09529956      -3.06675042      -3.01453808     -10.88145752      -0.01072224       0.02128911       0.02935171       0.33870942
O        0.10508912      -1.45437294       5.48482418    -114.18459192      -0.01440462       0.10136811      -0.13503513      -0.57238752
H        0.00987098      -1.15147361       4.57166242     -11.86790967       0.00382184      -0.09753928       0.22511292       0.29500450
H       -0.50875277       0.48595523      -1.93285157     -11.24593087      -0.01996200       0.10685874       0.07872640       0.31531016
44
Properties=species:S:1:pos:R:3:energies:R:1:forces:R:3:charge:R:1 charge=0 multiplicity=1 source=products.log spin=1 energy=-2141.938955987946 free_energy=-2141.938955987946 dipole="0.4667031226869061 2.1770643478489573 -3.8067510449866133" pbc="F F F"
O       -1.97531265      -0.92044569       0.41288051    -113.24656058      -0.00675907       0.00308915      -0.01263169      -0.44063831
O       -3.03290692       2.54749294       0.20677035    -113.45484226      -0.01221137       0.00071018      -0.00851750      -0.46316379
O       -0.29098744       0.25963607       2.20705422    -112.99530317      -0.00979271       0.01516519      -0.00799585      -0.43717273
O       -5.22127518       1.62034874      -1.16488063    -113.12124579      -0.01463504      -0.00547145      -0.00838243      -0.43508476
O       -0.05064404      -1.21121390      -3.70688689    -111.56585457      -0.00580339       0.04947530       0.03011396      -0.27482720
O        1.65614508       2.94516533      -0.29099262    -113.17009211       0.01601959      -0.02573286       0.00132617      -0.43242277
C       -2.32822477       0.34935293       0.88727068     -59.19528086      -0.00840606       0.00018072      -0.01218303       0.08433755
C       -3.07231582       1.18830842      -0.16191850     -59.10735016      -0.01266002       0.00100773      -0.00899300       0.08612103
C       -1.09585468       1.11903280       1.41932547     -59.22554717      -0.00794001       0.00482854      -0.01521878       0.09904160
C       -4.52808369       0.72985968      -0.32341382     -59.26794505      -0.01314967      -0.00002533      -0.00352240       0.05885656
C       -0.27854200       1.73098687       0.33293471     -56.45085838      -0.00621094      -0.00649629      -0.01723564      -0.03368017
C        0.61233642       2.85042547       0.65176029     -59.41684218       0.00994478      -0.01546123       0.00127184       0.08006191
H       -2.98476719       0.16101122       1.74461642     -12.85656465      -0.00461242      -0.00084280      -0.00993884       0.06765716
H       -2.56029482       1.06418716      -1.13535714     -13.19903080      -0.01607925       0.00198127      -0.01043859       0.02442380
H       -1.43939909       1.92461332       2.08390599     -12.71580674      -0.01185811       0.01038780      -0.02762449       0.07498912
H       -4.55920496      -0.30023752      -0.69288854     -13.19226223      -0.01366676      -0.00252052       0.00376019       0.04227865
H       -5.03591736       0.77921351       0.64250445     -12.95686563      -0.01117849       0.00673341      -0.00287682       0.06612070
H       -1.55275789      -0.86362756      -0.45761409     -11.25284484       0.00035051       0.00324304      -0.00847965       0.31412165
H       -3.86880579       2.93882401      -0.09244108     -11.16345418      -0.00921996       0.00308851      -0.01253566       0.32352667
H       -0.00344080       3.77106360       0.64626320     -12.53046078       0.01346529      -0.00009956       0.00608152       0.08766857
H        1.00506149       2.74456210       1.67593334     -12.68609434       0.01066246      -0.02821384       0.01032097       0.08009339
H       -0.55835268      -0.65426242       2.02308205     -11.19434972       0.01482339       0.00370310      -0.03807690       0.32523852
H        2.09761344       3.79596319      -0.19801227     -11.33670986       0.01664344      -0.02544991      -0.01014844       0.30380344
H       -4.90011616       1.52086737      -2.06859904     -11.47391834      -0.01626206      -0.01150740      -0.00803782       0.29614907
O        2.30620242      -2.78558273      -3.44090388    -112.87495840      -0.00567196       0.00397267      -0.01072917      -0.38776922
O        1.53310071      -3.84261924      -1.62114080    -111.65704483       0.01355299       0.15540688      -0.08486634      -0.34239712
O        3.20688624      -2.11758960       0.79195153    -112.18546383       0.03002181       0.01646621      -0.03382826      -0.40818604
N        0.01982444      -1.13539209      -2.36690175     -79.04649954       0.00507648       0.00697620       0.02663431      -0.14637530
N        3.07804893       0.07213536       0.28998359     -80.99501101       0.01357968       0.01452345       0.00082050      -0.27831017
C        1.29224987      -1.42144673      -1.79720697     -58.93353533       0.00952533       0.00652358       0.01280394       0.03266570
C        1.19789257      -1.31601113      -0.27698236     -59.46957852       0.02241176      -0.00159880       0.00517473      -0.11661937
C        1.73304401      -2.83447741      -2.22377539     -58.62691922      -0.04075600      -0.15742156       0.10461001       0.36031769
C        2.58445584      -1.18697775       0.34300687     -59.14031281       0.03200759      -0.00918077      -0.00460201       0.28594048
H        2.05536232      -0.73040807      -2.20149571     -12.83873362       0.00284151      -0.00192978       0.00690385       0.06742148
H        0.61867969      -0.43108874      -0.01959371     -12.85424164       0.02466096      -0.00258067       0.01090011       0.08276016
H        0.71032398      -2.21157902       0.10896120     -12.76402936       0.03074760      -0.00243902       0.00963094       0.10033677
H       -1.26214930       1.92589404      19.39568736     -11.02224002      -0.00001641       0.00041905       0.00044244      -0.02947862
H        1.33517194      -3.66156999       8.68117507     -12.32411185      -0.00049706      -0.00602607      -0.00294444       0.26490725
H        2.52426545       0.86632608       0.01229497     -12.11413617       0.00586641       0.00720395       0.00820579       0.20057532
H        3.96203481       0.24531440       0.73960697     -12.17253801       0.01438218       0.01306876      -0.01046540       0.19463878
H        2.59100991      -3.66965678      -3.72632620     -10.83498176      -0.02349484      -0.00696290       0.00164703       0.34004736
O        0.37846068      -3.61827994       8.67258902    -111.25479636      -0.00373823       0.01063888       0.00116171      -0.52324939
H       -0.32047647       1.41507969      -0.69862313     -12.89805246      -0.00923142      -0.05243806       0.10224226       0.09151797
H        0.79040178      -1.50203125      -4.11920178     -11.15568685      -0.02273248       0.02360527       0.02622087       0.31375661
44
Properties=species:S:1:pos:R:3:energies:R:1:forces:R:3:charge:R:1 charge=0 multiplicity=1 source=products.log spin=1 energy=-2151.682017441403 free_energy=-2151.682017441403 dipole="0.1483908301630795 0.8547006456709415 -0.563983691426526" pbc="F F F"
O       -2.59909199      -1.11216642       0.32790173    -113.19159427      -0.02011132      -0.01270987      -0.00723094      -0.45274160
O       -2.92513540       2.52718800       0.35223928    -113.32736845       0.01054893      -0.00303466      -0.00887357      -0.46580178
O       -0.80716143      -0.45990837       2.31269636    -113.08098129      -0.00720052      -0.03416649      -0.01042384      -0.44846306
O       -5.08929298       1.99090522      -1.29621245    -113.06837515       0.00090010       0.00193649      -0.00844185      -0.44041501
O       -0.58776120      -0.18122658      -1.83827459    -112.56989175      -0.02396817       0.09274134       0.08833793      -0.39364558
O        1.55626604       2.36138614      -0.38150286    -113.32169239       0.00192758      -0.03399154      -0.03943870      -0.45945036
C       -2.57178102       0.19082143       0.84046238     -59.22282933       0.00040645      -0.00794992      -0.01111107       0.08919975
C       -3.08768601       1.22552289      -0.16917758     -59.13073081       0.00392450      -0.00286743      -0.01043661       0.08350709
C       -1.17826918       0.53790062       1.39377237     -59.15409337       0.01233043      -0.02792270      -0.01872824       0.08720662
C       -4.56841329       0.96748151      -0.47807406     -59.23261641       0.00077440       0.00207691      -0.00618244       0.06095007
C       -0.02056633       0.68636175       0.36449526     -58.88692878       0.02751629      -0.05669663      -0.02220336       0.00247836
C        0.16408222       2.10651887      -0.19005746     -59.10381652      -0.02011421      -0.03573602      -0.07289832       0.06822742
H       -3.25328755       0.17985881       1.70112612     -12.93160681       0.00351416       0.00440882      -0.00712473       0.05840844
H       -2.50846389       1.13002817      -1.10257234     -13.18247013       0.00145484      -0.00414117      -0.01171369       0.03171786
H       -1.25781862       1.47328850       1.95753980     -12.97028470       0.02940482      -0.01843192      -0.02718529       0.05952717
H       -4.68792177      -0.02263591      -0.92894840     -13.19978373      -0.00452678       0.00053482      -0.00245263       0.04212054
H       -5.14647989       1.00819073       0.44835234     -13.01422343       0.00359258       0.00689957      -0.00435791       0.06077787
H       -1.94598911      -1.17443553      -0.38613870     -11.31317852      -0.00643104      -0.02069842       0.00143103       0.32542401
H       -3.69377017       3.03853589       0.05693197     -11.32360522       0.01130879       0.00035076      -0.00680049       0.31728193
H       -0.34409818       2.26465718      -1.14123943     -13.08451985      -0.02679199      -0.07634420      -0.12494732       0.05362657
H       -0.25997639       2.80222348       0.53393952     -13.18510588      -0.05893081       0.01253805      -0.08144402       0.04594270
H       -1.13455389      -1.30052765       1.95835709     -11.33385483      -0.02354473      -0.02917787      -0.01081333       0.31910503
H        1.83974074       3.04648690       0.22982983     -11.52664913      -0.00797342      -0.01315636      -0.04202788       0.29732964
H       -4.68759029       1.92606075      -2.16994208     -11.59173316      -0.00291174      -0.00307859      -0.01000762       0.29206924
O        2.04762625      -2.28413158      -2.67671626    -112.60606891      -0.02519670       0.03365283       0.02001323      -0.37570274
O        0.49271109      -3.27926017      -1.42320781    -111.94634629      -0.09472391       0.05096264      -0.02945712      -0.37835336
O        4.30904581      -1.96732294       0.74814295    -112.27751826       0.05066450       0.01158958       0.01637986      -0.42172738
N       -0.00400879      -0.45077302      -0.57840432     -79.47337429       0.00036676       0.05833600       0.08378978      -0.06153799
N        3.67795504       0.15978605       0.38027517     -80.94263639       0.01752252       0.00522298       0.01575263      -0.28129823
C        1.30007698      -1.06633163      -0.79951827     -58.82273232      -0.00291877       0.02424694       0.03675347       0.02209409
C        1.95882237      -1.53348130       0.50755524     -59.34635081       0.03236441      -0.02391761       0.02541431      -0.10948263
C        1.18386413      -2.33159444      -1.65577534     -58.84692978      -0.04940838       0.03992318       0.00267894       0.36142292
C        3.43219082      -1.15865023       0.55486501     -59.17304406       0.03469163       0.00033474       0.01678080       0.28653544
H        1.96251654      -0.37765854      -1.35602312     -13.12010700       0.00128676       0.01893281       0.03351861       0.04332141
H        1.45282247      -1.10179273       1.37071486     -12.74817920       0.02049662      -0.06806794       0.06224389       0.09601291
H        1.86495993      -2.61474957       0.60861813     -12.89991799       0.06614629      -0.03788204      -0.00723913       0.08493565
H        0.13752530      -0.98140284       9.77945907     -11.88424683       0.08565506      -0.21269650      -0.40896138       0.28166044
H        0.45062240      -1.95208346       8.57631628     -11.87948387      -0.04475202       0.08408949       0.19960458       0.28400220
H        2.96520561       0.83663928       0.15115791     -12.15355654       0.01079540      -0.00253166       0.00726026       0.20177693
H        4.63812983       0.45880776       0.36541807     -12.23052457       0.02191547       0.01573077       0.00725284       0.19186904
H        2.07781444      -3.13374719      -3.14659189     -10.92289398      -0.05125640       0.03854996       0.00280510       0.33727372
O        0.27896484      -1.03978120       8.82421265    -114.20801281      -0.03967383       0.13265923       0.21022695      -0.56566264
H        0.85574587       0.56743085       1.00180929     -12.72146843       0.09087519      -0.04795481       0.07714790       0.07683138
H        0.08117096       0.18874730      -2.44340972     -11.53069122      -0.02994972       0.13743643       0.08310938       0.29164592
44
Properties=species:S:1:pos:R:3:energies:R:1:forces:R:3:charge:R:1 charge=0 multiplicity=1 source=products.log spin=1 energy=-2152.100774587594 free_energy=-2152.100774587594 dipole="-0.24428070450087083 0.9475155839601589 -0.8758261117048605" pbc="F F F"
O       -3.03123152      -1.06684881       0.47820449    -113.22318651      -0.00153581      -0.00321773       0.00779131      -0.45639658
O       -2.87280381       2.58387858       0.45996776    -113.34316824       0.00091764      -0.00209254       0.00095192      -0.46469496
O       -1.46761658      -0.65180698       2.69915683    -113.16627594      -0.00249789       0.00021867       0.01163108      -0.44965453
O       -4.84026042       2.32069121      -1.44837744    -113.07767138       0.00169174      -0.00307111      -0.00184421      -0.43905957
O       -0.73303989      -0.75695419      -1.00717728    -112.62633828      -0.00311170      -0.00349127       0.01147244      -0.39809133
O        1.46187224       2.11286898       0.32255918    -113.33648193       0.00081045      -0.00306823       0.00752023      -0.45517084
C       -2.88112117       0.22743220       0.98857297     -59.20354044      -0.00176469      -0.00225706       0.00589931       0.08986112
C       -3.11992950       1.30571046      -0.08074724     -59.10126377      -0.00009480      -0.00296859       0.00322225       0.08659290
C       -1.55228160       0.39619062       1.76155224     -59.12642838      -0.00192396      -0.00114428       0.00836129       0.08914646
C       -4.56626621       1.23403391      -0.59249555     -59.22425778      -0.00060371      -0.00205866       0.00169141       0.06065902
C       -0.20769098       0.44833697       0.98589904     -58.97545446      -0.00009103      -0.00221493       0.00928614       0.00112677
C        0.08833112       1.76564900       0.24183058     -59.15756679       0.00027908      -0.00411445       0.00438602       0.06323109
H       -3.67031710       0.32708450       1.74479661     -12.90514631      -0.00357884      -0.00132958       0.00470052       0.05978392
H       -2.43987105       1.13119620      -0.93212646     -13.27272555       0.00065968      -0.00493500       0.00375297       0.01931367
H       -1.62296103       1.32566454       2.33549528     -12.95965613      -0.00258770      -0.00001446       0.00635574       0.06066924
H       -4.74707745       0.26991511      -1.07717715     -13.20682269      -0.00157986      -0.00306073       0.00384990       0.04158172
H       -5.25340273       1.34312090       0.24959036     -12.99067119      -0.00174648       0.00074808       0.00090036       0.06299640
H       -2.31480165      -1.23840835      -0.15318022     -11.31397035      -0.00269840      -0.00331992       0.00606405       0.32805236
H       -3.52335471       3.18272961       0.06171713     -11.28467743       0.00229978      -0.00158607      -0.00205780       0.31930172
H       -0.12257609       1.68349250      -0.82735620     -13.15538366       0.00414759      -0.00899396       0.00115633       0.04481867
H       -0.54234319       2.56325450       0.64033112     -13.12352097      -0.00401630      -0.00107273      -0.00094930       0.05376980
H       -1.66238260      -1.46826716       2.21306440     -11.27605450       0.00330915      -0.00095570       0.00989702       0.32388243
H        1.63248523       2.47853530       1.19713123     -11.51621860       0.00061781      -0.01001930       0.01447528       0.29702191
H       -4.36345455       2.20072482      -2.27724841     -11.57803775       0.00138128      -0.00633662      -0.00178008       0.29158906
O        2.03224267      -2.45773193      -1.95436473    -112.59469874      -0.00295369       0.01089302      -0.00298233      -0.37487747
O        0.89004946      -3.45240003      -0.31362652    -111.89855864      -0.00744649       0.00123099      -0.00817302      -0.37531948
O        4.61867695      -1.81251829       0.43843200    -112.27573877       0.01171479      -0.00343652      -0.00590878      -0.42019179
N        0.00007881      -0.76801791       0.20597872     -79.42438223       0.00068189      -0.00344788       0.01068811      -0.05596887
N        3.98853347       0.32116493       0.07965777     -80.91627031       0.00962814      -0.00207314       0.00512286      -0.27813111
C        1.37951053      -1.08373804      -0.14254438     -58.77366886       0.00200985       0.00039392       0.00699757       0.02590784
C        2.36524283      -1.16617115       1.02962126     -59.31856817       0.00735682      -0.00784568       0.00611353      -0.10393548
C        1.37950118      -2.47103537      -0.78910520     -58.85926101      -0.00284231       0.00376242      -0.00196203       0.36389256
C        3.77768286      -0.94768433       0.49361769     -59.16400106       0.00968459      -0.00442987       0.00048918       0.28695730
H        1.75631918      -0.36448163      -0.89370079     -13.14606104       0.00054504       0.00697124       0.00968066       0.03941638
H        2.17105350      -0.40627791       1.78348816     -12.91623109       0.01375479      -0.01000442       0.01534907       0.07906462
H        2.29376533      -2.14315108       1.50639840     -12.90085383       0.00489186      -0.01275169       0.00169432       0.08762586
H        0.79459963      -1.54498100       5.29191385     -11.99402923      -0.02305387       0.01896488      -0.03350614       0.27664253
H       -0.03844305      -0.83345369       4.20377006     -11.78233477      -0.01918864       0.04247198      -0.08950938       0.30177890
H        3.26136287       1.02042508       0.09629681     -12.12317251       0.00670243      -0.00351248       0.00837355       0.20491341
H        4.88083247       0.55875731      -0.31914543     -12.23040910       0.01069838       0.00036372       0.00169574       0.19197306
H        2.11131924      -3.35732992      -2.31066690     -10.91975966      -0.00777987       0.01280915      -0.00972648       0.33842416
O        0.80943127      -0.81926825       4.66517833    -114.45815600       0.00356205       0.01894729      -0.05447066      -0.58879411
H        0.51462157       0.38163368       1.80500966     -12.73805217      -0.00037594      -0.00138448       0.01111768       0.08156089
H       -0.26554316      -0.22079813      -1.67579006     -11.52204837      -0.00587287       0.00243372       0.01218239       0.28873037
44
Properties=species:S:1:pos:R:3:energies:R:1:forces:R:3:charge:R:1 charge=0 multiplicity=1 source=products.log spin=1 energy=-2152.1506655786584 free_energy=-2152.1506655786584 dipole="-0.30744066770493955 1.213482708510193 -1.4062636016354118" pbc="F F F"
O       -3.11500143      -0.95338349       0.67843811    -113.29390200       0.00040613      -0.00049616       0.00374931      -0.46027922
O       -2.86702772       2.67801734       0.36109345    -113.35100299      -0.00041584      -0.00055314      -0.00056202      -0.46395856
O       -1.56352798      -0.47392922       2.82543575    -113.12864376      -0.00407532       0.00146702       0.00299976      -0.44788612
O       -4.82001613       2.31040960      -1.52975836    -113.08370849       0.00062665      -0.00457758      -0.00239371      -0.43811151
O       -0.74771069      -0.92239292      -0.68258274    -112.64743965      -0.00021332       0.00001440       0.00300640      -0.39752456
O        1.40963044       2.19234163       0.31586746    -113.31334382       0.00032846      -0.00029047       0.00258226      -0.45423745
C       -2.92631857       0.37580610       1.07789364     -59.18599655      -0.00025556       0.00043119       0.00168459       0.08921165
C       -3.12966997       1.36557133      -0.07860354     -59.09249473       0.00017603      -0.00109727       0.00041747       0.08833901
C       -1.60104071       0.54830209       1.85884954     -59.11676662      -0.00085040       0.00104769       0.00234509       0.09006428
C       -4.57306323       1.28065178      -0.59933991     -59.22040173       0.00044672      -0.00243540       0.00007908       0.06069454
C       -0.23094637       0.55175196       1.12060537     -58.98704227      -0.00003163       0.00011589       0.00362792       0.00222478
C        0.05317520       1.78708115       0.24075384     -59.16769603       0.00001802       0.00065726       0.00388544       0.06218129
H       -3.71828214       0.56431515       1.81455744     -12.89995310      -0.00060068       0.00130859       0.00126975       0.05995094
H       -2.44399472       1.11178533      -0.90575475     -13.29835810       0.00070852      -0.00181847       0.00099641       0.01615333
H       -1.66128988       1.50271703       2.39401521     -12.99165133      -0.00074157       0.00139273       0.00177996       0.05586676
H       -4.76747356       0.28857672      -1.01752936     -13.20678429       0.00087109      -0.00356665       0.00233751       0.04154641
H       -5.26498851       1.45942558       0.22684726     -12.97844987       0.00015034      -0.00073245      -0.00043835       0.06405250
H       -2.38218893      -1.20688930       0.09165603     -11.29636749       0.00031987      -0.00085108       0.00351281       0.32852488
H       -3.50588643       3.25363404      -0.08785498     -11.25879687       0.00007618      -0.00092526      -0.00176445       0.32060385
H       -0.11547460       1.56797737      -0.81737371     -13.18495587      -0.00140254       0.00115717       0.00374495       0.04106556
H       -0.61619066       2.60336565       0.52072898     -13.11826232       0.00073852       0.00117602       0.00493174       0.05466431
H       -1.96592997      -1.25582937       2.41163785     -11.24821169      -0.00879436       0.00248158       0.00365396       0.32571809
H        1.54279741       2.66050320       1.14670813     -11.54863492       0.00179425      -0.00106633       0.00301294       0.29405536
H       -4.34745030       2.12231512      -2.34830138     -11.56230338       0.00133367      -0.00628844      -0.00166962       0.29202411
O        2.08243691      -2.75203676      -1.34815307    -112.53340002      -0.00230105      -0.00141193       0.00169317      -0.36788042
O        1.04774567      -3.36518778       0.53563124    -112.03192723       0.00463391       0.00024485       0.00809200      -0.38553867
O        4.58807239      -1.70889936       0.47385831    -112.27356997      -0.00138059      -0.00338941      -0.00263713      -0.41889352
N        0.03274667      -0.73072663       0.48307565     -79.36665735       0.00063433       0.00032353       0.00298631      -0.05193064
N        4.10050275       0.40235489      -0.14771939     -80.88799993       0.00555307      -0.00114098      -0.00247628      -0.27519267
C        1.41413730      -1.01564127       0.11481354     -58.73893503       0.00067671       0.00160398       0.00183398       0.02926959
C        2.48139735      -0.74533881       1.18328615     -59.34989550       0.00248945       0.00449318       0.00096862      -0.11015427
C        1.47824892      -2.51238881      -0.18721841     -58.85597194       0.00130770      -0.00008838       0.00427049       0.36654121
C        3.83785072      -0.76331223       0.48624682     -59.15763389       0.00185286      -0.00058837      -0.00159880       0.28688419
H        1.68592786      -0.46407412      -0.80532125     -13.18605612      -0.00110920       0.00127676       0.00007095       0.03552048
H        2.35015927       0.23711421       1.62915814     -12.99358715       0.00521772       0.00829674      -0.00209980       0.06938037
H        2.43385398      -1.50134889       1.96724690     -12.73117745       0.00156039       0.00671200       0.00544252       0.10937475
H        0.67781833      -2.76371120       2.70991418     -11.91308285      -0.01206459      -0.01328583      -0.03631216       0.29323435
H        0.02286297      -1.55521765       3.40794483     -11.88594826      -0.00487156       0.01462415      -0.01101033       0.29556384
H        3.43944951       1.16237203      -0.15013071     -12.15662334       0.00757443       0.00069248      -0.00200592       0.19973396
H        4.95688226       0.49774154      -0.66684938     -12.22932989       0.00567461      -0.00374841      -0.00371394       0.19165640
H        2.20461944      -3.70530400      -1.48456745     -10.88897289      -0.00158858      -0.00222755       0.00287634       0.34087633
O        0.79246061      -2.13667405       3.43134519    -114.52655451      -0.00401607       0.00180624      -0.01569583      -0.60205009
H        0.46847487       0.57787705       1.96200829     -12.73629673      -0.00023450      -0.00048560       0.00398894       0.08138557
H       -0.36903600      -0.41855530      -1.42815691     -11.52587766      -0.00022226      -0.00025826       0.00253771       0.28727503
44
Properties=species:S:1:pos:R:3:energies:R:1:forces:R:3:charge:R:1 charge=0 multiplicity=1 source=products.log spin=1 energy=-2152.4247263257475 free_energy=-2152.4247263257475 dipole="-0.18055418804024945 0.4429545073607971 -0.24783661710438876" pbc="F F F"
O       -3.00707136      -0.86978417       0.37264052    -113.37762481       0.01359578       0.00780320      -0.03517143      -0.46085525
O       -2.90313887       2.74776253       0.35355758    -113.26913472      -0.00511576       0.00624771       0.00074953      -0.46079827
O       -1.73370082      -0.55537591       2.68075290    -113.33565791      -0.01744035      -0.00910203      -0.01623677      -0.48307837
O       -4.77786865       2.36815542      -1.65542202    -113.06521894       0.00089372       0.00353008      -0.01194077      -0.43910110
O       -0.59907559      -0.75690606      -0.83568352    -112.72519706       0.01771870       0.02064330      -0.01940525      -0.43378590
O        1.40035612       2.25630466       0.42209841    -113.23777543       0.00013432       0.00550347       0.01027728      -0.45334805
C       -2.91245218       0.41811404       0.94268283     -58.97615371       0.00170845       0.00263138      -0.01528321       0.09736682
C       -3.10735633       1.45265345      -0.16189279     -59.15917715       0.00076126       0.00858448      -0.00825776       0.09240927
C       -1.62519727       0.53612256       1.79294619     -59.11538025      -0.00266865      -0.00188382      -0.00795275       0.09392322
C       -4.53284498       1.34088696      -0.72330765     -59.23095224       0.00194586       0.00527830      -0.01051243       0.06062572
C       -0.22866676       0.55262361       1.12335526     -59.00522102       0.00028891       0.00015985      -0.00051186       0.00861772
C        0.07027085       1.79267920       0.25579772     -59.19256467       0.00188019       0.00180667       0.00254553       0.05963185
H       -3.72950228       0.54348066       1.67152222     -13.02181697      -0.00105284      -0.00668834      -0.01580564       0.04250475
H       -2.38829073       1.25665650      -0.97365238     -13.13470618       0.00327712       0.01570703      -0.00779430       0.03503723
H       -1.70813193       1.47700167       2.35890520     -13.11716185      -0.00566652      -0.00339218      -0.00472245       0.03840283
H       -4.68894065       0.34629568      -1.15193443     -13.18998522       0.00533148       0.00431445      -0.00980664       0.04298443
H       -5.25117646       1.49798002       0.08533135     -13.00545546       0.00036199       0.00423217      -0.01153221       0.06110370
H       -2.70163503      -1.46950466       1.07390097     -11.14418466      -0.02755882      -0.02822683       0.09303747       0.33364788
H       -3.50794752       3.33270911      -0.12771678     -11.29696809      -0.00121063       0.00781626      -0.00224783       0.31906022
H       -0.01112909       1.51530345      -0.79815736     -12.97611753       0.00847268      -0.00196715       0.00260233       0.06767629
H       -0.64700359       2.58825167       0.46868257     -13.20044626      -0.00164335       0.00018497      -0.00144665       0.04683372
H       -0.87928001      -1.03314068       2.75080737     -11.29001725       0.11036877       0.02344341       0.03359026       0.33569220
H        1.45254509       2.74812207       1.24811983     -11.64726911      -0.00573523       0.00577438       0.01090784       0.28810421
H       -4.25465221       2.20253979      -2.44776331     -11.56395589       0.00511641       0.00452199      -0.00960829       0.29408725
O        2.14310192      -2.77558590      -1.27571703    -112.31107744       0.00344675      -0.00206519       0.00471384      -0.34705495
O        1.08660939      -3.31027774       0.61129573    -112.40724182       0.00307819       0.00622583       0.00655909      -0.41685089
O        4.61160490      -1.65105057       0.50447018    -112.34671385       0.00177981       0.00234693       0.00377554      -0.42724616
N        0.04504715      -0.71454654       0.44781258     -79.60177487       0.00153578       0.00271748      -0.00617897      -0.07591422
N        4.13114552       0.43888762      -0.19841737     -80.86652788       0.00542000       0.00165643      -0.00212060      -0.27154321
C        1.44443581      -0.98091601       0.10631430     -58.76436383       0.00368567       0.00371558      -0.00173396       0.03231357
C        2.50683329      -0.65634315       1.16463720     -59.36907989       0.00261542       0.00697177      -0.00156328      -0.10934450
C        1.52437711      -2.48015021      -0.14834850     -58.83168952       0.00370750       0.00347054       0.00236804       0.37125357
C        3.86343899      -0.70202112       0.47188770     -59.17933396       0.00304733       0.00357628      -0.00019754       0.28582184
H        1.69092438      -0.45914154      -0.82990268     -12.94077235       0.00251911       0.00120531      -0.00269323       0.06441658
H        2.36622035       0.34660757       1.55829364     -12.96921833       0.00229198       0.00854848      -0.00539724       0.07312238
H        2.47043325      -1.37660660       1.98027901     -12.89214292       0.00273412       0.00946529       0.00056523       0.08909640
H        0.59875975      -2.61624461       2.26737663     -11.51585912      -0.00740443       0.01789711      -0.03967948       0.32616051
H        0.10970750      -2.68960411       3.74242904     -11.85710884       0.00668106      -0.10014224       0.03880047       0.28660615
H        3.45882912       1.18799441      -0.23963503     -12.12005499       0.00461939       0.00082716      -0.00649378       0.20401361
H        4.97411422       0.50609462      -0.74327040     -12.22784730       0.00443880      -0.00157018      -0.00418706       0.19218508
H        2.23662797      -3.73582807      -1.38866030     -10.86210776      -0.00041952      -0.00270783       0.00596653       0.34140291
O        0.46834421      -2.09653578       3.08164573    -114.76043969      -0.02967368       0.01206083      -0.03327347      -0.59685879
H        0.44966759       0.56556632       1.98367327     -12.92642604      -0.00201637      -0.00236920       0.00156163       0.06358497
H       -1.53958982      -0.93806342      -0.63733240     -11.39680354      -0.11585042      -0.04875309       0.07373424       0.32809277
44
Properties=species:S:1:pos:R:3:energies:R:1:forces:R:3:charge:R:1 charge=0 multiplicity=1 source=products.log spin=1 energy=-2152.578958899074 free_energy=-2152.578958899074 dipole="0.006792492742062052 0.4355075194350704 -0.35295671192414785" pbc="F F F"
O       -2.88649013      -0.91889280       0.71012481    -113.38242909       0.00617933      -0.00232449       0.01320622      -0.45824638
O       -2.88568527       2.68299763       0.30177461    -113.27934017      -0.00004697      -0.00289549      -0.00177437      -0.46285848
O       -1.41009780      -0.00818928       3.03541926    -113.28626094       0.01400258       0.02338415       0.01449470      -0.47647272
O       -4.73082929       2.11275356      -1.63746845    -113.06849084       0.00051830      -0.01189368       0.00123357      -0.43932335
O       -0.62479387      -0.80609405      -0.67317003    -112.78927365      -0.00036156      -0.00085124       0.00556813      -0.43923948
O        1.49039061       2.31358009       0.25806782    -113.28238690       0.00399144       0.00261118      -0.00741444      -0.45570776
C       -2.80292521       0.42998561       1.12473771     -59.00386205       0.00486834       0.00005885       0.00738002       0.09137757
C       -3.04932829       1.33699069      -0.08667509     -59.14744280       0.00180626      -0.00496951       0.00333498       0.09123872
C       -1.48794482       0.76683074       1.86873538     -59.21649412       0.00588822       0.00987422       0.00277088       0.09049159
C       -4.46437982       1.14142979      -0.65047456     -59.23478813       0.00198067      -0.00884229       0.00406303       0.06052318
C       -0.13101749       0.69005629       1.11980698     -58.93920635       0.00420968       0.00621386      -0.00060852       0.00891511
C        0.15731441       1.84082177       0.13614869     -59.18552183       0.00367290       0.00270104      -0.00519616       0.06026743
H       -3.60033949       0.62395495       1.85907217     -13.04015674       0.00570383       0.00200194       0.00786895       0.04297417
H       -2.31947517       1.09235998      -0.87498428     -13.11614662       0.00188824      -0.00661328       0.00384401       0.03740968
H       -1.60363040       1.80346154       2.20636435     -12.95648167       0.00414961       0.01386484      -0.00697912       0.05888489
H       -4.58194506       0.12340544      -1.03306495     -13.20078638       0.00341828      -0.01010220       0.00678039       0.04208553
H       -5.19984468       1.31688356       0.13816602     -13.00010193       0.00169277      -0.00754543       0.00351341       0.06204194
H       -2.60082016      -1.47791537       1.45026961     -11.13179313       0.00656630      -0.00085605       0.01420227       0.33573091
H       -3.52557301       3.19727576      -0.21494076     -11.29871747      -0.00146697      -0.00582462      -0.00325516       0.31940443
H        0.06964489       1.47146601      -0.88839585     -13.00348996       0.00288269      -0.00078231      -0.00404301       0.06522322
H       -0.55749853       2.65447730       0.27959519     -13.20438934       0.00403880       0.00359326      -0.00753332       0.04575507
H       -1.13845808      -0.92368634       2.80124860     -11.31265871      -0.01037317       0.00535874       0.00225613       0.33198406
H        1.54902048       2.84760554       1.05746301     -11.63086894       0.00474164       0.00409231      -0.00837335       0.28916742
H       -4.17885350       1.93811005      -2.40847619     -11.56628518       0.00122167      -0.01288688       0.00191286       0.29395562
O        2.24441049      -2.61823215      -1.30114408    -112.35070641       0.00400598       0.00674878      -0.00139978      -0.34923738
O        1.03057494      -3.24895627       0.45488148    -112.38827320      -0.00295073       0.00305247      -0.00700383      -0.41464839
O        4.71110887      -1.56269395       0.54339463    -112.33763303       0.00378135       0.00215172       0.00300183      -0.42521179
N        0.10634248      -0.63629367       0.55210100     -79.65402938       0.00270316       0.00390583       0.00354922      -0.07737897
N        4.13009565       0.49980954      -0.16700875     -80.88822714       0.00120134       0.00142211       0.00256626      -0.27200049
C        1.48433204      -0.90141845       0.14206343     -58.76717581       0.00192760       0.00364457       0.00129912       0.03205769
C        2.56392550      -0.67030914       1.20726518     -59.30293522       0.00221454      -0.00087130       0.00214392      -0.10150223
C        1.54021204      -2.38131779      -0.21054516     -58.82457494       0.00047576       0.00449312      -0.00298322       0.37189293
C        3.91889975      -0.65070826       0.50469784     -59.17226169       0.00249020       0.00110263       0.00241602       0.28604423
H        1.72587681      -0.32717784      -0.76421985     -12.95639949       0.00231813       0.00593296       0.00277316       0.06238815
H        2.42900021       0.29038861       1.69864490     -12.99926934       0.00273121      -0.00258679       0.00619846       0.06980898
H        2.53864520      -1.46516638       1.95268222     -13.04333238       0.00185888      -0.00399864      -0.00083630       0.07180141
H       -0.17802027      -2.77102730       1.74970266     -11.50379124      -0.03227975      -0.00532727      -0.02185141       0.32916433
H       -0.35658542      -3.01624662       3.26748947     -11.88684825      -0.02101536      -0.01243846      -0.02023128       0.28532922
H        3.42354864       1.21812943      -0.21420445     -12.08625967       0.00012245       0.00043372       0.00174602       0.20787130
H        4.96597587       0.59933486      -0.71796767     -12.20712994       0.00119560       0.00224359       0.00265278       0.19369982
H        2.32386375      -3.57191064      -1.46892095     -10.83717012       0.00299957       0.00701770      -0.00384012       0.34287462
O       -0.77219131      -2.60802778       2.50586519    -114.83653633      -0.05167239      -0.01969399      -0.02464752      -0.60409242
H        0.58102710       0.77616232       1.94815792     -12.92447641       0.00565230       0.00912790      -0.00196859       0.06185765
H       -1.52874032      -1.05284022      -0.37787706     -11.33455599       0.00106729      -0.00372756       0.00916316       0.33369900
44
Properties=species:S:1:pos:R:3:energies:R:1:forces:R:3:charge:R:1 charge=0 multiplicity=1 source=products.log spin=1 energy=-2152.652475441508 free_energy=-2152.652475441508 dipole="-0.35924186621048765 0.11462881801844833 -0.4431514972966398" pbc="F F F"
O       -2.73735370      -0.85989353       0.78831271    -113.55916416      -0.00122650      -0.00095594      -0.00173990      -0.48277691
O       -2.87004464       2.71538117       0.30795116    -113.28690105       0.00092221      -0.00054238      -0.00106587      -0.46153823
O       -1.11232958       0.18862974       3.04096468    -113.16746418      -0.00203214      -0.00201267      -0.00174978      -0.45865123
O       -4.85496815       1.88370500      -1.50477892    -113.07201296      -0.00032204       0.00644370       0.00150609      -0.44080168
O       -0.54233330      -0.82865262      -0.68476773    -112.82605918      -0.00082862      -0.00091098      -0.00162971      -0.44273348
O        1.51026212       2.39503407      -0.04532712    -113.27639343      -0.00136014      -0.00010355       0.00127955      -0.45211213
C       -2.65173208       0.48355302       1.20561002     -59.06500129      -0.00116194      -0.00081290      -0.00194749       0.09266595
C       -3.03350107       1.35020225      -0.00111699     -59.11239408      -0.00025008      -0.00024518      -0.00170158       0.09253384
C       -1.29596244       0.88483204       1.83313055     -59.21967837      -0.00132893      -0.00147321      -0.00132859       0.08663680
C       -4.48646896       1.07548416      -0.41082600     -59.24185170      -0.00042671       0.00201037      -0.00205872       0.06053498
C        0.00475705       0.76721950       0.99439887     -58.92146415      -0.00118342      -0.00143112      -0.00096268       0.00961152
C        0.20649108       1.83485575      -0.09857116     -59.18255097      -0.00085263      -0.00094257      -0.00023311       0.05928890
H       -3.39100626       0.65869395       2.00361059     -13.05818356      -0.00139548      -0.00060482      -0.00229667       0.04105369
H       -2.37617476       1.08427461      -0.84600834     -13.14291558      -0.00042568      -0.00050220      -0.00165483       0.03311431
H       -1.40463164       1.93870121       2.11377324     -12.93231134      -0.00121455      -0.00158043      -0.00097085       0.06282062
H       -4.61577910       0.00999141      -0.62451384     -13.18027002      -0.00100792       0.00314273      -0.00611478       0.04363047
H       -5.15302198       1.36064036       0.40679698     -13.01292265      -0.00006099      -0.00066734      -0.00100657       0.06072115
H       -2.30340878      -1.44126487       1.45527774     -11.10600361      -0.00344912      -0.00038045      -0.00057093       0.34487041
H       -3.53628775       3.19586461      -0.20519746     -11.31780677       0.00012953       0.00008914       0.00049583       0.31758343
H        0.12715009       1.36720745      -1.08305122     -12.96788282       0.00047232      -0.00056486      -0.00042693       0.06957669
H       -0.55057123       2.61776873      -0.01480199     -13.19350062      -0.00146180      -0.00157861      -0.00062319       0.04715967
H       -0.98690935      -0.75546023       2.84662767     -11.31197140      -0.00004780      -0.00172346      -0.00200765       0.32634978
H        1.55037974       3.00775243       0.69684648     -11.58446966      -0.00284192      -0.00006484       0.00121837       0.29249023
H       -4.37776169       1.58531331      -2.28740018     -11.58055101      -0.00046366       0.00957731       0.00043670       0.29319433
O        2.33320850      -2.76363210      -1.17232980    -112.35803130      -0.00378732       0.00116807      -0.00540434      -0.34934484
O        0.81453817      -3.26222401       0.37669299    -112.46777562       0.00268754      -0.00120591      -0.00063806      -0.41964765
O        4.93680371      -1.21351586       0.75100185    -112.32589287      -0.00251189      -0.00150427       0.00342402      -0.42647365
N        0.19449124      -0.60521720       0.52957992     -79.67227910      -0.00098700      -0.00111947      -0.00155364      -0.07930139
N        3.99864958       0.72168968       0.07645348     -80.94084856      -0.00035534      -0.00116244       0.00322253      -0.27961099
C        1.55942996      -0.97455741       0.16307027     -58.80851585      -0.00080426      -0.00057731      -0.00115814       0.02952984
C        2.61307317      -0.83810328       1.27470926     -59.27833406      -0.00204805      -0.00114277      -0.00001845      -0.10101603
C        1.50244817      -2.45144456      -0.19531447     -58.79133721      -0.00037163      -0.00026858      -0.00232833       0.37288228
C        3.97393865      -0.48576021       0.67471084     -59.18552234      -0.00172231      -0.00122579       0.00242942       0.28593071
H        1.87895455      -0.42443882      -0.73422160     -12.95442407      -0.00021593       0.00011358      -0.00045799       0.06247439
H        2.34070931      -0.05632858       1.98192964     -12.98451329      -0.00288577      -0.00207114      -0.00042182       0.07208562
H        2.70372630      -1.77090191       1.83294440     -13.03166561      -0.00253780      -0.00098664      -0.00065533       0.07205370
H       -0.47319800      -2.72670477       1.56522790     -11.40691881       0.00638178      -0.00018627       0.00261706       0.33495327
H       -1.59894923      -3.45568535       2.34041245     -11.80611688       0.02612223       0.00877147       0.02228225       0.29011758
H        3.17498502       1.30117455      -0.02273247     -12.06615337       0.00037558      -0.00086007       0.00203481       0.21402288
H        4.84659053       1.01103415      -0.38155654     -12.23802047       0.00010676      -0.00135697       0.00473317       0.19175934
H        2.33693130      -3.71948743      -1.34503146     -10.84166213      -0.00383109       0.00139758      -0.00643314       0.34128343
O       -1.20548011      -2.59240160       2.19888571    -114.92494716       0.01021111       0.00174275       0.00613001      -0.60317431
H        0.77862847       0.93718428       1.75092993     -12.94775864      -0.00136577      -0.00201352      -0.00081222       0.06056884
H       -1.45953057      -0.99934635      -0.36790006     -11.30203355      -0.00064285      -0.00167805      -0.00183852       0.33568384
44
Properties=species:S:1:pos:R:3:energies:R:1:forces:R:3:charge:R:1 charge=0 multiplicity=1 source=products.log spin=1 energy=-2152.6693931705704 free_energy=-2152.6693931705704 dipole="-0.9584156843575002 1.1085825466683161 0.29836715963667576" pbc="F F F"
O       -2.56317140      -0.82414574       0.66312608    -113.60199323       0.04795819       0.00954499      -0.03452732      -0.49118112
O       -2.90221819       2.72188311       0.29318148    -113.43772811      -0.00803935       0.00172920      -0.00509023      -0.46397624
O       -1.09480644       0.27216001       3.01830034    -113.33703479       0.00608343       0.02451043      -0.00717243      -0.45752508
O       -4.88100372       1.89887853      -1.51885560    -113.09316584      -0.01006753       0.00644002      -0.00019629      -0.43782441
O       -0.17344474      -1.47273214      -0.98875969    -113.27027818       0.09918581      -0.17297922      -0.08318728      -0.49359408
O        1.41359639       2.36247402      -0.07283684    -113.10724576      -0.02674568      -0.00870267      -0.01105808      -0.43389279
C       -2.66884325       0.47522583       1.16591287     -59.03341298      -0.00372296      -0.00222443      -0.01154398       0.09968380
C       -3.06795302       1.35874259      -0.02082931     -59.08597772      -0.00976692       0.00222789      -0.00578790       0.09156771
C       -1.35567440       0.97922929       1.83580731     -59.27581752      -0.01495940       0.02600483      -0.00108994       0.08759011
C       -4.51898522       1.08211824      -0.43144029     -59.26064883      -0.01011032       0.00263291      -0.00365950       0.06038678
C       -0.20121063       0.87697572       0.87238365     -57.79043958      -0.05480618       0.02904226      -0.03499802       0.03554854
C        0.08988610       1.86821641      -0.21563275     -59.41881950      -0.03134333       0.00694516      -0.03514957       0.06018418
H       -3.44371318       0.53676004       1.94682823     -13.06502261      -0.01267555      -0.03319589      -0.01551195       0.04100186
H       -2.41182731       1.08766632      -0.86518799     -13.11462205      -0.01152218       0.00030321      -0.00656558       0.03460200
H       -1.51873166       2.02336683       2.11878894     -12.69442853      -0.02928650       0.02376551      -0.00174617       0.08587514
H       -4.63939640       0.01745668      -0.65316363     -13.14161495      -0.00854621       0.00317478      -0.00687393       0.04760056
H       -5.18836776       1.35973332       0.38668397     -12.98746740      -0.00926367      -0.00010235      -0.00196588       0.06201941
H       -2.22817194      -1.45090589       1.35702080     -11.16144034       0.02170081      -0.00215178      -0.02712050       0.33996301
H       -3.57126335       3.20407980      -0.21540756     -11.20367094      -0.00992719       0.00224343      -0.00224856       0.32242402
H        0.06018600       1.38736673      -1.19653207     -12.65534869      -0.01689139       0.00162303      -0.03334895       0.09526943
H       -0.63925703       2.68082747      -0.17733873     -12.91291745      -0.02497479       0.01397370      -0.04912687       0.07145018
H       -1.22000047      -0.69054893       2.88569436     -11.12678689      -0.06156114       0.01935614       0.01042439       0.33624307
H        1.45304074       2.95116608       0.68973183     -11.44077524      -0.02858906      -0.01339685      -0.00682885       0.29828395
H       -4.41567602       1.59492803      -2.30670141     -11.50537396      -0.01470806       0.00591139      -0.00282725       0.29696900
O        1.85958083      -2.44304497      -1.23405126    -112.87193059      -0.12904940       0.08596919      -0.01840703      -0.44813949
O        0.63227204      -2.92910623       0.59693576    -114.05832592      -0.05047356       0.08970805       0.05726592      -0.63205334
O        5.14231165      -1.23787551       0.61326299    -112.20868970       0.05822751      -0.00192487      -0.03106873      -0.41703394
N        0.65149130      -0.06290267       1.13384889     -79.33604060       0.12504034       0.14539501       0.16172045      -0.02470578
N        4.13707168       0.69898808       0.06241380     -80.92301535       0.03611522      -0.00343794       0.00329816      -0.27926637
C        1.63610042      -0.65556980       0.36754108     -58.42625805       0.02137808       0.08492495       0.05466274      -0.01560059
C        2.83907855      -0.95693015       1.24043978     -59.35389743       0.06091852      -0.03657072      -0.00999969      -0.09946007
C        0.90183821      -2.07573771      -0.30125985     -59.62293896      -0.16297535       0.10072228      -0.03018486       0.44582855
C        4.15311002      -0.54617368       0.59211054     -59.15124083       0.04904189      -0.01472678      -0.01791737       0.29072665
H        1.85674063      -0.12743053      -0.55474479     -12.81549874      -0.00384664       0.07885196       0.04802217       0.08781209
H        2.75097989      -0.36389435       2.15658755     -13.06898502       0.10838926      -0.09372982       0.05023477       0.05737684
H        2.87627184      -2.00926572       1.52275342     -12.87433150       0.04821652      -0.07043514      -0.09086354       0.09120993
H       -0.46033102      -2.65803250       1.60012326     -11.41757423       0.00452579       0.01987320       0.00932829       0.34675612
H       -1.58441925      -3.28625485       2.49392376     -11.96259933       0.00868701       0.04891160       0.04755241       0.28373212
H        3.29863641       1.25216879      -0.02157293     -12.16389067       0.03086128      -0.01273639       0.00537307       0.19997019
H        4.95606584       1.00791036      -0.43301781     -12.23156155       0.02917153       0.00518633      -0.00331889       0.19212260
H        2.09652571      -3.36671451      -1.07998198     -11.30988358      -0.06753841       0.09408083       0.06882097       0.32641825
O       -1.21738366      -2.43220433       2.26045028    -115.30591893      -0.00047894       0.04596684       0.01803942      -0.65440410
H        0.52201406      -0.47018838       2.06108345     -11.45157470      -0.06887429      -0.38009807       0.08222747       0.23706128
H       -0.99220590      -1.48749694      -0.46321792     -11.39320643       0.12524281      -0.13260617      -0.02758509       0.32298006
44
Properties=species:S:1:pos:R:3:energies:R:1:forces:R:3:charge:R:1 charge=0 multiplicity=1 source=products.log spin=1 energy=-2152.8648376598053 free_energy=-2152.8648376598053 dipole="-0.6536171021682516 1.1896802354552385 0.02258547810475177" pbc="F F F"
O       -2.63512641      -0.77052057       0.40022825    -113.30650482      -0.00006989      -0.00007016      -0.00129792      -0.47353256
O       -3.00955191       2.78571869       0.42146156    -113.44079669      -0.00180996      -0.00020588       0.00019593      -0.46569270
O       -1.37388020       0.17858612       3.03353638    -113.31477552      -0.00061052       0.00052559      -0.00039114      -0.46283896
O       -5.06673721       2.20634139      -1.36192089    -113.08855701      -0.00439424       0.00022913       0.00333209      -0.43814930
O        0.07592113      -1.60587309      -0.86322380    -113.33716054       0.00256123       0.00624259      -0.00172883      -0.49713752
O        1.28568170       2.34869395      -0.03532270    -113.05493120      -0.00303153       0.00075710      -0.00424764      -0.43046907
C       -2.78502821       0.44470991       1.05822546     -59.08848756      -0.00062425      -0.00047225      -0.00052949       0.09988436
C       -3.20481192       1.45956246      -0.01575167     -59.07627480      -0.00223305      -0.00021345       0.00024819       0.09040563
C       -1.51509242       0.90543579       1.85048827     -59.32355307      -0.00070212       0.00007950      -0.00066779       0.08824091
C       -4.67400605       1.24961944      -0.40527293     -59.24816808      -0.00280130      -0.00022926       0.00231263       0.06044978
C       -0.27932645       0.82898549       1.00040471     -57.76647734      -0.00027313       0.00028391      -0.00027453       0.06470520
C       -0.02485757       1.81950803      -0.10173962     -59.44204577      -0.00214556      -0.00157347      -0.00248211       0.05839489
H       -3.57641464       0.38444108       1.82656706     -13.02369994      -0.00012046      -0.00155601      -0.00004968       0.04107830
H       -2.58199808       1.26513805      -0.90449655     -13.10319844      -0.00349126      -0.00001835      -0.00068931       0.03564212
H       -1.69632790       1.94800331       2.13718811     -12.60806318      -0.00094911       0.00016369      -0.00108604       0.09161032
H       -4.81533830       0.22486576      -0.76064587     -13.14681123      -0.00319272      -0.00011924       0.00200791       0.04755547
H       -5.31203914       1.42283015       0.46493975     -12.99039213      -0.00153581      -0.00071739       0.00338094       0.06184547
H       -2.19278093      -1.43179621       0.98413215     -11.19925289       0.00099264       0.00019032      -0.00174188       0.34200317
H       -3.70767369       3.31568468       0.00751257     -11.22671689      -0.00256368      -0.00024110       0.00139285       0.32155349
H       -0.09497792       1.30427467      -1.06568299     -12.57183463      -0.00178263      -0.00416638      -0.00113634       0.10215204
H       -0.77205173       2.61721790      -0.06105877     -12.85617152      -0.00340866      -0.00271704      -0.00389904       0.07510894
H       -1.44010017      -0.78522644       2.83957389     -11.15217175       0.00004791       0.00050185      -0.00046027       0.33975300
H        1.34869112       2.93056908       0.73034519     -11.43333882      -0.00380772       0.00267829      -0.00564420       0.29829936
H       -4.63696812       2.00530505      -2.20109942     -11.52429878      -0.00548650       0.00079395       0.00259589       0.29561486
O        2.18693703      -2.41949193      -0.92521991    -113.07282126       0.00264431       0.00564570      -0.00127127      -0.47807598
O        0.89985651      -2.81440854       0.89794281    -114.20590045       0.00069957       0.00192781      -0.00387828      -0.66170335
O        4.94274674      -1.69339810       0.37016191    -112.20794467      -0.00155798      -0.00811573       0.00455057      -0.41626434
N        0.60065445      -0.07263933       1.28342894     -79.20980552       0.00122493       0.00204312       0.00141108      -0.01110998
N        4.36080649       0.37594553      -0.29481709     -80.87125077       0.00599410      -0.00662068       0.00205691      -0.27219545
C        1.66942466      -0.53365400       0.49941560     -58.55897262       0.00171940       0.00282836       0.00208487      -0.00550609
C        2.94272468      -0.72830373       1.31096191     -59.33832840       0.00071075      -0.00019050       0.00285396      -0.09959411
C        1.16554111      -2.00738019      -0.06284998     -59.65588228       0.00183374       0.00388153      -0.00154443       0.43787496
C        4.17286650      -0.76395766       0.40956865     -59.13913087       0.00139621      -0.00536898       0.00320661       0.29311587
H        1.80926662       0.07755059      -0.38695274     -12.83719743       0.00318938       0.00434513       0.00331654       0.08418639
H        3.06439877       0.09893085       2.01484468     -13.14039792       0.00307414       0.00044291       0.00225218       0.05464274
H        2.88278274      -1.66707101       1.86693870     -12.89673218      -0.00261780       0.00029871       0.00376872       0.08821806
H       -0.38609435      -2.57997184       1.58874832     -11.45757067       0.00144226       0.00193603      -0.00242252       0.34714733
H       -1.58125021      -3.19216196       2.43514018     -12.05865988       0.00228883       0.00100734      -0.00172885       0.27799667
H        3.66895310       1.10513101      -0.32615346     -12.21122155       0.00804238      -0.00461060       0.00027524       0.19212849
H        5.10242555       0.39695560      -0.97474433     -12.18256212       0.00644489      -0.01030996       0.00197606       0.19591567
H        2.73608581      -3.06134242      -0.45845125     -11.40700627       0.00172060       0.00346152      -0.00180987       0.32484835
O       -1.26417447      -2.35265902       2.10141969    -115.24662024       0.00171596       0.00134639      -0.00148302      -0.66126254
H        0.40225358      -0.66993228       2.09365544     -11.36658520       0.00075786       0.00249333       0.00140947       0.24927805
H       -0.32266795      -2.39904948      -1.23702423     -11.47656475       0.00070878       0.00341265      -0.00416421       0.31388208
44
Properties=species:S:1:pos:R:3:energies:R:1:forces:R:3:charge:R:1 charge=0 multiplicity=1 source=products.log spin=1 energy=-2152.8538505452234 free_energy=-2152.8538505452234 dipole="-0.4489412454907764 0.15912244606328516 -0.5474798430460068" pbc="F F F"
O       -2.59966064      -0.75625924       0.45685053    -113.47435270       0.01273367       0.00366581       0.02165167      -0.48147167
O       -2.99370067       2.80794381       0.40756228    -113.28172811       0.00466583       0.00596606      -0.00561658      -0.46113141
O       -1.41728987       0.22859898       3.08374760    -113.03293805      -0.01249038       0.01883886       0.01772628      -0.44900465
O       -5.05757819       2.20220334      -1.34948574    -113.06252211       0.00265435      -0.00558677       0.00452116      -0.43930936
O       -0.24973217      -1.55137501      -0.86813411    -114.30922838      -0.11081371       0.02753818      -0.00836682      -0.57442047
O        1.35543300       2.32973678       0.01092434    -113.10161967       0.02187597      -0.00593916       0.01314921      -0.44459068
C       -2.74655342       0.48936790       1.08280436     -59.04266682       0.01336026       0.01431163       0.00959342       0.09321675
C       -3.17427511       1.47595074      -0.01260835     -59.09690415       0.01009980       0.00350504       0.00158379       0.09474991
C       -1.47497182       0.93321576       1.87986592     -59.33841878       0.01400236       0.01011301       0.01017975       0.08728585
C       -4.64474889       1.25050283      -0.39519700     -59.23347433       0.00985300      -0.00282718       0.00442200       0.06103207
C       -0.20852478       0.77730950       1.06365272     -58.13460638       0.02360971      -0.01676583       0.02072967       0.08141829
C        0.04326804       1.79127402      -0.04151297     -59.29579738       0.02196733      -0.01036264       0.01835249       0.05342611
H       -3.54401559       0.44005474       1.84237206     -13.07030037       0.01164445       0.01846758       0.00688730       0.03912409
H       -2.55193774       1.27812960      -0.90180424     -13.15104301       0.00982384       0.00184250       0.00160580       0.03143974
H       -1.62585027       1.98534222       2.14114910     -12.84706232       0.02390538       0.01351063       0.00060150       0.07347780
H       -4.78327155       0.22502034      -0.75116491     -13.19968322       0.01126112      -0.00342614       0.00521539       0.04167595
H       -5.27983782       1.41818984       0.47834140     -13.01150621       0.01093468      -0.00429266       0.00539051       0.06050932
H       -2.29592495      -1.41036036       1.11907819     -11.22014568      -0.03177931       0.00705800       0.04798331       0.33659387
H       -3.70249322       3.32592251      -0.00263168     -11.31255146       0.00095562       0.00113956      -0.00483881       0.31818541
H       -0.03339946       1.28257071      -1.00854621     -12.92178570       0.02049073      -0.00981238       0.01816603       0.07171933
H       -0.70350262       2.58901164       0.00249497     -13.14913940       0.02134799      -0.01106960       0.01829104       0.05021632
H       -1.22222284      -0.70519236       2.88285259     -11.28602562       0.07432372       0.02874089       0.01646685       0.33055427
H        1.41173995       2.90157148       0.78374130     -11.61870423       0.01888301      -0.00770041       0.01438972       0.29186342
H       -4.61635296       2.01951452      -2.18689087     -11.56905028       0.00658664       0.00021041       0.00538812       0.29380495
O        2.37897974      -2.34893544      -0.79499697    -112.39549767       0.06244646       0.02609828       0.04007671      -0.36028860
O        1.09741951      -2.92209662       0.93478221    -112.82429261       0.06188780      -0.03449957       0.00685908      -0.46159903
O        4.93808052      -1.60701331       0.47747408    -112.30477049      -0.00214546       0.02462481       0.04126334      -0.42465219
N        0.53690951      -0.20289345       1.35540151     -79.99235220      -0.02051111      -0.04222805       0.02405149      -0.22904455
N        4.35772823       0.43124034      -0.28398448     -80.85198196       0.00218136       0.01421619       0.00666142      -0.26976425
C        1.69172909      -0.58296718       0.59413906     -58.89035130       0.00768566      -0.01542499       0.03159405       0.03433951
C        2.98672141      -0.55122502       1.42892830     -59.17039906       0.01380024       0.05757538       0.04073603      -0.09247562
C        1.59680744      -2.06422569       0.23357645     -58.81632629       0.14094620      -0.01704528       0.09492613       0.37926356
C        4.19174623      -0.65555734       0.50043313     -59.17997924       0.00674744       0.03273088       0.03377113       0.28753985
H        1.81566104      -0.01171069      -0.33222189     -12.96284059       0.00371769      -0.02719033       0.01946873       0.06360455
H        3.03767105       0.36858808       2.00789711     -13.05609288      -0.00906211       0.08840296      -0.00108198       0.06717650
H        2.98843539      -1.40270919       2.11144260     -12.97678704       0.03193236       0.08701184       0.08311187       0.07706926
H       -0.35887481      -2.58125334       1.78040403     -11.40360130       0.00900328       0.00141371       0.06280062       0.33880966
H       -1.53247917      -3.26438315       2.54151630     -11.83812424       0.01874029      -0.02364565       0.03692440       0.28832718
H        3.66925563       1.16428774      -0.31945924     -12.16598209       0.00448530       0.01645489       0.00362124       0.19876818
H        5.08114271       0.41564154      -0.98333543     -12.20113111      -0.00276473       0.00058495       0.00146334       0.19422051
H        2.54452550      -3.30240039      -0.83809302     -10.89810371      -0.06613811      -0.07631407      -0.13062994       0.34176070
O       -1.26909394      -2.44259498       2.12545578    -115.01266738       0.00013464      -0.02829968       0.01162308      -0.61595508
H       -0.54816368      -1.25937553       0.01740086     -11.43582790      -0.31899705      -0.18618055      -0.68899705       0.32468250
H       -0.72005547      -2.35749390      -1.08981973     -11.71548711      -0.13398622       0.02458887       0.03828348       0.29785219
44
Properties=species:S:1:pos:R:3:energies:R:1:forces:R:3:charge:R:1 charge=0 multiplicity=1 source=Step1_IM2alluasp-rep.log spin=1 energy=-2153.333678104047 free_energy=-2153.333678104047 dipole="-0.35310390147301857 0.022536672459162233 -0.6192966216376137" pbc="F F F"
O       -2.57558839      -0.83815642       0.80591277    -113.59132163       0.01146649      -0.00173686      -0.00638906      -0.48593931
O       -2.89460182       2.72269634       0.34480685    -113.27918919      -0.00172138      -0.00127245       0.00280052      -0.46157301
O       -1.29743844       0.33475442       3.24784921    -113.04227454       0.00123466       0.00825380      -0.00076256      -0.44804112
O       -4.66180211       1.88069704      -1.62815223    -113.06864704      -0.00515940      -0.00264159       0.00090258      -0.44018389
O       -0.84185909      -1.04381333      -1.35584089    -114.72794183      -0.00690961      -0.00520576      -0.01705901      -0.61618764
O        1.53522469       2.25185603       0.28428599    -113.16469552       0.00525359       0.00389632       0.00894801      -0.44585011
C       -2.67099929       0.49170421       1.25103628     -59.00894809       0.00161185      -0.00378893      -0.00223537       0.09436803
C       -2.97410852       1.35425519       0.01917774     -59.13371523      -0.00419895      -0.00094916       0.00088326       0.09073020
C       -1.39200659       0.96522573       2.00611302     -59.33648418      -0.00019648       0.00234084      -0.00364484       0.08967486
C       -4.36407348       1.03059053      -0.54411356     -59.23538907      -0.00535478       0.00059060       0.00354776       0.06134690
C       -0.17387176       0.72397166       1.14475010     -58.15653165       0.00043491       0.00167396      -0.00369750       0.08248795
C        0.20044208       1.78970611       0.12685644     -59.26669193       0.00603314       0.00414166       0.00085411       0.05225618
H       -3.49792585       0.59020279       1.97110321     -13.05191047       0.00096834      -0.01157999      -0.00188299       0.04349801
H       -2.22716023       1.11859793      -0.75691524     -13.12062211      -0.00689625      -0.00083321      -0.00147804       0.03525454
H       -1.51730244       2.03358102       2.20628345     -12.90193728      -0.00375457       0.00280958      -0.00922249       0.06788967
H       -4.41187607      -0.02587452      -0.82585349     -13.19265120      -0.00810233      -0.00010794       0.00646305       0.04192761
H       -5.12526200       1.23610818       0.21182993     -13.01454309      -0.00365482       0.00463520       0.00428023       0.06089686
H       -2.20294867      -1.39554805       1.52678180     -11.10122129       0.01735461      -0.00153874      -0.00876147       0.34796662
H       -3.53817252       3.17743851      -0.21922166     -11.31555279      -0.00426587       0.00179430       0.00845786       0.31807534
H        0.15626721       1.34447749      -0.87241706     -12.89148037       0.00832646       0.00896314      -0.00150708       0.07557448
H       -0.50369188       2.62436819       0.18033024     -13.16593515       0.00595949       0.00391622      -0.00077768       0.04858243
H       -1.05927575      -0.59828053       3.10165568     -11.23792281      -0.00336091       0.00638800       0.00442468       0.33453019
H        1.58265542       2.76054657       1.10082005     -11.60096117       0.00276747      -0.00157897       0.01277660       0.29285862
H       -4.07337392       1.66734761      -2.36175020     -11.56715079      -0.00162282      -0.00054298       0.00295568       0.29427271
O        2.25622146      -2.50202293      -0.83064281    -112.36394751       0.00163316      -0.00619519       0.00286574      -0.35268136
O        0.85147282      -3.02843443       0.81199675    -112.47121161      -0.00020337      -0.00565447       0.00501384      -0.41993142
O        4.95204847      -1.30399651       0.45300019    -112.32033763      -0.00522307      -0.00532798      -0.00323117      -0.42615493
N        0.43446487      -0.36636373       1.32348875     -79.92684881      -0.00355840      -0.00191853      -0.00698781      -0.21795716
N        4.10668239       0.62888066      -0.34492025     -80.87929396      -0.00153863       0.00087483       0.00494644      -0.27321816
C        1.58212670      -0.73014351       0.54871255     -58.96348965      -0.00217781      -0.00368742      -0.00315572       0.03488244
C        2.87054209      -0.49817934       1.36944667     -59.14177075      -0.00380423      -0.00359123      -0.00001980      -0.08984638
C        1.50013208      -2.20487879       0.21300532     -58.81855379       0.00227324      -0.00245906      -0.00088282       0.37059684
C        4.08818728      -0.45743667       0.45358561     -59.19685437      -0.00457215      -0.00122861       0.00031478       0.28644109
H        1.65332120      -0.18840751      -0.40212157     -12.87226146       0.00121027      -0.00572253      -0.00433439       0.06951272
H        2.78089309       0.45713904       1.88756061     -13.02436202      -0.00480851      -0.00462926       0.00164669       0.06846063
H        2.99181410      -1.28876457       2.10997791     -13.04476631      -0.00333299      -0.00389420      -0.00029215       0.07188223
H       -0.43353468      -2.55039293       1.98708073     -11.42664320       0.00904644       0.01511649       0.00449641       0.33508209
H       -1.44377252      -3.30519036       2.89592898     -11.83225134       0.00314820       0.00919590      -0.00648888       0.28837948
H        3.35652961       1.30302742      -0.33309560     -12.09670040       0.00036631       0.00323391       0.00758689       0.20910571
H        4.84667742       0.72757146      -1.01915685     -12.23305033      -0.00063566       0.00346777       0.00634943       0.19196069
H        2.25776972      -3.45632142      -1.00909259     -10.87595197       0.00412546      -0.00571246       0.00249064       0.33971402
O       -1.22534966      -2.43815334       2.54966411    -114.88896047       0.00806241       0.01212607       0.00368752      -0.60472592
H       -1.43831170      -1.02362494      -0.58456531     -11.75620825      -0.00131718       0.00461002      -0.01312762       0.31006768
H       -1.09042299      -1.81959354      -1.86077961     -12.02649585      -0.00490634      -0.01623110      -0.00075428       0.27401359
