44
Properties=species:S:1:pos:R:3 charge=0 multiplicity=1 source=products.log spin=1 pbc="F F F"
O       -1.97531265      -0.92044569       0.41288051
O       -3.03290692       2.54749294       0.20677035
O       -0.29098744       0.25963607       2.20705422
O       -5.22127518       1.62034874      -1.16488063
O       -0.05064404      -1.21121390      -3.70688689
O        1.65614508       2.94516533      -0.29099262
C       -2.32822477       0.34935293       0.88727068
C       -3.07231582       1.18830842      -0.16191850
C       -1.09585468       1.11903280       1.41932547
C       -4.52808369       0.72985968      -0.32341382
C       -0.27854200       1.73098687       0.33293471
C        0.61233642       2.85042547       0.65176029
H       -2.98476719       0.16101122       1.74461642
H       -2.56029482       1.06418716      -1.13535714
H       -1.43939909       1.92461332       2.08390599
H       -4.55920496      -0.30023752      -0.69288854
H       -5.03591736       0.77921351       0.64250445
H       -1.55275789      -0.86362756      -0.45761409
H       -3.86880579       2.93882401      -0.09244108
H       -0.00344080       3.77106360       0.64626320
H        1.00506149       2.74456210       1.67593334
H       -0.55835268      -0.65426242       2.02308205
H        2.09761344       3.79596319      -0.19801227
H       -4.90011616       1.52086737      -2.06859904
O        2.30620242      -2.78558273      -3.44090388
O        1.53310071      -3.84261924      -1.62114080
O        3.20688624      -2.11758960       0.79195153
N        0.01982444      -1.13539209      -2.36690175
N        3.07804893       0.07213536       0.28998359
C        1.29224987      -1.42144673      -1.79720697
C        1.19789257      -1.31601113      -0.27698236
C        1.73304401      -2.83447741      -2.22377539
C        2.58445584      -1.18697775       0.34300687
H        2.05536232      -0.73040807      -2.20149571
H        0.61867969      -0.43108874      -0.01959371
H        0.71032398      -2.21157902       0.10896120
H       -1.26214930       1.92589404      19.39568736
H        1.33517194      -3.66156999       8.68117507
H        2.52426545       0.86632608       0.01229497
H        3.96203481       0.24531440       0.73960697
H        2.59100991      -3.66965678      -3.72632620
O        0.37846068      -3.61827994       8.67258902
H       -0.32047647       1.41507969      -0.69862313
H        0.79040178      -1.50203125      -4.11920178
