44
Properties=species:S:1:pos:R:3:energies:R:1:forces:R:3:charge:R:1 product=T mapped+aligned=T onto=T reactant=T energy=-2153.7231711428435 free_energy=-2153.7231711428435 dipole="-0.3161894703492963 0.9136677453403178 0.1324402559805035" pbc="F F F"
O       -2.85077776       0.14834123      -1.41003080    -113.27063288      -0.00241370      -0.00056859       0.00025736      -0.46720435
O       -2.85461446       1.32446062       1.97949309    -113.28819515      -0.00074196      -0.00368402       0.00210357      -0.46046438
O       -1.39051716      -1.94366833       0.68955116    -112.97060402      -0.00338393      -0.00092336      -0.01391474      -0.43891970
O       -5.29981821       2.42442422       1.25661476    -113.05566907       0.00102177       0.00174858      -0.00116440      -0.43812361
O       -0.29175991      -0.67017392      -1.60545269    -113.37127273       0.00326816       0.00340028      -0.00149213      -0.46832171
O        1.09083748       1.83475970      -1.04682471    -113.27179390      -0.00223950       0.00249548       0.00151331      -0.45745145
C       -2.79337658      -0.08267132      -0.02349964     -59.13724176      -0.00084174      -0.00050063       0.00012960       0.08786794
C       -3.29055201       1.21668086       0.64607635     -59.09595808       0.00064806      -0.00079774       0.00122244       0.09155994
C       -1.42158066      -0.54875965       0.52160768     -59.18455692      -0.00048740      -0.00240881      -0.00385485       0.07801220
C       -4.82339511       1.27621970       0.59339043     -59.24870147       0.00061848       0.00120625      -0.00092475       0.06019670
C       -0.18696489      -0.11124380      -0.30153510     -58.80788116      -0.00005610       0.00082463      -0.00073550       0.18115929
C       -0.10081606       1.42396583      -0.42813811     -59.33414088      -0.00169046       0.00080453       0.00163390       0.05119050
H       -3.49014487      -0.89497629       0.24450145     -12.99679914      -0.00086348      -0.00035382       0.00118879       0.04502745
H       -2.88815007       2.06425497       0.06608577     -13.14063647       0.00263025      -0.00033444       0.00289036       0.03106272
H       -1.32493614      -0.13585831       1.53114941     -12.78939968      -0.00006830      -0.00823864      -0.00264386       0.07765624
H       -5.15946203       1.23059709      -0.44711973     -13.18774154       0.00254290       0.00213754      -0.00182353       0.04289817
H       -5.23682649       0.42728984       1.14365952     -12.99694980      -0.00191345       0.00161025      -0.00189941       0.06176740
H       -2.19514442      -0.42128224      -1.84053240     -11.34783478      -0.00874009      -0.00476644      -0.00001615       0.32214828
H       -3.57166645       1.75585315       2.46843562     -11.26864745       0.00059347      -0.00152471       0.00177244       0.32037139
H       -0.22937571       1.87716847       0.55898618     -13.23418688      -0.00117960      -0.00075847       0.00246137       0.03677833
H       -0.91825502       1.74954222      -1.07712596     -12.96266037      -0.00213856       0.00124091       0.00237289       0.06534075
H       -1.22559876      -2.37099995      -0.16349847     -11.40392537       0.01100409      -0.00164239       0.00072767       0.31722055
H        1.78295765       1.88813870      -0.36732929     -11.27441340      -0.00138608       0.00148784       0.00056654       0.32450636
H       -5.06227372       3.20475117       0.74295353     -11.56032404       0.00135802       0.00150749      -0.00131058       0.29390251
O        2.10289244      -2.05065593      -2.61034887    -112.57838464      -0.00033169      -0.00600830       0.00433959      -0.37320462
O        1.00173009      -3.17586899      -1.02249012    -112.30477197      -0.00500730       0.00010165       0.00423179      -0.41487226
O        5.37030768      -1.85665308      -0.68761833    -112.31361750      -0.00114246      -0.00029103      -0.00121293      -0.42535710
N        0.98343321      -0.64151571       0.41377779     -81.22134800      -0.00007015       0.00186496      -0.00005865      -0.30382613
N        4.79583104       0.18901673       0.06591162     -80.95542563       0.00137355      -0.00044910      -0.00067937      -0.27971974
C        2.08169201      -1.08772668      -0.44433059     -58.84841234      -0.00042494       0.00005057      -0.00049752       0.02945140
C        3.24458961      -1.60354046       0.42787726     -59.31491024       0.00010907       0.00163962      -0.00014905      -0.10505241
C        1.64528807      -2.22189894      -1.37067411     -58.87841619       0.00045366       0.00210439       0.00144537       0.36229445
C        4.58520686      -1.12828119      -0.12648448     -59.19214934      -0.00021436       0.00055117      -0.00060833       0.28515618
H        2.41221475      -0.24823413      -1.06352286     -12.90954647      -0.00038071      -0.00026304      -0.00130707       0.07332711
H        3.12766514      -1.22717831       1.44420034     -12.96142184       0.00096561       0.00257188      -0.00067124       0.07211193
H        3.23887878      -2.69357130       0.45987472     -13.03821237      -0.00018003       0.00206672       0.00111008       0.07377556
H        0.66683566      -1.45305015       0.94902472     -12.20736571       0.00070389       0.00249237       0.00140941       0.18891690
H        0.21374488      -0.10224452      -2.20414486     -11.26209101       0.00074199       0.00649393      -0.00001296       0.32416595
H        4.13065680       0.77176901       0.55291133     -12.01986553       0.00200350       0.00044502      -0.00110503       0.21548170
H        5.64610620       0.60026215      -0.28020832     -12.24242875       0.00145354      -0.00115192      -0.00110904       0.19113269
H        1.87801689      -2.80914214      -3.17212848     -10.97422534      -0.00092940      -0.00620448       0.00482391       0.33521530
O        2.47427551       1.47800024       1.40530526    -114.98304082       0.00121013       0.00110960      -0.00003487      -0.60577721
H        1.89111264       0.69749728       1.29587170     -11.49153736       0.00038044       0.00190525      -0.00083160       0.31362879
H        2.24173510       1.89620018       2.23578022     -11.82583318       0.00374482      -0.00099101       0.00185720       0.28496997
44
Properties=species:S:1:pos:R:3:energies:R:1:forces:R:3:charge:R:1 product=T mapped+aligned=T onto=T reactant=T energy=-2151.669214131059 free_energy=-2151.669214131059 dipole="-0.25220941042289696 1.3053720316539947 0.8766566166334848" pbc="F F F"
O       -2.76721543      -0.51761887      -1.09722069    -111.39215741       0.00514884      -0.00073963      -0.01005179      -0.32003151
O       -3.12844756       1.35495810       1.82127718    -113.13927437      -0.00082227      -0.00023124       0.00001327      -0.44559263
O       -0.87358967      -1.96580726       2.21210077    -112.70766864       0.00209514       0.00481852       0.00251896      -0.39051421
O       -5.36971618       2.58891664       0.81369632    -113.01577426      -0.00176554      -0.00176276      -0.00094424      -0.42832856
O        0.24124855       0.78376522      -3.25327942    -114.39244171       0.00128755      -0.00227350      -0.00162269      -0.58275607
O        1.31199517       1.53293931      -0.07476172    -113.44464220      -0.00053454       0.00214345      -0.00184060      -0.47488177
C       -3.08537601      -0.23512060       0.02500108     -58.47220981      -0.00109253       0.00224600       0.00861360       0.19348988
C       -3.44565642       1.16489509       0.46777350     -59.12925574      -0.00001068       0.00005740      -0.00076030       0.07983732
C       -0.66838270      -0.69840680       1.75213204     -58.57393355       0.00123776       0.00208654       0.00140759       0.05067463
C       -4.96569861       1.36543685       0.25478560     -59.12948901       0.00032264      -0.00150919      -0.00126660       0.06872278
C       -0.13790568      -0.36199568       0.57026523     -58.59799258      -0.00062291       0.00279027       0.00294601      -0.00170541
C       -0.00900645       1.09087736       0.17972939     -59.40061283      -0.00057732       0.00217754      -0.00060141       0.06677818
H       -3.20738707      -0.98699516       0.82041536     -12.92154980       0.00191156       0.00076547      -0.00194597       0.05414232
H       -2.90550487       1.89738132      -0.15545928     -13.02479240       0.00005874       0.00141009       0.00018018       0.04536852
H       -1.04724867       0.03742591       2.44135410     -13.15582635       0.00102262       0.00389505       0.00123314       0.06249137
H       -5.20892108       1.29467967      -0.81012465     -13.22629001       0.00082516      -0.00121906      -0.00195456       0.03940351
H       -5.51331501       0.59502429       0.80327231     -12.96119304       0.00015498      -0.00230017      -0.00200987       0.06580216
H       -0.41177579       0.16993651      -2.90509613     -11.86231637      -0.00061343      -0.00188669      -0.00141575       0.29207294
H       -3.81547933       1.92485719       2.20073302     -11.27146140      -0.00205121      -0.00061464       0.00015214       0.31787405
H       -0.46930614       1.70299171       0.96246423     -13.29009222       0.00000589       0.00276628      -0.00052930       0.02948905
H       -0.55915831       1.24691974      -0.75269565     -13.03619852      -0.00137806       0.00118238      -0.00024467       0.05449860
H       -0.46621092      -2.60810419       1.61533356     -11.51765045       0.00191335       0.00309115       0.00329389       0.29872997
H        1.77770245       1.58241000       0.77689582     -11.41956013       0.00049035       0.00030463      -0.00238668       0.32009885
H       -5.02635944       3.31539052       0.28003304     -11.44289784      -0.00171372      -0.00104929      -0.00050411       0.29955962
O        2.60835211      -2.42633135      -2.74137106    -112.38768117      -0.00220379      -0.00081844       0.00266851      -0.35746598
O        1.11805636      -3.61531495      -1.57421816    -112.26161214      -0.00413387      -0.00569362       0.00469602      -0.41179657
O        4.91715605      -1.83243456      -0.49514133    -112.34755712       0.00082359       0.00410536       0.00017093      -0.43030958
N        0.20146462      -1.30028334      -0.41544859     -80.34366328       0.00036344       0.00058506       0.00093412      -0.21165724
N        4.09882117       0.25285598      -0.75590088     -80.94399936      -0.00144820       0.00317080      -0.00177874      -0.27914476
C        1.54741539      -1.33448260      -0.94129653     -59.02346826      -0.00014509       0.00049082       0.00095273       0.01925502
C        2.63695705      -1.40837800       0.16223959     -59.17669867       0.00031198       0.00244500       0.00034309      -0.10192026
C        1.70713003      -2.58748729      -1.78317643     -58.97707072       0.00355381       0.00737442       0.00054019       0.36057286
C        4.00161665      -1.04693768      -0.39925384     -59.21505126      -0.00024999       0.00317781      -0.00040033       0.28525348
H        1.72128387      -0.46012430      -1.57270088     -12.74363751      -0.00093971       0.00039886       0.00001766       0.08793919
H        2.37606743      -0.70346472       0.95399332     -12.98026523       0.00031621       0.00263540       0.00053535       0.07462868
H        2.67748364      -2.41541611       0.58191062     -13.18162554       0.00147301       0.00251390       0.00101235       0.05986757
H       -0.13468062      -2.24056890      -0.23352176     -12.51455292       0.00025060       0.00169260       0.00312584       0.16122950
H        0.60923321       1.25774463      -2.50267282     -11.85249084      -0.00057458       0.00083186      -0.00134241       0.29016339
H        3.29400954       0.85897013      -0.73683421     -12.09258125      -0.00227770       0.00225261      -0.00252090       0.20727359
H        4.93079633       0.56182895      -1.22961511     -12.25829408      -0.00206795       0.00335056      -0.00281324       0.19001910
H        2.75899777      -3.25259696      -3.22781457     -10.92558314      -0.00150187      -0.00107924       0.00205477       0.33958931
O        2.70329309       1.64678239       2.36898985    -114.65758989       0.00011167      -0.01113676      -0.00128576      -0.57379364
H        2.35376357       1.85172678       3.23888461     -11.63552237       0.00034610      -0.01216332      -0.00104666       0.29728829
H        3.62349992       1.91915306       2.35432520     -11.62498870       0.00269996      -0.02028232       0.00185625       0.29778449
44
Properties=species:S:1:pos:R:3:energies:R:1:forces:R:3:charge:R:1 product=T mapped+aligned=T onto=T reactant=T energy=-2151.9367102884476 free_energy=-2151.9367102884476 dipole="-0.33664085255944154 1.4599276826137897 -0.057369697230377915" pbc="F F F"
O       -4.58816073      -1.32532967       0.36758844    -111.26538287       0.01198709       0.02060247       0.02173750      -0.30805140
O       -3.19284404       1.59209144       1.75854727    -113.14913677       0.00047360      -0.00038649      -0.00278990      -0.44594277
O       -0.67238393      -1.71592580       2.04051325    -112.74693042       0.00204108       0.00231888      -0.00038799      -0.39312668
O       -5.47897037       2.93335492       0.98904957    -113.03273012      -0.00114887      -0.00176313      -0.00101971      -0.42956554
O        3.09611597       2.01790454      -1.89408232    -114.73180535      -0.00575759      -0.00574058      -0.00201627      -0.59969181
O        0.71755789       1.68177360      -0.59528008    -113.42827555       0.00259859       0.00250975       0.00070827      -0.47346669
C       -4.10895167      -0.53058304       1.12490291     -58.42854038      -0.01046854      -0.02023017      -0.01799933       0.19781813
C       -4.08236926       0.96009850       0.87526011     -59.08720497       0.00062172      -0.00090211      -0.00080633       0.08230287
C       -0.73961100      -0.60705205       1.24927532     -58.59368312       0.00211734       0.00339057      -0.00069548       0.04914947
C       -5.50802587       1.53094287       1.06080830     -59.12131576      -0.00023564      -0.00066219       0.00071451       0.06979740
C       -0.27003260      -0.48385806       0.00432047     -58.58097132       0.00181752       0.00265587      -0.00028220      -0.00110732
C       -0.40940682       0.82988912      -0.71900548     -59.38705510       0.00277435       0.00285260       0.00028051       0.06716521
H       -3.66151404      -0.82034719       2.08989453     -12.83647556       0.00368787       0.00054686      -0.00194735       0.06165003
H       -3.76913183       1.13667130      -0.16900369     -12.99039437      -0.00211820      -0.00121182      -0.00006949       0.04829299
H       -1.27509486       0.19308818       1.73406856     -13.13434911       0.00274457       0.00266011       0.00004204       0.06592593
H       -6.18431428       1.08810736       0.32292953     -13.19430906      -0.00056658      -0.00171577       0.00228823       0.04268302
H       -5.86542599       1.29399660       2.06608937     -12.97180326       0.00224034      -0.00017112       0.00057295       0.06495380
H        2.94332468       2.28602901      -2.80127818     -11.94345628      -0.00619273      -0.00022916       0.00454662       0.27874280
H       -3.56022406       2.46521107       1.96436208     -11.29251381       0.00037335      -0.00024766      -0.00347735       0.31672793
H       -1.29220998       1.35404670      -0.33381852     -13.25561896       0.00295484       0.00266488      -0.00015148       0.02969513
H       -0.53690800       0.64879202      -1.78863473     -13.07872067       0.00330642       0.00374529       0.00043409       0.05376554
H       -0.15634250      -2.40588477       1.60298896     -11.54062493       0.00095727       0.00262662      -0.00125057       0.29770667
H        0.98426551       1.70020284       0.33993540     -11.36063400       0.00105434       0.00346340       0.00103343       0.32687748
H       -5.30891743       3.20651980       0.07974997     -11.45093761      -0.00325783      -0.00263222      -0.00108000       0.29878475
O        2.96783183      -2.57750647      -2.78603077    -112.50283118       0.00001944      -0.00195851       0.00085880      -0.36801836
O        1.62939996      -3.80887854      -1.48809410    -112.14672310      -0.00139209       0.00199474       0.00167518      -0.40252232
O        4.77190113      -2.34588227      -0.29190085    -112.50535764      -0.00126369      -0.00069194       0.00109871      -0.45342435
N        0.30700672      -1.53396197      -0.73028343     -80.43110196       0.00040962       0.00295297      -0.00063719      -0.22073851
N        4.60625660      -0.25028735      -1.09328939     -80.95302079       0.00134682      -0.00279597      -0.00310522      -0.28364420
C        1.68180953      -1.42472062      -1.16855598     -59.00641878       0.00073831       0.00120193      -0.00088387       0.02406598
C        2.67829216      -1.20692015       0.00134050     -59.19089535       0.00081882       0.00217703      -0.00132479      -0.10488386
C        2.06683335      -2.74111009      -1.82164282     -58.97185448      -0.00084710      -0.00087816       0.00103485       0.36106585
C        4.12042691      -1.33625195      -0.47114735     -59.28757729       0.00052954      -0.00097881      -0.00071214       0.28196288
H        1.78166610      -0.61153996      -1.89181447     -12.90464126       0.00129119       0.00016234      -0.00209301       0.07324197
H        2.50127935      -0.22455616       0.43834688     -12.99960954       0.00222480       0.00304073      -0.00354714       0.07616458
H        2.50614325      -1.97950601       0.75439051     -13.17162105      -0.00037209       0.00420615      -0.00001499       0.05863486
H        0.14233887      -2.45399556      -0.33302813     -12.52401785      -0.00041105       0.00269533      -0.00102666       0.15982192
H        2.22072002       1.94116430      -1.47213278     -11.57509408      -0.00173222      -0.00339034      -0.00147689       0.32157792
H        4.04833414       0.56753959      -1.31495835     -11.98336544       0.00251564      -0.00230560      -0.00243201       0.22787116
H        5.53856264      -0.30375776      -1.46881828     -12.32439368       0.00104533      -0.00427869      -0.00282759       0.18548651
H        3.28380898      -3.43677982      -3.10907863     -10.93862685      -0.00095116      -0.00258422       0.00191370       0.33963700
O        1.86805513       1.51486433       1.95373617    -114.63401758      -0.00453378       0.00064898       0.00409921      -0.57522020
H        1.50553942       1.21220545       2.78912416     -11.64160994      -0.00626927      -0.01099938      -0.00151813       0.29942850
H        2.69337109       1.97013971       2.13465805     -11.64106311      -0.00517138      -0.00236345       0.01253447       0.29840571
44
Properties=species:S:1:pos:R:3:energies:R:1:forces:R:3:charge:R:1 product=T mapped+aligned=T onto=T reactant=T energy=-2152.8608586078913 free_energy=-2152.8608586078913 dipole="0.15411536300745282 1.0667575611728846 0.21198411349378454" pbc="F F F"
O       -2.60554319      -0.51207527      -1.04025908    -112.99303941       0.01626925       0.00468243      -0.00823799      -0.44334563
O       -2.88306119       1.69955973       1.76800137    -113.23372614       0.00100451       0.00312103      -0.00321575      -0.45943509
O       -1.30189896      -1.94370883       1.31097135    -113.12079624      -0.00164653       0.00173034       0.00005725      -0.45478776
O       -5.46387836       2.29662525       0.97131274    -113.04543620      -0.00289464      -0.00887849      -0.00114316      -0.43928273
O        0.96671535       0.75155878      -2.93526116    -114.59942329      -0.00913165      -0.00765242      -0.00564129      -0.60148573
O        0.92456232       1.97199820      -0.39820962    -113.27157008       0.00209604       0.00393713       0.00111133      -0.44068817
C       -2.76427592      -0.28573578       0.33465675     -59.21862884       0.01017148       0.00168762      -0.00487908       0.08328440
C       -3.38956271       1.11063544       0.59393982     -59.06487652       0.00372154       0.00031963      -0.00354958       0.08661974
C       -1.47657576      -0.55916733       1.14852522     -59.30758575      -0.00317351       0.00301328       0.00121714       0.09057842
C       -4.92044261       1.02557937       0.68978429     -59.23614171       0.00338513      -0.00698879      -0.00260451       0.05950383
C       -0.20650051       0.07181248       0.58524606     -58.48684845       0.00177445       0.00564269       0.00497697      -0.00101126
C       -0.18656434       1.28605558       0.03502475     -58.49292196       0.00167694       0.00504479       0.00543843       0.04835213
H       -3.48330285      -1.04448820       0.66845701     -12.89944958       0.00384961      -0.00198586      -0.00936209       0.06157424
H       -3.15175713       1.75530903      -0.27293469     -13.21838934       0.00137790       0.00209307      -0.00370496       0.02178180
H       -1.64232989      -0.16849190       2.15964247     -12.84445645      -0.00211312       0.00231188       0.00348596       0.07085254
H       -5.33238045       0.60065219      -0.23131610     -13.24530317       0.00513008      -0.00877608      -0.00287167       0.03711325
H       -5.20008624       0.39461240       1.53658540     -13.01686715       0.00620695      -0.00921282      -0.00270853       0.06104254
H        1.52018850       1.12778469      -3.62114782     -11.97727921      -0.00746831      -0.00534074      -0.00510880       0.27769298
H       -3.58570113       2.26939117       2.11626194     -11.33384223      -0.00229823      -0.00026079      -0.00238131       0.31665383
H       -1.08611257       1.84873384      -0.13239239     -13.24305620       0.00202841       0.00476653       0.00271009       0.05090777
H       -1.78921807      -0.09186279      -1.34598435     -11.55497247      -0.00300077      -0.00443426       0.00403955       0.30216467
H       -1.15302610      -2.33751148       0.43176759     -11.37611696      -0.00429229       0.00230859      -0.00215482       0.32707678
H        1.68633390       1.75422372       0.17566048     -11.25004217       0.00519101       0.00230355      -0.00252792       0.32803903
H       -5.34019318       2.86847387       0.20483267     -11.58538136      -0.00553100      -0.00761334      -0.00102906       0.29271596
O        1.95238776      -2.18300146      -2.31315382    -112.28592728      -0.01246442       0.00415998       0.00175634      -0.34771239
O        0.15890366      -2.59552638      -1.04923674    -112.40700318      -0.01446256       0.01257414       0.00351143      -0.41998380
O        4.96883459      -2.13852470      -1.22134993    -112.25194487      -0.00024199       0.00149488      -0.00810124      -0.41681117
N        0.96907521      -0.67926009       0.85170002     -80.83863049       0.00529518       0.00784306       0.01021258      -0.24267630
N        4.61084859       0.00936194      -0.63559725     -80.94175998       0.00038113       0.00005774       0.00751184      -0.27713057
C        1.83864954      -1.03608190      -0.26286406     -59.01126839       0.00021350       0.00268155       0.00523529       0.01584080
C        3.14369974      -1.64920483       0.28270754     -59.31987515       0.00102033      -0.00595432      -0.00021600      -0.10502958
C        1.20237131      -2.02193768      -1.23912142     -58.91172799      -0.00957398       0.00719736       0.00348838       0.36001465
C        4.33659502      -1.31391539      -0.60668727     -59.14588370       0.00033104      -0.00110397      -0.00080805       0.28887243
H        2.06611173      -0.14176151      -0.84845717     -12.65455463       0.00273162       0.00290990       0.00623889       0.09544250
H        3.33578096      -1.24076248       1.27554548     -12.92777057       0.00322386      -0.01364245       0.00490864       0.07467961
H        3.05741701      -2.73284180       0.36427299     -13.09677779       0.00031755      -0.00801193      -0.00855402       0.06727663
H        0.68570446      -1.52316984       1.35279841     -12.28281256       0.00487539       0.00878186       0.01265434       0.18563127
H        0.94221765       1.39535930      -2.21329300     -11.75686384      -0.00508724      -0.00315955      -0.00466236       0.30375855
H        4.15626171       0.65434974      -0.00996712     -12.07960593       0.00081299      -0.00241651       0.01399705       0.20605685
H        5.40439246       0.32517675      -1.16710158     -12.22974697      -0.00018771       0.00343094       0.00768713       0.19162575
H        1.55921066      -2.81401982      -2.93627311     -10.91020320      -0.01971108       0.00774047      -0.00028375       0.34051464
O        2.73757812       1.31935910       1.58657818    -114.96905130       0.00889621      -0.00084835      -0.00532273      -0.60037074
H        2.12194077       0.56839062       1.70246494     -11.44962727       0.00733531      -0.00382707      -0.01060815       0.31476148
H        2.61663213       1.90804427       2.33387224     -11.77367261       0.00396162      -0.00172672      -0.00056183       0.28932183
44
Properties=species:S:1:pos:R:3:energies:R:1:forces:R:3:charge:R:1 product=T mapped+aligned=T onto=T reactant=T energy=-2152.798894405764 free_energy=-2152.798894405764 dipole="0.5367153673445442 1.5541674278779298 0.4386609839086958" pbc="F F F"
O       -2.40403003       0.45274291      -1.26486244    -113.23508751       0.00910071       0.01846708      -0.00797879      -0.45720283
O       -3.04162988       1.35581236       2.14803795    -113.18200950       0.00195993      -0.00221771       0.00011743      -0.45485406
O       -1.61585124      -1.95985685       0.70544864    -113.21682692       0.00120696       0.00409550      -0.01184515      -0.46718550
O       -5.44718027       2.48262789       1.14026566    -113.04138903       0.00087718      -0.00304715       0.00722306      -0.43981186
O       -1.51007435      -2.08019688      -2.02185904    -114.64247660      -0.06101563      -0.06504250       0.02417599      -0.60669032
O        1.15145281       1.88831828      -0.29236850    -113.34906793       0.01010727       0.00451868       0.00156776      -0.46572541
C       -2.72242377       0.09728552       0.06100136     -59.13897546       0.00563779       0.00897626      -0.00901970       0.07991038
C       -3.34591776       1.32200914       0.77522325     -59.06452086       0.00349037       0.00496905      -0.00180164       0.08946655
C       -1.53784302      -0.56751303       0.82214412     -59.37165986       0.00382239       0.00428756      -0.00860900       0.08668341
C       -4.86911671       1.32660466       0.57782700     -59.24988712       0.00357577       0.00274388      -0.00323018       0.05917311
C       -0.18038353      -0.04352051       0.34575001     -58.69612209       0.00549258       0.00538697      -0.00572772       0.01812034
C        0.01336744       1.27914729       0.23411241     -58.43225346       0.00702532       0.00310193      -0.00018189       0.01011951
H       -3.49160577      -0.67862814      -0.02160766     -12.85878397       0.00561143       0.00775104      -0.01681546       0.06824068
H       -2.94137418       2.23247553       0.29379330     -13.21476539       0.00288703       0.00947060       0.00353887       0.02173160
H       -1.66085747      -0.34608627       1.88724979     -12.83554254       0.00327291       0.00218515      -0.00810390       0.07546449
H       -5.10685885       1.22907234      -0.48693126     -13.24513511       0.00437823       0.01137310      -0.00506764       0.03657862
H       -5.30340067       0.48433703       1.12223920     -13.00451427       0.00499449      -0.00388708      -0.01052943       0.06222778
H       -1.70248161      -1.14406598      -2.16678476     -11.84583761      -0.07633396      -0.05419991       0.03346668       0.29996679
H       -3.77262360       1.81680099       2.58396695     -11.35732956      -0.00054899      -0.00842500       0.00292653       0.31483292
H       -0.74053372       1.96925485       0.58639509     -13.56364829       0.00801650       0.00856968       0.00331000       0.01501789
H       -1.60182171       1.00309519      -1.23370132     -11.51101133       0.00847103       0.02175225      -0.00227743       0.30221991
H       -1.68700047      -2.18086084      -0.25486443     -11.30751633      -0.00692707       0.00536792      -0.01179392       0.33451646
H        1.80290168       2.03161743       0.41338671     -11.53861504       0.00956348      -0.00156777      -0.00023728       0.30600722
H       -5.20093872       3.24680809       0.60685950     -11.59717403      -0.00029984       0.00299080       0.01409374       0.29200053
O        3.13543783      -1.42279714      -2.56547388    -112.45191290       0.00593474       0.01634262      -0.00838159      -0.35978465
O        1.23502961      -2.52004988      -2.20010549    -112.40200313       0.01410031       0.00558658      -0.01526658      -0.41832896
O        5.17048163      -2.16963891      -0.64477469    -112.34658259       0.00506398       0.01612191       0.01210901      -0.42710553
N        0.71573972      -1.04057872       0.07225980     -79.98440111       0.00446524      -0.00130685      -0.00774248      -0.17230255
N        4.87291841       0.04656120      -0.37188641     -80.86669298       0.00085473      -0.00161216       0.01871657      -0.26966453
C        1.99320121      -0.91103295      -0.55686536     -59.21831302       0.00550699       0.00516331      -0.00624587       0.01144363
C        3.12080667      -1.41633879       0.37651715     -59.26036751       0.00482117       0.00411883      -0.00699451      -0.10466846
C        2.06002182      -1.71401924      -1.84859396     -58.85724737       0.00930001       0.00873107      -0.01022829       0.35609090
C        4.49075288      -1.24349801      -0.26620413     -59.16592712       0.00359932       0.00708986       0.00878471       0.28869937
H        2.16088122       0.13918900      -0.81241439     -12.58502263       0.00453803       0.00714984      -0.00148424       0.10710734
H        3.07960348      -0.84849603       1.30555751     -13.00963085       0.00299016      -0.00697198      -0.00960760       0.06878516
H        2.96272649      -2.47303147       0.59817581     -13.05624052       0.00659551       0.01187976      -0.01627118       0.07067859
H        0.35031234      -1.97627115       0.20224516     -12.19612335       0.00150800      -0.00185505      -0.01552329       0.19689791
H       -0.57203132      -2.22591823      -2.20623944     -11.79396321      -0.04162541      -0.08226767       0.00517028       0.30959306
H        4.30421304       0.79978105      -0.02540679     -12.12918001      -0.00126188      -0.00931106       0.01397117       0.20019879
H        5.73565558       0.26116336      -0.84248669     -12.20842734      -0.00017335      -0.00127164       0.02836921       0.19301588
H        3.21542581      -2.01223621      -3.33319863     -10.84383824       0.00787238       0.01786593      -0.01069529       0.34365459
O        3.02874324       1.75523649       1.82155955    -114.70829611       0.00233028       0.00087839       0.01260552      -0.57154595
H        2.49505761       1.23928012       2.43230526     -11.58294273       0.00601182       0.01877290       0.01805811       0.30034435
H        3.36125013       2.51541253       2.30431010     -11.63163188       0.00320210      -0.00272489       0.00345536       0.29608282
44
Properties=species:S:1:pos:R:3:energies:R:1:forces:R:3:charge:R:1 product=T mapped+aligned=T onto=T reactant=T energy=-2152.9177915837395 free_energy=-2152.9177915837395 dipole="-0.7608797271129584 0.22243805734353717 -0.08405398633894992" pbc="F F F"
O       -1.90258755       0.03041700      -1.40053138    -113.32237974       0.00321177      -0.00063759       0.00508509      -0.45985510
O       -2.33325383       2.02244315       1.48355851    -113.26629735      -0.00451182       0.00198091       0.00322986      -0.46013363
O       -0.99769841      -1.69482839       1.07469916    -113.21414177       0.00216824       0.00473171       0.01123154      -0.46669074
O       -4.94326016       2.54994916       0.95892059    -113.05577688      -0.00477154      -0.00086690      -0.00753292      -0.43596146
O       -1.95165960      -2.82948886      -1.28040809    -114.61473893       0.00019293      -0.00071798       0.01666953      -0.59394551
O        1.59860611       2.15114810      -0.26347561    -112.92546109       0.00096669       0.00293712       0.00353765      -0.41175719
C       -2.24957617       0.08507784      -0.03172940     -59.14312425       0.00210743       0.00093713       0.00473739       0.07781196
C       -2.88153215       1.45893551       0.31605637     -59.09800487      -0.00026193       0.00066607       0.00167895       0.08609924
C       -1.06256196      -0.30799064       0.88282595     -59.30301269       0.00219558       0.00389547       0.00633260       0.09116513
C       -4.40351508       1.33316736       0.49800517     -59.25307078      -0.00115475      -0.00088732      -0.00341235       0.05869564
C        0.26757165       0.23680687       0.35140113     -58.54415885       0.00145791       0.00218606       0.00338919      -0.01209168
C        0.43858540       1.54327538       0.12106213     -58.65931788       0.00336275       0.00274962       0.00645710       0.03947029
H       -3.01715796      -0.68678423       0.09328024     -12.87603660       0.00295994       0.00011057       0.00552728       0.06640913
H       -2.68823850       2.13935545      -0.53435729     -13.19007167       0.00209125       0.00012621       0.00160184       0.02580494
H       -1.25124980       0.12388918       1.87256216     -12.91705259       0.00211047       0.00772989       0.00461269       0.06160810
H       -4.87400809       1.00391712      -0.43431828     -13.26598267       0.00254380      -0.00334410      -0.00467371       0.03444058
H       -4.61318613       0.60478272       1.28519928     -12.98281940      -0.00292396       0.00027571      -0.00258807       0.06373363
H       -2.02098577      -1.97339823      -1.72220817     -11.78270010      -0.00165100      -0.00262486       0.01298173       0.30114298
H       -3.05089841       2.50953952       1.91866144     -11.28227225      -0.00632947       0.00239550       0.00015800       0.31986818
H       -0.36915924       2.24634745       0.23223334     -13.23569659       0.00306037       0.00305594       0.01196666       0.05486585
H       -1.14516028       0.61949536      -1.53805463     -11.52890475       0.00273338      -0.00002570       0.00511874       0.29874331
H       -1.33753034      -2.16653187       0.28321437     -11.37539258       0.00114337       0.00210125       0.01309872       0.32825561
H        2.35858782       1.59102909      -0.02980806     -11.37655362       0.00231056       0.00336214       0.00154294       0.31289999
H       -4.89039567       3.20886452       0.25693066     -11.53322839      -0.00434275      -0.00239841      -0.00906983       0.29504506
O        1.37971223      -1.53275226      -3.18144172    -112.57685904       0.01525620       0.00032557      -0.00629100      -0.36766949
O        0.81924629      -2.89649677      -1.51195518    -112.46332622      -0.00683214       0.00724172      -0.00813736      -0.41972725
O        5.32237317       0.18854462      -0.96809530    -112.29026970       0.00806089      -0.01045639       0.00404771      -0.42189831
N        1.31578406      -0.69625775       0.25364274     -80.55265776      -0.00041342      -0.00060704      -0.00239237      -0.22456743
N        3.92042537       0.52946578       0.76174544     -81.10764203      -0.00136218      -0.00044227      -0.00473870      -0.28779770
C        2.02125582      -0.85389940      -1.00264696     -59.04824730      -0.00123582       0.00291956      -0.00246069       0.02288722
C        3.46731366      -1.31984881      -0.73406280     -59.24598876      -0.00138529       0.00023521      -0.00472771      -0.10103646
C        1.34810834      -1.88445879      -1.89873010     -58.78620298       0.00086337       0.00448448      -0.00606808       0.35183457
C        4.35240379      -0.14507118      -0.32728205     -59.13576241       0.00218126      -0.00396133      -0.00142721       0.28407494
H        2.04010973       0.08757579      -1.55931593     -12.90798266      -0.00079350       0.00432882      -0.00009467       0.07432481
H        3.45454920      -2.06986857       0.05813450     -13.00805224      -0.00164630      -0.00184032      -0.00720157       0.07224414
H        3.89923512      -1.75839416      -1.63403281     -13.04862570      -0.00282868       0.00205334      -0.00605623       0.07104172
H        0.99778760      -1.59529696       0.61686579     -12.25239639      -0.00182722      -0.00033193      -0.00448667       0.19121387
H       -1.08702638      -3.20087415      -1.49583883     -11.72843143       0.00132625      -0.00013145       0.01401521       0.30788278
H        3.22122317       0.16247433       1.39567087     -11.88108302      -0.00509904       0.00246614      -0.00725711       0.22980611
H        4.51230852       1.26486523       1.11638620     -12.17909283       0.00106293      -0.00383091      -0.00256956       0.19693219
H        0.96543452      -2.20422732      -3.74851772     -10.88694286       0.01843200       0.00018223      -0.00844844       0.33603169
O        2.14276881       0.69843970       3.01211438    -114.57488327      -0.00969373      -0.00481875      -0.00980979      -0.57650110
H        1.37754118       1.13045659       2.62184857     -11.71650852      -0.01073244      -0.00814511      -0.01007370       0.29623376
H        1.84971190       0.29620355       3.83179331     -11.78064015      -0.01200237      -0.01741001      -0.01750265       0.28906561
44
Properties=species:S:1:pos:R:3:energies:R:1:forces:R:3:charge:R:1 product=T mapped+aligned=T onto=T reactant=T energy=-2152.6965931819827 free_energy=-2152.6965931819827 dipole="-0.7659196485158014 0.20790178713769092 0.6525946999665235" pbc="F F F"
O       -2.73778542       0.26291271      -1.87332569    -113.30389987       0.00794421      -0.00325170      -0.00168129      -0.45729856
O       -1.90984140       2.18829747       0.72522583    -113.11358344      -0.00521217       0.00576803      -0.00507924      -0.45407565
O       -1.41882194      -1.82879465      -0.05127614    -113.22239154       0.00755534       0.00408897       0.00768078      -0.47251498
O       -4.17881024       2.49321776       2.12857376    -113.04610392      -0.00727203      -0.00169730      -0.00538786      -0.43512971
O       -1.95271587      -2.23057342      -2.79077048    -114.63494051       0.00517850      -0.00770858       0.00889424      -0.59728369
O        1.14718032       1.84649659      -1.67513161    -112.70857292       0.00328254       0.00732383       0.00621996      -0.40711034
C       -2.68913344       0.18961764      -0.46425864     -59.13666193       0.00368549      -0.00015296      -0.00127345       0.08181034
C       -3.04511962       1.53719454       0.21183685     -59.15505366      -0.00260792       0.00003642      -0.00479986       0.08466242
C       -1.38563745      -0.42440797       0.09173506     -59.23941858       0.00386874       0.00472065       0.00407101       0.09649083
C       -4.04789738       1.31981465       1.36059113     -59.25560967      -0.00337540      -0.00179657      -0.00469350       0.05823480
C       -0.06317017       0.11939419      -0.43908837     -58.53405639       0.00414063       0.00597054       0.00634028      -0.00503699
C        0.05018624       1.24603919      -1.15011989     -58.58094080       0.00338529       0.00622033       0.00367181       0.05932422
H       -3.48778588      -0.52094979      -0.21357328     -12.95335324       0.00485554      -0.00189720      -0.00237685       0.05463278
H       -3.51621501       2.17994258      -0.55453545     -13.16794794      -0.00466758      -0.00365849      -0.00728369       0.02944282
H       -1.40404584      -0.26144263       1.17840073     -13.02484274       0.00046875       0.00767567       0.00382409       0.04786339
H       -5.01447572       0.98373767       0.96997702     -13.29699917      -0.00264096      -0.00466726      -0.00531498       0.03002607
H       -3.65648167       0.56480647       2.04663680     -13.02168825      -0.00166867      -0.00030680      -0.00341573       0.06023220
H       -2.34133978      -1.34566438      -2.67848339     -11.63739174       0.00889873      -0.00552909       0.00511454       0.31421041
H       -2.18475545       2.62981660       1.54439797     -11.35411619      -0.00729760       0.00468470      -0.00477430       0.31501205
H       -0.82017444       1.84330772      -1.37357049     -13.17336865       0.00178410       0.00363069       0.00108467       0.04843990
H       -1.97828876       0.77595479      -2.18666676     -11.39748408       0.00805084      -0.00257860      -0.00063740       0.31304260
H       -1.46368444      -2.05258441      -1.00163090     -11.43750050       0.00788115       0.00105905       0.00831679       0.32408375
H        1.98513053       1.57502296      -1.25674462     -11.44761563       0.00675887       0.00123864       0.00928620       0.32881162
H       -4.60372657       3.17522263       1.59501923     -11.51988891      -0.00896640      -0.00309027      -0.00656747       0.29624835
O        1.34261276      -2.44923545      -2.39557358    -112.40669574      -0.01811086       0.00507665       0.00151883      -0.36561785
O        2.21378571      -3.44709566      -0.59447171    -112.26180683      -0.01330693       0.00055473      -0.00026151      -0.41536342
O        3.66962257       1.33896966      -0.60084582    -112.64400541      -0.00431206       0.01026046       0.00279912      -0.45019894
N        1.00477759      -0.64500954       0.06537312     -80.31941708       0.00656249       0.01015322       0.00888048      -0.21341323
N        4.59976558       0.81650342       1.37271449     -80.90126558       0.00198197      -0.00089469       0.00058785      -0.26699596
C        2.17311641      -1.02486128      -0.71419418     -59.01894025       0.00115383       0.00244211       0.00054299       0.02195452
C        3.40742586      -0.91824602       0.18850432     -59.37368611       0.00925335      -0.00390349      -0.00632578      -0.10572456
C        1.95057555      -2.44613147      -1.20959500     -58.97277915      -0.01051266       0.00230804       0.00035852       0.34809652
C        3.87983317       0.52156877       0.27680549     -59.08556998       0.00131499       0.00296114      -0.00106321       0.28752329
H        2.28076743      -0.37501938      -1.58511943     -12.77870196      -0.00129010       0.00181521      -0.00036417       0.09019417
H        3.17183537      -1.30291807       1.18000851     -12.95052449       0.01602985      -0.01696196      -0.00298537       0.07793441
H        4.22210724      -1.51643593      -0.22312717     -12.98264840       0.01418734       0.00047470      -0.02005741       0.07490613
H        0.64583593      -1.44293864       0.58076681     -12.44543027       0.00768326       0.01194577       0.01256651       0.17120098
H       -2.65492185      -2.80082335      -3.10733490     -11.94490996      -0.00491282      -0.00997278       0.01219355       0.28010952
H        4.56818072       0.23330200       2.19336334     -12.01211810       0.00548179      -0.00696649      -0.00139469       0.21437874
H        4.90262264       1.77075517       1.48900567     -12.16319569      -0.00401368       0.00343938       0.00382587       0.19561828
H        1.08914371      -3.34623385      -2.66437549     -11.02911345      -0.02746529       0.00587648       0.00180607       0.33441666
O        3.07707072       0.13398705       3.71802562    -114.55445507      -0.00237336      -0.01180006      -0.00626690      -0.57514355
H        2.28199075       0.37569474       3.23602820     -11.70314240      -0.00874181      -0.00921520      -0.01237842       0.29466467
H        2.89126353       0.25778696       4.65082504     -11.78475702      -0.00263929      -0.01367590      -0.00520113       0.28734097
44
Properties=species:S:1:pos:R:3:energies:R:1:forces:R:3:charge:R:1 product=T mapped+aligned=T onto=T reactant=T energy=-2152.5439290308595 free_energy=-2152.5439290308595 dipole="-0.467842682697098 1.1928718752267375 1.1282433225039323" pbc="F F F"
O       -3.12195947       0.50182900      -1.86061782    -113.19038220      -0.01041442      -0.01234021       0.02459743      -0.44822912
O       -1.90412808       2.34411491       0.31868533    -113.23904982      -0.00583649      -0.00038071       0.00231264      -0.46091900
O       -1.81540830      -1.86113978      -0.09719625    -113.21595588      -0.00580133       0.02744804      -0.02092354      -0.46611873
O       -3.31226793       2.38288436       2.60693619    -113.06427698      -0.00798178       0.00425150      -0.00713232      -0.43532038
O       -2.27974239      -2.00334122      -2.84502153    -114.60441801       0.03894370      -0.01908865       0.01369027      -0.59226270
O        0.84917192       1.15647013      -2.61327509    -112.76030702       0.00366353       0.01216398       0.01173365      -0.40625713
C       -2.89717877       0.26682222      -0.48958257     -59.13809514       0.00264958      -0.00465193       0.00843777       0.08048637
C       -3.07155335       1.55323046       0.34467935     -59.12079416      -0.00299614      -0.00261270      -0.00085421       0.08465112
C       -1.56852311      -0.47781519      -0.16852954     -59.28060092      -0.00201812       0.00287097      -0.00900333       0.09104444
C       -3.43564062       1.23030214       1.80543482     -59.27138856      -0.00812661       0.00344415      -0.00417585       0.05667628
C       -0.37935583      -0.19963883      -1.08514408     -58.41242455       0.00139296       0.00342931       0.00144886       0.01902174
C       -0.19357429       0.96014975      -1.72611659     -58.43263366       0.00051521       0.00442123      -0.00132457       0.03632595
H       -3.70633390      -0.41583842      -0.20079846     -12.89981811       0.02181731      -0.00460347       0.01476926       0.06269017
H       -3.89755810       2.13113912      -0.10864307     -13.16064351      -0.00072341      -0.00882881      -0.00702604       0.03022703
H       -1.26873422      -0.19345438       0.84945215     -13.04069477      -0.00379984      -0.01111447      -0.02393220       0.04757637
H       -4.44109811       0.80146600       1.86227233     -13.28498226      -0.00802163       0.00461339      -0.00797435       0.03210412
H       -2.72418853       0.51228846       2.21851673     -12.98629123      -0.01211891       0.00497156      -0.00028497       0.06402746
H       -2.74119403      -1.15398041      -2.77851469     -11.69950861      -0.02081797      -0.00657751       0.05209521       0.30880772
H       -1.80925591       2.73276697       1.20235945     -11.35447126      -0.00863894       0.00256331       0.00006065       0.31524104
H       -0.82402215       1.81558385      -1.54405138     -13.43307199       0.00054298       0.00187178       0.00338187       0.03084768
H       -2.48286652       1.15553440      -2.17002029     -11.44755326       0.03838233       0.00202427      -0.01344995       0.30650882
H       -2.04350614      -2.16948441      -1.00098821     -11.32197285      -0.02155604       0.02863078       0.00100915       0.33054246
H        0.98539920       2.09737877      -2.75300741     -11.61628294      -0.00211160       0.00299225       0.02133946       0.29417092
H       -4.01209583       3.00565741       2.37843104     -11.51304359      -0.00757938       0.00222112      -0.00791945       0.29597955
O        3.16497004      -2.67704684      -2.20576239    -112.26999098      -0.00478214       0.00688574      -0.00450521      -0.35209617
O        2.73815616      -3.05649942      -0.05398770    -112.21894461      -0.00709024      -0.00503672      -0.00786889      -0.41442898
O        4.54387666      -0.32078346      -0.51390413    -112.43438109       0.00191982      -0.01085624      -0.00077142      -0.44244029
N        0.49656812      -1.28570305      -1.18552041     -80.35713180      -0.00229957       0.00774713       0.01034406      -0.20850387
N        4.14199547       0.46139800       1.55446200     -80.88077295       0.00810837      -0.00044976      -0.00432813      -0.27728781
C        1.91968039      -1.01922196      -1.05365557     -58.99935014      -0.00086973       0.00301803       0.00334946       0.02171932
C        2.25804106      -0.26899742       0.24561149     -59.22273748       0.00536725      -0.00318542       0.00436391      -0.09949478
C        2.65245276      -2.35296420      -1.02649487     -58.98304450      -0.00482939       0.00084445      -0.00359588       0.36664419
C        3.75731770      -0.06230521       0.37199169     -59.23118316       0.00524325      -0.00539958      -0.00080121       0.28627972
H        2.25980778      -0.45174321      -1.92336889     -12.69571571      -0.00260943       0.00467468       0.00390177       0.09973118
H        1.75672105       0.70051109       0.25098500     -13.11995472       0.00634546      -0.00325979       0.01050261       0.06147617
H        1.90525170      -0.85154073       1.09962907     -13.08300080       0.00834489      -0.00677546       0.00300499       0.06542428
H        0.19308231      -2.02996894      -0.56072740     -12.35028321       0.00704882      -0.00542033      -0.03594631       0.18041012
H       -1.39916897      -1.80948128      -3.17822648     -11.83066043       0.01168780      -0.02105641       0.01966572       0.29249020
H        3.51921546       0.56862164       2.33952671     -12.11687737       0.00977758       0.00296676      -0.00379309       0.21007160
H        5.12770010       0.58467302       1.71719616     -12.27624264       0.00804368      -0.00141756      -0.00647976       0.18839138
H        3.65665018      -3.51236377      -2.14818918     -11.00698183      -0.00570347       0.00628068      -0.00887923       0.33364917
O        3.13702904       0.53254957       4.35107132    -114.50426806      -0.00377266      -0.00073303      -0.00874959      -0.57076947
H        3.82786639       0.02046864       4.77744437     -11.73110178      -0.01118232      -0.00689790      -0.00612846       0.29081653
H        2.43840305       0.65747021       4.99666078     -11.74264449      -0.00811295       0.00035153      -0.01416080       0.29009535
44
Properties=species:S:1:pos:R:3:energies:R:1:forces:R:3:charge:R:1 product=T mapped+aligned=T onto=T reactant=T energy=-2152.1739420324047 free_energy=-2152.1739420324047 dipole="-1.0855894831698423 0.9606325976221156 1.7516503239334575" pbc="F F F"
O       -4.20665876      -0.48909564      -0.31586850    -113.27606354      -0.02795878      -0.05935824       0.09326551      -0.44902356
O       -1.57044889       1.78517935       0.61278805    -113.25786352       0.02405385      -0.02932461       0.01801623      -0.45584101
O       -2.47626324      -0.88595476      -2.16994094    -113.19275162      -0.03420682       0.06053108      -0.08947535      -0.46145936
O       -3.51597412       2.87320182       2.15980282    -113.10490292      -0.00867800       0.01723500      -0.02396676      -0.43620811
O       -0.17895692      -2.72800073      -3.04968362    -114.30629064       0.01385938      -0.04024465      -0.01219589      -0.59290004
O        0.71532757       1.68543580      -2.10573187    -112.90091629      -0.00247877       0.01886127       0.01187478      -0.43334256
C       -2.89621064      -0.20524980       0.13644394     -58.95289241       0.01750551      -0.02752385       0.03371165       0.09115365
C       -2.87518151       1.30530026       0.41551986     -59.01880882       0.02020283      -0.01773982       0.00719192       0.10316739
C       -1.89591820      -0.81863889      -0.88796512     -59.08995739      -0.00942663      -0.01380872      -0.03747013       0.08914255
C       -3.69507833       1.55613123       1.69781444     -59.19942527      -0.00346790       0.01022498      -0.00419609       0.06048574
C       -0.51742009      -0.20533641      -1.06687834     -58.10239962       0.00050052      -0.00083066      -0.00346103       0.09395814
C       -0.49507302       0.98212727      -2.00658753     -59.28848722      -0.00173783      -0.00156768      -0.01830118       0.06709967
H       -2.71358790      -0.70799730       1.09399057     -13.17156486       0.07585833      -0.01745259       0.05658992       0.03096027
H       -3.35157692       1.83208465      -0.42924876     -13.13984241       0.03704911      -0.02308685      -0.01166773       0.03474135
H       -1.71109862      -1.84179670      -0.52246323     -12.90208280      -0.01789824      -0.07566549      -0.07767061       0.05222121
H       -4.74751581       1.31112098       1.53051716     -13.20863226      -0.00236674       0.01579682      -0.01365165       0.04132996
H       -3.30067396       0.91616015       2.49235140     -13.00861668      -0.01787373       0.01954590       0.01350831       0.05826959
H       -4.29880064      -1.44819117      -0.39267745     -11.27553406      -0.06516485       0.00613684       0.10754961       0.31196039
H       -1.62812267       2.44067285       1.32693733     -11.25390916       0.01255595      -0.01576658       0.00635648       0.31986374
H       -1.31199094       1.65601986      -1.72560467     -13.07477299      -0.00016189      -0.01100593      -0.01693194       0.04748415
H       -0.72020585       0.60556266      -3.01010669     -12.77464753       0.09382760      -0.02456315      -0.03396958       0.08293293
H       -3.42542171      -0.71367892      -2.06784271     -11.33533057      -0.03091365       0.06774984      -0.07673630       0.31640633
H        0.86612844       2.15127033      -1.27748393     -11.63457542       0.00378980      -0.01204958       0.05285118       0.29315014
H       -4.02315475       3.48013466       1.61004916     -11.49608406       0.00203888       0.01137379      -0.04191824       0.29703164
O        2.66390313      -2.42305405      -2.12596475    -112.37197848      -0.01892524       0.01752547       0.01189193      -0.36363652
O        2.65647183      -2.81514143       0.06932965    -112.05405988       0.00707793       0.01756593       0.01475630      -0.39802901
O        4.53020497      -0.57249301      -0.52296476    -112.37222067      -0.00051055       0.00816964       0.00853802      -0.43612633
N        0.41443188      -0.89198761      -0.57284503     -80.03950827       0.00118737       0.02106601       0.03127576      -0.23773366
N        4.54854872       0.33764038       1.53721963     -80.91661333       0.01617493       0.01243650       0.00793805      -0.27670485
C        1.82455654      -0.68227153      -0.75685282     -58.87594989       0.00006924       0.02044629       0.02294166       0.03704987
C        2.41707964      -0.02107403       0.48707769     -59.22321928       0.00713749       0.01390628       0.02346476      -0.09138927
C        2.44556340      -2.08297460      -0.85627135     -58.89197433      -0.00351639       0.02080910       0.01406104       0.37192823
C        3.93346616      -0.12609518       0.43354410     -59.17723214       0.00718640       0.01144006       0.01291390       0.28863800
H        2.08588504      -0.12851204      -1.66562586     -12.94300900       0.00013834       0.02208648       0.02359562       0.07266055
H        2.11278436       1.02360449       0.55110159     -13.14889419       0.00833026       0.01364765       0.03261992       0.05715568
H        2.05032221      -0.55251396       1.36633659     -12.91722601       0.01191393       0.00885305       0.02213821       0.08029791
H        0.62498492      -2.43663901      -2.60672767     -12.03307149      -0.10668262      -0.02148533      -0.14860007       0.28577613
H       -0.84177267      -2.04654868      -2.90721739     -12.01049904      -0.01908157      -0.05870219      -0.01933833       0.28839876
H        4.03501486       0.57694518       2.37151326     -12.05308981       0.02226837       0.01411336       0.01160299       0.21523308
H        5.54822025       0.23993849       1.59965379     -12.23541009       0.01651758       0.00969838       0.00099592       0.19154143
H        3.08075178      -3.29775170      -2.18786552     -10.99025168      -0.02054854       0.01728289       0.00676007       0.33899788
O        3.37893473       0.59901235       4.24268237    -114.54419696       0.00670867       0.00419481       0.00081387      -0.57038566
H        3.84126769      -0.09294606       4.72102542     -11.69508541      -0.01043173      -0.01020015      -0.00098634       0.29268447
H        2.62326003       0.85639848       4.77472168     -11.71410004      -0.00392181      -0.00032132      -0.01668639       0.29105912
44
Properties=species:S:1:pos:R:3:energies:R:1:forces:R:3:charge:R:1 product=T mapped+aligned=T onto=T reactant=T energy=-2152.702154169388 free_energy=-2152.702154169388 dipole="-1.330388118379993 -0.3616207219723208 -0.05717238620985848" pbc="F F F"
O       -3.49539372      -1.03171278       0.72484527    -113.07196075      -0.00356311       0.00399920       0.00039916      -0.44399105
O       -1.13635036       1.72792426       0.37778307    -113.29795706       0.00247203      -0.00495454       0.00889732      -0.46146308
O       -2.74522445      -0.47974115      -1.88981346    -113.29447974      -0.00193573      -0.00546622       0.00327481      -0.46822197
O       -3.15631608       2.92826322       1.88427730    -113.09847784       0.00637902       0.00284321       0.00088755      -0.44296718
O       -2.45886090      -1.92373646      -4.27582732    -114.56583246       0.00188519      -0.00115081       0.00211011      -0.57064425
O        0.63946722       1.66191793      -1.83528084    -112.93618550      -0.00767231       0.00095333       0.00351937      -0.44674195
C       -2.26146124      -0.43069238       0.42934044     -59.08009676      -0.00284728       0.00000243       0.00274837       0.10024580
C       -2.39782688       1.10121519       0.48892989     -58.96154662       0.00125224      -0.00036826       0.00250413       0.09502026
C       -1.78570174      -0.91792081      -0.95808040     -59.11383453      -0.00181512      -0.00242209       0.00411787       0.09696180
C       -3.03860900       1.52377798       1.81794163     -59.20978733      -0.00332223       0.00242550      -0.00092364       0.06080320
C       -0.35817546      -0.47195641      -1.21524815     -58.20033583      -0.00205031      -0.00148787       0.00344695       0.08004698
C       -0.11984679       0.56788603      -2.29182594     -59.28129019      -0.00360314      -0.00184092       0.00205214       0.06907786
H       -1.54218397      -0.76245821       1.18176692     -12.95623833      -0.00578957      -0.00090426       0.00362136       0.06429385
H       -3.04199383       1.42512157      -0.34680447     -13.15220134       0.00719955       0.00124637       0.00013309       0.03455712
H       -1.77972414      -2.01742274      -0.90563831     -13.01856498      -0.00061474      -0.00215897       0.00637536       0.04364020
H       -4.00110864       1.02331542       1.95655384     -13.19868561      -0.00697838       0.00935691      -0.00761977       0.04245645
H       -2.37192818       1.24129783       2.63632691     -13.01691688      -0.01078429      -0.00319411       0.00228041       0.06032931
H       -4.03497419      -0.95173047      -0.07430868     -11.38074370      -0.00239488       0.00406546      -0.00244958       0.31151405
H       -1.21843186       2.57490755       0.84315904     -11.34236318       0.00447498      -0.00674860       0.01217966       0.31600726
H       -1.08839138       0.91178328      -2.67820589     -13.15430786      -0.00449194      -0.00538768      -0.00042991       0.04117726
H        0.44428879       0.11500195      -3.11452302     -13.05669285      -0.00008455      -0.00150390       0.00330826       0.05722795
H       -2.58180388      -0.91838341      -2.74180079     -11.39232435       0.00403093      -0.00772379       0.00207222       0.32512348
H        0.21155353       1.96579281      -1.02159092     -11.59403005      -0.00762334       0.00008038       0.00088305       0.30941970
H       -3.84151148       3.21362842       1.26927492     -11.59037037       0.01285542       0.00839782      -0.00268094       0.29219333
O        2.77864160      -2.53231923      -1.71926134    -112.41875566       0.00298392       0.00673353      -0.00230642      -0.36826736
O        2.99674519      -2.62392239       0.49371193    -112.08757117      -0.00130101       0.00072757      -0.00215637      -0.40125874
O        4.51055232       0.09738563      -0.18183102    -112.38285817       0.00001563      -0.00541999      -0.00118636      -0.44050836
N        0.49807162      -1.00945440      -0.46215396     -80.13487486      -0.00083951       0.00066210       0.00333881      -0.24444692
N        4.22751752       0.92906793       1.88910462     -80.88402241       0.00393973      -0.00006426      -0.00272618      -0.27923426
C        1.90313720      -0.69947861      -0.50749780     -58.87695575      -0.00167452       0.00209513       0.00112264       0.04110481
C        2.28691875       0.07942728       0.75168836     -59.24711546       0.00080454       0.00155011       0.00078742      -0.09366419
C        2.63043008      -2.03945569      -0.48833015     -58.88616934       0.00014425       0.00299314      -0.00131522       0.37202003
C        3.78372572       0.35017681       0.75451723     -59.21603511       0.00134671      -0.00152915      -0.00084293       0.28927869
H        2.21698986      -0.14850019      -1.40150109     -12.91209457      -0.00376312       0.00313423       0.00079205       0.07332647
H        1.74198391       1.02323143       0.77971449     -13.03185195       0.00246996       0.00259580       0.00133245       0.07072959
H        2.01979682      -0.51182162       1.62803458     -12.96624711       0.00059871       0.00192768       0.00095043       0.07589146
H       -3.19421607      -1.83323643      -4.88589152     -11.64389290       0.01004338      -0.00271607      -0.00871940       0.29683420
H       -2.15339843      -2.83221068      -4.32176963     -11.65160355       0.01186744      -0.00067767      -0.00180389       0.29693642
H        3.65518890       1.00801955       2.71611777     -12.11182673       0.00501557       0.00214581      -0.00216493       0.21158244
H        5.21544961       1.10041426       1.97782171     -12.28888191       0.00455766      -0.00256031      -0.00390428       0.18830958
H        3.25316911      -3.37863425      -1.68520692     -11.05267807       0.00468934       0.00759507      -0.00383280       0.33064511
O        3.03521123       0.60133473       4.57444035    -114.47395350      -0.00198890      -0.00110483      -0.00624274      -0.56877102
H        3.59175448      -0.11968290       4.87783189     -11.72311656      -0.00817554      -0.00647952      -0.00793355       0.29269912
H        2.16284124       0.46357812       4.94921145     -11.74642527      -0.00571268       0.00033307      -0.01389609       0.29072654
44
Properties=species:S:1:pos:R:3:energies:R:1:forces:R:3:charge:R:1 product=T mapped+aligned=T onto=T reactant=T energy=-2152.261428158525 free_energy=-2152.261428158525 dipole="0.009552842356948858 -0.018884999759804788 -0.10054999354806479" pbc="F F F"
O       -3.63390487       0.11608967      -0.95912296    -112.98696397       0.01099965       0.01841523      -0.02798828      -0.43815712
O       -0.93860347       0.38988161       1.39900546    -113.12623303      -0.01434666      -0.01527388       0.02258522      -0.45223441
O       -2.16083508      -1.58009323      -2.19368046    -113.16288233       0.01384986      -0.02223571       0.02034648      -0.44695956
O       -2.53954385       2.79930968       1.85521249    -113.04659438      -0.00659806      -0.01370217       0.00831464      -0.44261907
O       -4.65447940      -2.09684915      -3.49693745    -114.47606953       0.00232892       0.01017731       0.00708543      -0.58995708
O        0.20094368       1.74834197      -1.48985798    -112.96698625       0.01565725      -0.00412413      -0.00799529      -0.43953339
C       -2.62831527      -0.39890718      -0.13279714     -59.03782175      -0.00444088       0.00366667      -0.01032433       0.10948840
C       -2.00072855       0.80921648       0.57759617     -59.08490102      -0.00483451      -0.00294677       0.00389285       0.09593815
C       -1.58599416      -1.25655111      -0.93189341     -58.94093025       0.00451718       0.00233080       0.01053810       0.09224947
C       -3.04201676       1.55141880       1.43142191     -59.22758303      -0.01389777      -0.00349852      -0.00961879       0.05889274
C       -0.24449555      -0.58304216      -1.11702250     -58.10002569       0.00266130       0.00432278       0.00453751       0.09341044
C       -0.17523608       0.54559184      -2.13432049     -59.08465452      -0.00295330       0.00538963       0.00603184       0.07495371
H       -3.06229971      -1.05504895       0.63701192     -13.14653860      -0.02288837      -0.00292086      -0.02025608       0.03099703
H       -1.63661266       1.50610060      -0.19123060     -13.00740286       0.01067973       0.00296835       0.00939978       0.04924152
H       -1.39846320      -2.17506497      -0.36259205     -12.99151031       0.00568620       0.01773764       0.02416921       0.05095474
H       -3.97776989       1.66158060       0.87565098     -13.17317273      -0.00608902       0.01265059      -0.02707777       0.04421286
H       -3.22485051       0.98161040       2.34563395     -13.03215782      -0.03465655      -0.01202397      -0.01555409       0.05885787
H       -4.06929811      -0.61103768      -1.42337079     -11.25763313       0.01914501       0.00984583      -0.02918590       0.32529125
H       -0.68033897       1.16173843       1.92029849     -11.36859709      -0.02261291      -0.02290432       0.03316432       0.31258544
H       -1.15511026       0.65143271      -2.61904594     -13.17363736      -0.00159729       0.01795547       0.02398647       0.04192546
H        0.57051896       0.26836135      -2.89650945     -13.27757527      -0.02532938       0.00168910      -0.00069240       0.02865319
H       -1.53125224      -2.13123409      -2.67057300     -11.52766446       0.02067891      -0.02246715       0.03447838       0.29777749
H        0.36379231       2.42463571      -2.15508686     -11.61017401       0.01825610       0.00020277      -0.02474895       0.29264842
H       -2.44889887       3.37019627       1.08370640     -11.61584984       0.01327240      -0.00625895       0.01212619       0.29199961
O        3.13407002      -2.11058073      -1.83759617    -112.51140449       0.00657824       0.00117625       0.00011588      -0.37339158
O        3.48711997      -2.30576199       0.35351845    -112.03312596       0.00076101       0.00351565      -0.00509756      -0.39173882
O        4.46207177       0.69435996      -0.09169160    -112.49055330       0.00004592       0.00442208      -0.00596100      -0.44879168
N        0.70623005      -1.06728718      -0.45387678     -79.86982562       0.00482433       0.00224144      -0.00072281      -0.21255195
N        4.15257898       1.09615812       2.09909543     -80.89020310       0.00251899      -0.00009067      -0.00565440      -0.27664368
C        2.03698692      -0.53385264      -0.46657260     -58.85981712       0.00534085       0.00083235      -0.00315571       0.04404505
C        2.29963765       0.20276079       0.84784494     -59.26386736       0.00440397       0.00042586      -0.00539510      -0.09474543
C        2.97552526      -1.73202452      -0.56539938     -58.84111023       0.00366457       0.00179961      -0.00302467       0.37134142
C        3.74629944       0.67147612       0.88840476     -59.20365690       0.00234663       0.00167184      -0.00591408       0.28901046
H        2.24962255       0.13502914      -1.31031069     -12.97393631       0.00600774      -0.00006037      -0.00354052       0.06161614
H        1.63310575       1.06321423       0.90777773     -12.94145607       0.00481395      -0.00158408      -0.00632651       0.07919902
H        2.08940620      -0.46634536       1.68076296     -12.92651696       0.00335186       0.00109187      -0.00577822       0.08108667
H       -3.80298474      -1.89410649      -3.09069848     -11.78939839       0.01415005       0.00096936       0.02794809       0.30001675
H       -4.50484343      -2.13494013      -4.44336388     -11.97594430      -0.02326152       0.01483471       0.02603164       0.27616599
H        3.59600298       0.98921666       2.93476904     -12.07286588       0.00389168      -0.00217899      -0.00636983       0.21499006
H        5.10956007       1.39158850       2.20065316     -12.26189016       0.00113525       0.00118075      -0.00509334       0.18982729
H        3.74018653      -2.86725590      -1.88868306     -11.00923915       0.00646090       0.00182277       0.00067898       0.33234171
O        2.96083152       0.54422586       4.74119750    -114.50706733      -0.00595439      -0.00534333      -0.01329028      -0.56823960
H        3.52785611      -0.09686677       5.17608165     -11.70776376      -0.01521993       0.00033024      -0.01316304       0.29282694
H        2.05453093       0.32331277       4.96659232     -11.70822655      -0.00334789      -0.00605310      -0.01350208       0.29301808
44
Properties=species:S:1:pos:R:3:energies:R:1:forces:R:3:charge:R:1 product=T mapped+aligned=T onto=T reactant=T energy=-2152.440620611974 free_energy=-2152.440620611974 dipole="-0.6442267362146603 0.24129028069478756 0.7230245136424885" pbc="F F F"
O       -3.18838233       0.42420331      -1.71606965    -113.26849366       0.00095518       0.00527723      -0.00219702      -0.46856450
O       -1.65415494       0.97420980       1.40397657    -113.17061349      -0.00852219      -0.01293138       0.01335649      -0.45322114
O       -1.70910254      -2.06660195      -1.27143599    -113.24671411       0.00165717      -0.00840099       0.00239090      -0.45683553
O       -3.95033871       2.55672312       1.98385396    -113.05132165      -0.00657772      -0.00048838       0.00457730      -0.43965610
O       -3.51807057      -1.85854838      -3.33378497    -114.62160787       0.00762452       0.01546266      -0.00298233      -0.59343331
O        0.87415967       1.70343265      -1.83951793    -112.89815665      -0.00431560       0.00333155       0.00136737      -0.43878041
C       -2.80507035      -0.08278655      -0.46789717     -59.16411679      -0.00201273       0.00052098       0.00017418       0.10493733
C       -2.69884804       1.13188650       0.47650626     -59.06854923      -0.00063578      -0.00239668       0.00597149       0.09651131
C       -1.50898140      -0.91617113      -0.45272551     -58.97971807       0.00013399      -0.00167644       0.00275271       0.08814716
C       -4.01938949       1.37354695       1.22119922     -59.24536116      -0.00651432       0.00247234      -0.00282974       0.05939766
C       -0.19695569      -0.24745297      -0.84735628     -58.12306555      -0.00109213      -0.00057424       0.00057266       0.09598771
C       -0.24900635       0.84775971      -1.88605856     -59.22057780      -0.00000884      -0.00955630      -0.00902923       0.06876517
H       -3.58541026      -0.76380134      -0.08766483     -13.15398306      -0.00670630       0.00115845      -0.00291324       0.02711677
H       -2.50346611       2.01368927      -0.15886046     -13.08680077       0.01127740      -0.00111940       0.01087027       0.03556565
H       -1.37251175      -1.24845723       0.58465869     -12.80568342       0.00176122       0.00054102       0.00718026       0.06682013
H       -4.85244775       1.39805372       0.51046350     -13.24457137      -0.00058123       0.00982897      -0.00978465       0.03568612
H       -4.17838292       0.56694408       1.94108526     -13.01681387      -0.01765961      -0.00061496      -0.00791286       0.06004645
H       -3.34292035      -0.31133637      -2.34133349     -11.22466798       0.00345485       0.00794101      -0.00733660       0.33748750
H       -1.81019827       1.62236469       2.10567926     -11.33566783      -0.00943954      -0.01233247       0.01472556       0.31446809
H       -1.16835004       1.42318475      -1.74637863     -13.01104820      -0.01088470      -0.01716767      -0.02448503       0.05791146
H       -0.32110519       0.34796127      -2.86652611     -13.08174169       0.01873613      -0.02017517      -0.00944683       0.04570963
H       -0.89062082      -2.57546676      -1.23229727     -11.44382715       0.00161096      -0.01198063       0.00851261       0.31022377
H        0.76601828       2.38703614      -2.50852021     -11.65616107      -0.00130004      -0.00482045      -0.00798512       0.29040163
H       -3.91529891       3.31035174       1.38350852     -11.57623739       0.00162506       0.00280823       0.00864751       0.29310310
O        3.17351544      -1.70263961      -2.25517153    -112.36963345      -0.00211011       0.00739108      -0.00054701      -0.36557218
O        3.06322618      -2.73384475      -0.28293498    -112.12213750      -0.00466007       0.00047615      -0.00093005      -0.40648599
O        4.88325041      -0.33948053      -0.17268306    -112.40366887       0.00319522      -0.00765232       0.00065629      -0.44104309
N        0.78959462      -0.81156035      -0.30684975     -79.96534086      -0.00066312       0.00589822       0.00649422      -0.23004867
N        4.81997373       0.45543096       1.93505176     -80.89798708       0.00771724      -0.00005969      -0.00114810      -0.27753016
C        2.17398012      -0.48408416      -0.48776210     -58.90039780      -0.00049988       0.00523507       0.00345523       0.03738444
C        2.73804330      -0.12313375       0.88851853     -59.25251043       0.00402112       0.00321921       0.00332888      -0.09433832
C        2.87226402      -1.75963719      -0.95819563     -58.91692933      -0.00216689       0.00387715       0.00047264       0.37441464
C        4.24980395      -0.02011155       0.81237555     -59.19270394       0.00489366      -0.00188898       0.00093887       0.28887470
H        2.37248020       0.30689073      -1.21548270     -12.93806370      -0.00204754       0.00596984       0.00339633       0.07441540
H        2.30045375       0.81095051       1.23844785     -13.05810758       0.00714584       0.00496540       0.00537199       0.06844532
H        2.47376318      -0.92310473       1.58271064     -12.87824300       0.00347380       0.00283660       0.00313156       0.08267883
H       -2.81846031      -2.14400493      -2.72494771     -11.61985993       0.00756436       0.00424704      -0.00453050       0.31588136
H       -4.23261780      -2.49269445      -3.25425237     -11.89556571      -0.00672463       0.00902394       0.01405888       0.28261790
H        4.28065383       0.63645660       2.76887660     -12.06706217       0.00834137       0.00421679      -0.00091978       0.21553866
H        5.82346007       0.51308015       1.98054849     -12.27518792       0.00838399      -0.00322744      -0.00242347       0.18880561
H        3.67285127      -2.49223476      -2.51780634     -11.06252199      -0.00253419       0.00699768      -0.00193441       0.33163613
O        3.21626117       0.61921437       4.41921086    -114.51801967      -0.00055600       0.00394305      -0.00537087      -0.56887571
H        3.55105597       0.55049492       5.31560674     -11.72737870      -0.00331342      -0.00615744      -0.00063912       0.29059174
H        2.39528372       0.12328552       4.38023699     -11.68380115      -0.00204649       0.00558136      -0.01705827       0.29481372
44
Properties=species:S:1:pos:R:3:energies:R:1:forces:R:3:charge:R:1 product=T mapped+aligned=T onto=T reactant=T energy=-2152.6036720620104 free_energy=-2152.6036720620104 dipole="-0.010281134008499771 0.6896487809499255 1.3745638964874962" pbc="F F F"
O       -2.91839125       0.28447216      -1.85975354    -113.31962723       0.00426203      -0.00064590      -0.00430074      -0.47489182
O       -2.23401626       1.56748413       1.32039202    -113.33069353      -0.00848159       0.00913388      -0.00054497      -0.46605443
O       -1.55624845      -2.02521222      -0.30647619    -113.26933524       0.00264773      -0.00130870       0.01266571      -0.45944035
O       -4.77998471       2.54235020       1.52628504    -113.07419629      -0.01274005      -0.00188784      -0.00321440      -0.43902043
O       -2.71622710      -2.27460113      -2.80514763    -114.61589035       0.00339143      -0.00715753       0.00754099      -0.59091509
O        0.98110185       1.93170121      -1.51174044    -112.90589566       0.00319458       0.00230831       0.00089825      -0.43536893
C       -2.82870419       0.00648816      -0.49075876     -59.21302278      -0.00040582       0.00201760      -0.00194309       0.09747825
C       -3.12675548       1.32940222       0.25265412     -59.07331571      -0.00702795       0.00352228      -0.00321996       0.08996003
C       -1.49629464      -0.63613591      -0.04701602     -59.07143782       0.00059006       0.00395770       0.00465196       0.08774530
C       -4.55976587       1.35297960       0.80101055     -59.25036889      -0.00902557      -0.00050834      -0.00595296       0.05899984
C       -0.18887045      -0.07145076      -0.59681263     -58.16696616       0.00065232       0.00238906       0.00236788       0.08417963
C       -0.23584498       1.33412429      -1.13192080     -59.39789045       0.00066290       0.00918492       0.01260625       0.05589155
H       -3.59535643      -0.73260093      -0.20581545     -13.06729444      -0.00058217       0.00103831      -0.00429440       0.03771927
H       -3.02479684       2.13557920      -0.49330000     -13.03324315      -0.00920508       0.00333671      -0.00414621       0.04253815
H       -1.44060718      -0.48649063       1.04431062     -12.81520328      -0.00063035       0.01113641       0.00688129       0.06380380
H       -5.28006325       1.23156466      -0.01367150     -13.23455787      -0.00760873      -0.00034912      -0.00791535       0.03797467
H       -4.68726275       0.54202887       1.52261210     -13.01276805      -0.00900737      -0.00232799      -0.00799675       0.06045000
H       -2.93859274      -0.56752103      -2.34871355     -11.24732374       0.00262982      -0.00248046      -0.00239647       0.33687279
H       -2.73165674       2.07604526       1.97959659     -11.31050294      -0.01528449       0.00429826       0.00084424       0.31746961
H       -0.75705883       1.95217353      -0.39475680     -13.01046977       0.01025050       0.01193216       0.02672213       0.05713522
H       -0.85098153       1.30122170      -2.03870944     -12.67008692      -0.01308041       0.01962991       0.01396175       0.09553835
H       -0.62805026      -2.32095761      -0.29315354     -11.28268238       0.00476721       0.00248615       0.01413417       0.32495275
H        1.46884282       2.19564505      -0.72555254     -11.65565384       0.01859963      -0.00747806       0.04033376       0.28977190
H       -4.78326332       3.28574723       0.91206311     -11.54203478      -0.01287774      -0.00041079      -0.00145509       0.29522138
O        3.08012602      -1.71462169      -2.63284198    -112.33773254      -0.00009731      -0.00990594      -0.00351243      -0.36081687
O        2.81210053      -2.98059567      -0.81432135    -112.15069714       0.00130382      -0.00545574       0.00088429      -0.40708820
O        4.90811197      -0.77844478      -0.50622154    -112.38474350       0.00121715      -0.00221865      -0.00593867      -0.43509312
N        0.75913322      -0.89800738      -0.49269101     -80.20993675       0.00045639      -0.00353802      -0.00572367      -0.25404589
N        4.95821310       0.06012880       1.58611179     -80.92972824       0.00139417      -0.00142379      -0.00616747      -0.27795101
C        2.15379372      -0.65017711      -0.73803414     -58.86925527       0.00099184      -0.00454879      -0.00593298       0.03796934
C        2.81653120      -0.45872711       0.63367587     -59.20475239       0.00112980      -0.00094051      -0.00618404      -0.09134262
C        2.73686801      -1.91570609      -1.36421046     -58.93356358       0.00064201      -0.00618232      -0.00281719       0.37254315
C        4.32887273      -0.41417769       0.49438462     -59.19334700       0.00132814      -0.00168693      -0.00612325       0.28663161
H        2.36530768       0.18618377      -1.41036880     -13.01271080       0.00106304      -0.00634877      -0.00854514       0.06610279
H        2.44498675       0.43957215       1.12820852     -13.18795285       0.00144587       0.00045998      -0.00766195       0.05393394
H        2.56114339      -1.32578299       1.24868927     -12.88784735       0.00126465       0.00044127      -0.00391538       0.08168076
H       -1.94155096      -2.39998992      -3.35647423     -11.88649176      -0.00071312      -0.00727392      -0.03128516       0.28502111
H       -2.43071041      -2.44915153      -1.89121513     -11.58011884       0.03815822       0.00395152       0.02735287       0.31882946
H        4.45481497       0.30288783       2.42637421     -12.05597672       0.00146687      -0.00164855      -0.00599568       0.21476714
H        5.96439224       0.07228050       1.59719567     -12.23632820       0.00144279      -0.00245483      -0.00591995       0.19125332
H        3.51231852      -2.50261068      -2.99760118     -11.02748448      -0.00062936      -0.01132170      -0.00180222       0.33382608
O        3.29201687       0.56880518       3.99187386    -114.58752588       0.00071978      -0.00084663      -0.00637298      -0.57063176
H        3.49292959       1.01268816       4.81847398     -11.69063348       0.00233265       0.00097948      -0.00334965       0.29209345
H        2.63945143      -0.10859298       4.18336871     -11.66638400      -0.00060828      -0.00185409      -0.00721733       0.29430586
44
Properties=species:S:1:pos:R:3:energies:R:1:forces:R:3:charge:R:1 product=T mapped+aligned=T onto=T reactant=T energy=-2152.6923960256627 free_energy=-2152.6923960256627 dipole="-0.01581067220033919 0.467851862242703 0.8543216148785521" pbc="F F F"
O       -2.63725465       0.13210120      -1.68299470    -113.25496732       0.00875085      -0.00458900       0.00505891      -0.46777378
O       -2.61798014       1.88732756       1.35467581    -113.26452904      -0.01331116       0.01259396       0.00025188      -0.46404433
O       -1.52296879      -1.80233552       0.61560471    -113.01003488       0.00053869       0.00821183       0.03366235      -0.44977759
O       -5.20226472       2.64080255       1.04164994    -113.05661781      -0.01555122       0.00262029      -0.01221018      -0.43910060
O       -1.31898952      -2.38413289      -2.19709604    -114.68316571       0.05875163      -0.00184555       0.01591917      -0.59343434
O        1.14297713       2.08123245      -0.68248656    -112.96851140       0.00416962       0.00567549       0.02480450      -0.44096427
C       -2.78218392       0.06054279      -0.28716040     -59.10631367       0.00052511       0.00250097       0.00633704       0.08953934
C       -3.28240174       1.44283461       0.19046870     -59.09724149      -0.00697905       0.00459639      -0.00229180       0.09070860
C       -1.49855691      -0.41558490       0.44628097     -59.30695772      -0.00083126       0.00848776       0.01669937       0.08629107
C       -4.78983471       1.41584012       0.47695451     -59.24047359      -0.00929291       0.00207607      -0.00893359       0.05984755
C       -0.20870017       0.04813662      -0.20550372     -58.23776053      -0.00177914       0.00455352       0.01213186       0.08239682
C       -0.14620133       1.51428028      -0.56765821     -59.36806028       0.00153459       0.00665556       0.01707136       0.05260109
H       -3.54541683      -0.69386026      -0.03190522     -13.08719976       0.00084647       0.00168575       0.00503075       0.03565244
H       -3.08489263       2.15368338      -0.62886100     -13.06394589      -0.00536208       0.00123074      -0.00539821       0.04088204
H       -1.52701656       0.01293406       1.45535360     -12.74757875      -0.00343520       0.01948078       0.01376336       0.07895913
H       -5.34623314       1.17851179      -0.43498640     -13.25592423      -0.00515548      -0.00106457      -0.01180808       0.03578555
H       -4.99980497       0.65932804       1.23744777     -13.00974004      -0.01062926       0.00305464      -0.00801329       0.06095977
H       -2.26350771      -0.71172217      -1.99161645     -11.34537073       0.02585103      -0.00360828       0.01111440       0.33031012
H       -3.27550710       2.37630109       1.87371105     -11.34289339      -0.01896828       0.01024476      -0.00277538       0.31670855
H       -0.74677428       2.07896869       0.15179604     -13.06353432      -0.00072428       0.00525144       0.01660242       0.05500972
H       -0.60816253       1.61376036      -1.55653936     -12.81364887       0.00600095       0.01044714       0.01429482       0.08265512
H       -1.15782793      -2.19038365      -0.19661284     -11.33102571      -0.01638346       0.00563208       0.00033079       0.32597736
H        1.54854223       2.10703903       0.19043196     -11.65939574       0.00183815      -0.00128233       0.02789423       0.28992897
H       -5.10963389       3.33571332       0.37956281     -11.56309836      -0.01287248       0.00186336      -0.01307468       0.29452850
O        3.24366975      -1.40087999      -2.68005132    -112.18529850       0.00829765       0.00539330      -0.00067598      -0.34440859
O        1.58528857      -2.74089051      -2.04330968    -112.46941473      -0.05167964       0.00385228      -0.04567864      -0.43020840
O        4.98874180      -1.46821649      -0.57275482    -112.35632447       0.00314615      -0.02189316      -0.00149034      -0.43234204
N        0.64878282      -0.85912752      -0.35895810     -79.90590919      -0.00492883       0.00166269       0.00316019      -0.23335010
N        4.92554619      -0.01785011       1.14443434     -80.90505541      -0.00123546      -0.00159875      -0.01255520      -0.27802273
C        2.00408281      -0.70736750      -0.80148616     -58.92341658      -0.00627054      -0.00252728      -0.00481832       0.03705678
C        2.85107229      -1.01194248       0.45641262     -59.18583275       0.00057194      -0.01548550      -0.00698288      -0.09263374
C        2.24916726      -1.74438919      -1.88259254     -58.90525231      -0.01973877       0.00211872      -0.01933788       0.36899143
C        4.35309365      -0.86930706       0.26553335     -59.22459799       0.00068077      -0.01350778      -0.00727438       0.28498157
H        2.27237998       0.27241661      -1.21511692     -13.00345482      -0.00510558       0.00183698       0.00144142       0.06475461
H        2.51335742      -0.34272390       1.24852261     -13.06975705       0.00139191      -0.01994899       0.00108307       0.06407952
H        2.63233884      -2.03877137       0.75758477     -12.93154753       0.00153658      -0.02028772      -0.01357153       0.07908472
H       -0.35993814      -2.52482292      -2.20065362     -11.63056273       0.06597788      -0.00699315       0.04249218       0.31965077
H       -1.72701109      -3.24333122      -2.31950485     -11.81950521       0.02421767      -0.03142896      -0.02038422       0.28970640
H        4.41132697       0.39004497       1.90932918     -12.11097452      -0.00152105       0.00275794      -0.01413045       0.20859640
H        5.92661188       0.08794390       1.12407168     -12.25846254      -0.00108379      -0.00036646      -0.01180724       0.18927280
H        3.45905495      -2.10881285      -3.30772958     -10.93905412      -0.00074540       0.00600162      -0.00879718       0.33871468
O        3.13743700       0.64140560       3.48945256    -114.61022566      -0.00230984       0.00210346      -0.01336490      -0.57375716
H        2.96811613       1.33531117       4.13038470     -11.70821326       0.00562275       0.00699661      -0.00995093       0.29143268
H        2.89747771      -0.19000966       3.90591678     -11.67154742      -0.00435621      -0.00315865      -0.01381879       0.29475356
44
Properties=species:S:1:pos:R:3:energies:R:1:forces:R:3:charge:R:1 product=T mapped+aligned=T onto=T reactant=T energy=-2153.049264216045 free_energy=-2153.049264216045 dipole="-0.01923777729096209 0.4192898154069681 0.4589738449049394" pbc="F F F"
O       -2.42455567      -0.14231516      -1.42739588    -113.31813496       0.00564221      -0.00355360       0.00568792      -0.47456342
O       -2.76081364       1.97152805       1.41223229    -113.25677307      -0.00511200      -0.00069017       0.00511537      -0.46251620
O       -1.38196995      -1.70078262       1.11882799    -113.08654103       0.00179637       0.00105754       0.01143976      -0.45498160
O       -5.16800886       2.77996055       0.37527237    -113.04985979      -0.00112038       0.00274807      -0.01306196      -0.43944706
O       -1.23129341      -2.69234784      -1.53348600    -114.79627108      -0.00048202      -0.00334991       0.00571836      -0.60302921
O        1.46386313       1.99330155       0.27512224    -113.08912994       0.00929776      -0.00572540       0.02644256      -0.45089856
C       -2.64339020       0.00961027      -0.04996436     -59.08872138       0.00309647      -0.00103170       0.00542065       0.09294971
C       -3.15772707       1.44614194       0.16486064     -59.09249024       0.00225659      -0.00018044       0.00155451       0.09338692
C       -1.39096346      -0.33963343       0.80567945     -59.31707190       0.00191579       0.00059601       0.00868772       0.08727912
C       -4.68989255       1.48733227       0.07648220     -59.23112019       0.00122519       0.00175346      -0.00867380       0.06072175
C       -0.10177944       0.08830447       0.13345587     -58.19829127       0.00244366      -0.00091061       0.00870199       0.08230793
C        0.13705820       1.58060702       0.01434065     -59.35503024       0.00801358      -0.00039740       0.01608734       0.05625508
H       -3.42061438      -0.69510332       0.29103569     -13.09508619       0.00284430      -0.00069891       0.00568313       0.03515080
H       -2.73606148       2.06655188      -0.64375143     -13.11932517       0.00832987      -0.00085671       0.00311081       0.03536708
H       -1.49043923       0.19304154       1.75754222     -12.84569565       0.00038568       0.00284259       0.00748020       0.07140475
H       -5.02049922       1.14479611      -0.90880166     -13.24043103       0.00743169       0.00112753      -0.01157364       0.03780786
H       -5.11225575       0.83618619       0.84627198     -13.01219468      -0.00444678       0.00291055      -0.00977390       0.06037633
H       -2.06810598      -1.03886560      -1.57850012     -11.31276788       0.00449962      -0.00472752       0.00748331       0.33316522
H       -3.47430492       2.56303260       1.69738852     -11.34454795      -0.00719274       0.00081404       0.00009781       0.31674747
H       -0.56302434       2.11178161       0.66815405     -13.12877405       0.00538353      -0.00126472       0.01426932       0.04878305
H       -0.07035732       1.86777235      -1.02289705     -12.98149145       0.01509168       0.00512458       0.01505221       0.06500632
H       -1.19059203      -2.18460645       0.29399689     -11.29057558       0.00065268      -0.00056498       0.01222262       0.33270467
H        1.70533595       1.72015347       1.17079669     -11.53412583       0.00425386      -0.01311846       0.02735991       0.30646086
H       -4.91019998       3.38030184      -0.33350092     -11.58046245       0.00323339       0.00174343      -0.01303864       0.29370975
O        3.04870988      -0.94584229      -2.84972993    -112.30018623      -0.00070202       0.00332316      -0.00066837      -0.34930389
O        1.37403018      -2.35332541      -2.44161494    -112.46651054      -0.00307496       0.00537225      -0.00862900      -0.42348199
O        5.11467074      -1.55711828      -0.77235507    -112.33539887       0.00216347      -0.00690544       0.00010119      -0.42759729
N        0.64890457      -0.85140937      -0.24188615     -79.93257960      -0.00078743      -0.00171876       0.00231718      -0.22836123
N        4.73138592       0.06761267       0.74207938     -80.86755283      -0.00408389       0.00442154      -0.01366556      -0.27104776
C        1.96645048      -0.69128361      -0.78234660     -58.93619673      -0.00141595      -0.00172026       0.00110564       0.03437750
C        2.91877285      -1.40348583       0.21294062     -59.16004451       0.00092887      -0.00907375      -0.00203357      -0.09434292
C        2.07245552      -1.42810034      -2.10148099     -58.87556229      -0.00235552       0.00290657      -0.00365547       0.36694592
C        4.36400099      -0.99082751      -0.01105301     -59.19979608      -0.00018129      -0.00388368      -0.00500994       0.28637254
H        2.28779970       0.34594899      -0.93898748     -12.97827745      -0.00086040       0.00007763       0.00571682       0.06701625
H        2.60853978      -1.12948115       1.21992393     -12.96848242       0.00151825      -0.01469794       0.00310455       0.07383703
H        2.81455830      -2.48177702       0.09280054     -13.00439924       0.00344941      -0.01160084      -0.00853489       0.07473970
H       -0.29133193      -2.55336671      -1.75594316     -11.53400165       0.00041012       0.00047213       0.00619330       0.32930364
H       -1.47818761      -3.54048565      -1.90681866     -11.86259898       0.00657909       0.00524076      -0.00615150       0.28698225
H        4.07100718       0.54590196       1.33137594     -12.11733794      -0.00749787       0.01069439      -0.02142961       0.20340344
H        5.65513654       0.45085734       0.63084974     -12.22980596      -0.00566030       0.01100244      -0.01820452       0.19169517
H        3.18947652      -1.48456130      -3.64523471     -10.88110458      -0.00110178       0.00576003      -0.00375223       0.34103225
O        2.32594208       0.65026995       2.86724591    -114.71519220      -0.02136710       0.00768805      -0.01944092      -0.57861527
H        1.50353641       0.18183169       3.03410799     -11.64738579      -0.04408844      -0.02731622      -0.02619907       0.29895222
H        2.77473551       0.72189059       3.71296631     -11.67193735       0.00868771       0.03631066      -0.01265757       0.29394379
44
Properties=species:S:1:pos:R:3:energies:R:1:forces:R:3:charge:R:1 product=T mapped+aligned=T onto=T reactant=T charge=0 multiplicity=1 energy=-2152.9322266183553 free_energy=-2152.9322266183553 dipole="-0.07085246663733977 0.8413822463637022 0.10602360318892104" pbc="F F F"
O       -2.42315420       0.11403386      -1.34958671    -113.40927429       0.00447003      -0.00145361      -0.00146401      -0.48478822
O       -2.79177367       1.78011935       1.77001746    -113.28560442       0.00073695       0.00382886      -0.00521786      -0.46344403
O       -1.35648560      -1.69848461       1.20382503    -112.99611580       0.00132840       0.00213408       0.00170476      -0.44437648
O       -5.23456560       2.62278664       0.85343722    -113.05426821      -0.00065683      -0.00061177      -0.00645078      -0.43940428
O       -1.42769329      -2.21704146      -2.34170461    -114.64244854      -0.00315949      -0.01139382       0.01536922      -0.59233698
O        1.40148957       1.94040805      -0.42405017    -113.18350638       0.00379890       0.00226936       0.01269788      -0.45721869
C       -2.60168879       0.04423658       0.03681096     -59.10289889       0.00177717       0.00056540      -0.00171167       0.09282030
C       -3.17228967       1.41593255       0.46169069     -59.07145084       0.00065943       0.00083653      -0.00434633       0.09259260
C       -1.31741409      -0.34931414       0.83186572     -59.28948263       0.00071587       0.00147314       0.00049937       0.08201191
C       -4.70346682       1.41316755       0.36020252     -59.24472124       0.00063045      -0.00112581      -0.00358947       0.06043516
C       -0.03137521      -0.01278343       0.10951423     -58.23642896       0.00090796       0.00172474       0.00113862       0.08019795
C        0.09382536       1.42110376      -0.35251134     -59.37287999       0.00298789       0.00303059       0.00590238       0.05894083
H       -3.33304364      -0.73797748       0.29401878     -13.05418948       0.00146983       0.00082880      -0.00217697       0.04174395
H       -2.77620444       2.16192981      -0.24757644     -13.10000365      -0.00025980      -0.00033655      -0.00604067       0.03612001
H       -1.35056132       0.22834372       1.76581570     -12.74234745      -0.00075191       0.00154411       0.00008757       0.07790021
H       -5.00730018       1.22252837      -0.67378217     -13.22596081       0.00033765      -0.00411002      -0.00289872       0.03907777
H       -5.11050920       0.63129880       1.00629124     -13.01462910       0.00188562       0.00009435      -0.00139193       0.06054342
H       -2.12504025      -0.76486161      -1.67550506     -11.31691156       0.00310785      -0.00291332       0.00115826       0.33570650
H       -3.56023688       2.21719819       2.16732320     -11.33555177       0.00082172       0.00507050      -0.00639157       0.31734290
H       -0.52857246       2.04911870       0.29641249     -13.15600986       0.00080691       0.00139231       0.00541449       0.04164461
H       -0.32113519       1.46869527      -1.36571578     -12.81821835       0.00721198       0.00631339       0.00439732       0.08219985
H       -0.82075090      -2.18852935       0.56210848     -11.33281577      -0.00990270      -0.00070970      -0.00675365       0.32065115
H        1.77234884       1.93097527       0.47352602     -11.46518397       0.00112884      -0.00328905       0.01376054       0.31125076
H       -4.98550830       3.33963076       0.25878232     -11.57624971      -0.00189674      -0.00189872      -0.00847049       0.29367534
O        3.38308140      -1.43271575      -2.42257933    -112.34568933      -0.00214516       0.00353771      -0.00511306      -0.35272663
O        1.34536565      -2.32277331      -2.35758745    -112.49937623      -0.00412783       0.00795317      -0.00667439      -0.42553022
O        5.36394476      -1.86853865      -0.12940800    -112.28188156      -0.00040883       0.00306262      -0.00368507      -0.42112726
N        0.77812508      -0.97671452       0.00056996     -80.15995620      -0.00051862       0.00125176      -0.00325790      -0.24810682
N        4.67410405       0.07271927       0.78388022     -80.88341060      -0.00165868      -0.00057174       0.00039318      -0.27279745
C        2.10891163      -0.91286018      -0.53107304     -58.96864760      -0.00087561       0.00228084      -0.00405111       0.03057388
C        3.03693302      -1.64899249       0.46807541     -59.17159615      -0.00059660       0.00078161      -0.00587774      -0.09461921
C        2.20481078      -1.63840829      -1.85740330     -58.84378570      -0.00209907       0.00518567      -0.00523543       0.36667247
C        4.48053782      -1.18413653       0.33083500     -59.18077300      -0.00099946       0.00143820      -0.00299846       0.28752171
H        2.47429664       0.10629353      -0.70763804     -12.84142521      -0.00092994       0.00256062      -0.00240423       0.07747530
H        2.68758739      -1.43923281       1.47937925     -12.99621257      -0.00133451      -0.00212391      -0.00640354       0.06930556
H        2.98368402      -2.72548655       0.30524505     -13.03756913       0.00031003       0.00190933      -0.00854914       0.07206391
H       -0.47051911      -2.32162284      -2.21130931     -11.60602208       0.00282353      -0.00106020       0.00437664       0.32262168
H       -1.56420736      -2.21720490      -3.29122475     -11.87578859      -0.01494673      -0.02534534       0.01408432       0.28632703
H        3.93346867       0.60759847       1.20645285     -12.11848961      -0.00198842      -0.00202755       0.00093002       0.20379842
H        5.59220660       0.47839588       0.71815052     -12.22124802      -0.00180384      -0.00051648       0.00264869       0.19261575
H        3.49147660      -1.95823078      -3.23151797     -10.86623380      -0.00341906       0.00544692      -0.00638098       0.34108680
O        2.02207123       1.17944259       2.23124701    -114.75847076       0.00382868      -0.00404743       0.01009374      -0.57834497
H        1.41371870       0.43294410       2.22315735     -11.60899268       0.00344060      -0.00057258       0.01522713       0.30256086
H        1.77151038       1.73700665       2.97154077     -11.63950610       0.00929355      -0.00240703       0.00765106       0.29734268
