44
Properties=species:S:1:pos:R:3 product=T mapped+aligned=T onto=T reactant=T pbc="F F F"
O       -2.76721543      -0.51761887      -1.09722069
O       -3.12844756       1.35495810       1.82127718
O       -0.87358967      -1.96580726       2.21210077
O       -5.36971618       2.58891664       0.81369632
O        0.24124855       0.78376522      -3.25327942
O        1.31199517       1.53293931      -0.07476172
C       -3.08537601      -0.23512060       0.02500108
C       -3.44565642       1.16489509       0.46777350
C       -0.66838270      -0.69840680       1.75213204
C       -4.96569861       1.36543685       0.25478560
C       -0.13790568      -0.36199568       0.57026523
C       -0.00900645       1.09087736       0.17972939
H       -3.20738707      -0.98699516       0.82041536
H       -2.90550487       1.89738132      -0.15545928
H       -1.04724867       0.03742591       2.44135410
H       -5.20892108       1.29467967      -0.81012465
H       -5.51331501       0.59502429       0.80327231
H       -0.41177579       0.16993651      -2.90509613
H       -3.81547933       1.92485719       2.20073302
H       -0.46930614       1.70299171       0.96246423
H       -0.55915831       1.24691974      -0.75269565
H       -0.46621092      -2.60810419       1.61533356
H        1.77770245       1.58241000       0.77689582
H       -5.02635944       3.31539052       0.28003304
O        2.60835211      -2.42633135      -2.74137106
O        1.11805636      -3.61531495      -1.57421816
O        4.91715605      -1.83243456      -0.49514133
N        0.20146462      -1.30028334      -0.41544859
N        4.09882117       0.25285598      -0.75590088
C        1.54741539      -1.33448260      -0.94129653
C        2.63695705      -1.40837800       0.16223959
C        1.70713003      -2.58748729      -1.78317643
C        4.00161665      -1.04693768      -0.39925384
H        1.72128387      -0.46012430      -1.57270088
H        2.37606743      -0.70346472       0.95399332
H        2.67748364      -2.41541611       0.58191062
H       -0.13468062      -2.24056890      -0.23352176
H        0.60923321       1.25774463      -2.50267282
H        3.29400954       0.85897013      -0.73683421
H        4.93079633       0.56182895      -1.22961511
H        2.75899777      -3.25259696      -3.22781457
O        2.70329309       1.64678239       2.36898985
H        2.35376357       1.85172678       3.23888461
H        3.62349992       1.91915306       2.35432520
