47
Properties=species:S:1:pos:R:3:energies:R:1:forces:R:3:charge:R:1 energy=-2292.0907177128265 free_energy=-2292.0907177128265 dipole="-0.3915906316978537 1.292411507938832 0.30684197398768204" pbc="F F F"
O       -2.62780436       0.34485710      -1.29541174    -113.34527987      -0.00409577      -0.00272643       0.00352892      -0.47228783
O       -2.80034313       1.14533609       2.17858497    -113.28226171      -0.00388965      -0.00242976       0.00411259      -0.46038663
O       -1.35740141      -2.03650722       0.59235839    -112.99447289       0.00237286       0.00151154       0.00613450      -0.44616304
O       -5.26338870       2.25603023       1.52908656    -113.05655690      -0.00293469      -0.00160265       0.00056421      -0.43839052
O       -0.10742471      -0.52015713      -1.40397886    -113.48637603      -0.00383022       0.00004223      -0.00024594      -0.49258872
O        1.16292379       2.01514977      -0.42266867    -113.44105733      -0.00030539       0.00142045      -0.00035566      -0.46760974
C       -2.68726095      -0.06957397       0.04960624     -59.11549022      -0.00108333      -0.00121351       0.00381634       0.08740419
C       -3.22654182       1.14416635       0.83802781     -59.09880563      -0.00177905      -0.00144233       0.00349274       0.09238549
C       -1.36255852      -0.63277783       0.62768635     -59.14789640       0.00049465       0.00165478       0.00261505       0.07849305
C       -4.75982065       1.17341468       0.78039427     -59.24908310      -0.00157630      -0.00122104       0.00080031       0.05980855
C       -0.07865467      -0.09956348      -0.05671118     -58.90319583      -0.00091223       0.00139007      -0.00040183       0.18465176
C       -0.02233032       1.43721204       0.06998357     -59.32391634      -0.00132921       0.00163468      -0.00251842       0.04819480
H       -3.40870517      -0.89701753       0.14951478     -13.02465491       0.00028286      -0.00220620       0.00591307       0.04358859
H       -2.84838087       2.05465619       0.34186587     -13.13901068      -0.00055620      -0.00134967       0.00461469       0.02941525
H       -1.33921186      -0.36230920       1.68834373     -12.87362361       0.00213863       0.00378339       0.00211196       0.06936307
H       -5.09091068       1.20554314      -0.26260610     -13.20959102       0.00025397      -0.00049908       0.00030695       0.04019534
H       -5.15769878       0.27514627       1.25847465     -12.99576360      -0.00247773      -0.00139335      -0.00047983       0.06249482
H       -2.02332794      -0.25506660      -1.76105201     -11.31225404       0.00065825       0.00161168       0.00415116       0.32537605
H       -3.52488445       1.52779545       2.69617616     -11.27778229      -0.00489256      -0.00349861       0.00333887       0.31973030
H       -0.18806177       1.70032598       1.11921843     -13.22238830      -0.00337236       0.00304846      -0.00312998       0.03782694
H       -0.83943936       1.84992904      -0.52469478     -12.98255439      -0.00009556       0.00080545      -0.00478234       0.06243508
H       -0.97855431      -2.34461259      -0.24654716     -11.40133996      -0.00333457       0.00022962       0.00394554       0.32357175
H        1.86747739       1.87729149       0.23502764     -11.25719894      -0.00144839       0.00127090       0.00078776       0.32811457
H       -5.03387111       3.07957899       1.08362585     -11.56632866      -0.00223761      -0.00151961       0.00155413       0.29310803
O        2.30389773      -1.92197422      -2.42254729    -112.46320115      -0.00511621       0.00275871      -0.00274639      -0.36472233
O        0.98822331      -3.05787602      -1.01680824    -112.38226445      -0.00144364      -0.00057248      -0.00075617      -0.42526613
O        5.41482196      -2.07582566      -0.46083006    -112.28856171      -0.00053410       0.00186145      -0.00095271      -0.42334762
N        1.05919965      -0.70675675       0.66219972     -81.25059506       0.00020130       0.00232532      -0.00197428      -0.30752161
N        4.93856052      -0.02472455       0.34453428     -80.94180162      -0.00018235       0.00043705       0.00153379      -0.27916829
C        2.16672020      -1.10571860      -0.20636367     -58.83713989      -0.00076250       0.00125207      -0.00261258       0.03143915
C        3.29053595      -1.73968538       0.63745521     -59.32327171      -0.00104413       0.00037291      -0.00274222      -0.10522193
C        1.72262605      -2.13136115      -1.24768164     -58.91276402      -0.00070553       0.00297766      -0.00275590       0.36591798
C        4.66067145      -1.32387972       0.11053306     -59.19272604      -0.00014836       0.00055102      -0.00108024       0.28585539
H        2.53484276      -0.22344969      -0.73835940     -12.91063137      -0.00017356       0.00094295      -0.00283190       0.07246323
H        3.19794231      -1.40943514       1.67245864     -12.97243081      -0.00188881      -0.00118118      -0.00223488       0.07066924
H        3.21343356      -2.82723547       0.61359403     -13.05141996      -0.00100234       0.00034265      -0.00428566       0.07273580
H        0.71226188      -1.55407806       1.11557291     -12.25512754       0.00068437       0.00261226      -0.00080088       0.18509181
H        0.20817579       0.19532733      -2.00831152     -11.15192590       0.00040295      -0.00278028      -0.00141175       0.34592257
H        4.30549879       0.57072774       0.85665116     -12.04832462      -0.00056630       0.00003573       0.00134144       0.21221077
H        5.81461930       0.35054320       0.02299626     -12.24481108       0.00033966       0.00045770       0.00305025       0.19105258
H        2.05842240      -2.60973796      -3.06104362     -10.98110726      -0.00577430       0.00311457      -0.00340543       0.33623493
O        2.63412999       1.24451451       1.82703308    -114.99535090      -0.00139380       0.00094481      -0.00042819      -0.60628827
H        2.02504117       0.49264272       1.66038987     -11.46780131      -0.00070668       0.00064541      -0.00147129       0.31564347
H        2.43079889       1.59281959       2.69655652     -11.82472352      -0.00118071      -0.00078405       0.00032509       0.28512542
O        0.38104682       1.58415811      -3.03778202    -114.63781494       0.01743394      -0.00670947      -0.00194915      -0.58122763
H       -0.48117185       1.99399430      -3.14144480     -11.75285571       0.02178300       0.00291875      -0.01484159       0.29297021
H        0.85068672       2.07157017      -2.34520455     -11.49718451       0.01572768      -0.00982458       0.00315584       0.32070010
47
Properties=species:S:1:pos:R:3:energies:R:1:forces:R:3:charge:R:1 energy=-2292.1290485622676 free_energy=-2292.1290485622676 dipole="-0.16597217682550125 1.1181734338186173 0.08967371193128959" pbc="F F F"
O       -2.87322945       0.14207921      -1.15705687    -113.29135721      -0.00081254       0.00242572      -0.00735239      -0.47450793
O       -2.85252278       1.14837502       2.30330672    -113.29014224       0.00222928       0.00107863       0.00163880      -0.46207820
O       -1.32721071      -2.01878680       0.75628992    -112.96441179      -0.00045180      -0.00129573      -0.00384442      -0.44134804
O       -5.25345122       2.36267231       1.55198835    -113.05227393       0.00005227       0.00213854       0.00447584      -0.43950883
O       -0.30220685      -0.49503785      -1.42771033    -113.52366341       0.00394350      -0.00229652      -0.00179953      -0.48929234
O        1.16971527       2.01873067      -0.28717895    -113.45735994      -0.00189311       0.00088451      -0.00311086      -0.46609546
C       -2.76571714      -0.13119659       0.21830552     -59.16217052       0.00012912      -0.00013339      -0.00372618       0.08774964
C       -3.24992282       1.13713680       0.95285468     -59.08235032       0.00048158       0.00155926      -0.00000383       0.09070213
C       -1.38002922      -0.61660436       0.70826190     -59.17682720      -0.00045676      -0.00127941      -0.00341596       0.07919916
C       -4.77727445       1.23670223       0.85039504     -59.24729206       0.00025548       0.00029931       0.00233477       0.06027464
C       -0.15350645      -0.08451330      -0.08389198     -58.90674225       0.00078023      -0.00123979      -0.00137292       0.18096385
C       -0.08297464       1.45879044       0.02964427     -59.31100072      -0.00080175      -0.00085679      -0.00211470       0.04774890
H       -3.45249989      -0.95410896       0.47880672     -12.97761724      -0.00034387      -0.00224354      -0.00357104       0.04723284
H       -2.81274713       2.01130921       0.44179075     -13.18150673      -0.00094820       0.00413188      -0.00085540       0.02655124
H       -1.28687417      -0.29382730       1.75085841     -12.85471048      -0.00184631      -0.00180506      -0.00313335       0.07040240
H       -5.07246600       1.25066322      -0.20323653     -13.17413680      -0.00055535      -0.00012584       0.00066082       0.04456797
H       -5.23137716       0.37160693       1.33941391     -13.01003947       0.00117440      -0.00189675       0.00391949       0.06095407
H       -2.10801985      -0.25700113      -1.60365857     -11.34543918       0.00555100      -0.00008445      -0.00240569       0.32803667
H       -3.57832166       1.55443033       2.79993980     -11.30231075       0.00217679       0.00110664       0.00489396       0.31875910
H       -0.38497344       1.74631472       1.04131200     -13.19665659      -0.00053259      -0.00079202      -0.00210736       0.04015062
H       -0.79738099       1.87645330      -0.68405305     -12.98655812      -0.00170302      -0.00215304      -0.00221429       0.06337406
H       -1.14336164      -2.37185933      -0.12738737     -11.39528577       0.00501110      -0.00104401      -0.00406450       0.32181029
H        1.77700463       1.84405143       0.45561889     -11.18677045      -0.00049726       0.00104937      -0.00410698       0.33266098
H       -4.97500857       3.16006551       1.08766726     -11.58519943      -0.00102179       0.00398754       0.00286422       0.29258977
O        2.10436407      -2.06722976      -2.55347833    -112.39317750       0.00313030      -0.00218092       0.00176634      -0.35865482
O        0.86253253      -3.09214476      -1.00672568    -112.37146783      -0.00163151      -0.00031793       0.00068144      -0.42297159
O        5.41174878      -1.51738181      -0.80330110    -112.29053693       0.00350680      -0.00104391       0.00479606      -0.42334616
N        1.02978547      -0.70287342       0.54514164     -81.22976661       0.00018714      -0.00047978       0.00111121      -0.30511037
N        4.69221475       0.32386061       0.27789561     -80.96076771      -0.00227627      -0.00144951       0.00403867      -0.27992843
C        2.08203190      -1.09495530      -0.39308556     -58.87922601       0.00079926      -0.00182663       0.00172160       0.02613810
C        3.30863446      -1.63682927       0.37381936     -59.30764222       0.00016319      -0.00309446       0.00214123      -0.10461237
C        1.59217202      -2.19242934      -1.33712456     -58.91162086       0.00047722      -0.00131128       0.00133649       0.36224434
C        4.58736699      -0.96238196      -0.11521635     -59.18385369       0.00076978      -0.00175301       0.00383485       0.28555250
H        2.37060948      -0.23173356      -0.99769774     -12.80558206       0.00182849      -0.00196308       0.00155018       0.08505193
H        3.18660480      -1.44313533       1.43926510     -12.96988485      -0.00001632      -0.00487189       0.00291750       0.07197178
H        3.40551155      -2.71302940       0.22847284     -13.06332773      -0.00010273      -0.00277798       0.00034350       0.07082460
H        0.70518613      -1.55870718       1.00325339     -12.21453291      -0.00013248      -0.00026581       0.00198157       0.18961497
H        0.29246373       0.02903146      -2.01002247     -11.16251506       0.00064552      -0.00011635      -0.00173593       0.34572944
H        4.03506242       0.74266699       0.91787215     -12.02768698      -0.00424095      -0.00246731       0.00365140       0.21427337
H        5.50806272       0.84554524       0.00506609     -12.24717412      -0.00244247      -0.00025532       0.00485678       0.19054153
H        1.81805986      -2.79143128      -3.13206164     -10.98181873       0.00267186      -0.00165832       0.00138143       0.33497968
O        2.40058033       1.11832665       2.04045523    -115.03124204       0.00481083       0.00302654      -0.00551003      -0.61194674
H        1.86254782       0.36119581       1.70990518     -11.49822770       0.00361936       0.00257959      -0.00295852       0.31348308
H        2.08046766       1.33665828       2.91713120     -11.83261771       0.00607879       0.00543040      -0.00557828       0.28536658
O        1.42646042       1.08945735      -2.82996695    -114.74755438      -0.00695664       0.00267894       0.00044590      -0.59796476
H        1.37907454       1.63667046      -3.61472953     -11.83975066      -0.01298791       0.00634727       0.00760829       0.28688393
H        1.50762488       1.67781039      -2.05924569     -11.51725170      -0.00782170       0.00635571      -0.00197022       0.32098189
47
Properties=species:S:1:pos:R:3:energies:R:1:forces:R:3:charge:R:1 energy=-2292.075056377596 free_energy=-2292.075056377596 dipole="0.15381744935265046 1.1153160493854293 0.008458664958280813" pbc="F F F"
O       -3.04752895      -0.83970474      -0.81036615    -113.18812166      -0.00510080      -0.00888532       0.00839569      -0.46215217
O       -2.72189056       1.61136092       1.86115538    -113.32646975       0.00081367       0.00176903      -0.00089195      -0.46386377
O       -1.25009039      -2.12558965       1.01349529    -112.92187931      -0.00240064      -0.00151589       0.01278391      -0.43443516
O       -5.05411508       2.62958745       0.69687393    -113.05852031      -0.00159316      -0.00080027      -0.00024853      -0.43988437
O       -0.46059234      -0.32856690      -1.19932561    -113.50826216       0.00233562      -0.02344285      -0.00912912      -0.48971960
O        1.30980455       1.85486983       0.26422252    -113.44045543       0.00731635      -0.00623669      -0.02944705      -0.46956757
C       -2.80482053      -0.38505030       0.49275842     -59.21137454      -0.00095652      -0.00248063       0.00571071       0.09050420
C       -3.17663971       1.10226651       0.62919182     -59.09089309      -0.00042428      -0.00176716       0.00040491       0.08629230
C       -1.38172609      -0.72869827       0.98496207     -59.12183184       0.00059291      -0.00018738       0.00326196       0.08362427
C       -4.69809080       1.27607444       0.52504745     -59.22948634      -0.00099897      -0.00126464      -0.00025548       0.06045799
C       -0.19666208      -0.11040418       0.17236968     -58.92574139       0.00019964      -0.00777101      -0.00645684       0.17838655
C       -0.00825278       1.40195311       0.47047947     -59.30458365       0.00467860      -0.00027376      -0.02326521       0.04752950
H       -3.48095100      -0.95888566       1.14061717     -12.91405874       0.00075465       0.00074519       0.01080803       0.05819346
H       -2.71236483       1.66393044      -0.20020764     -13.26975360      -0.00030240      -0.00452912      -0.00194332       0.01889797
H       -1.29354923      -0.39756348       2.02328066     -12.98132499       0.00486412       0.00751563       0.00177542       0.05912561
H       -5.05409970       0.87269927      -0.42801111     -13.19107009      -0.00005038      -0.00106103      -0.00108766       0.04312659
H       -5.18091266       0.73826665       1.34415529     -13.00334385      -0.00191627      -0.00158062      -0.00031649       0.06186045
H       -2.26269487      -0.62411806      -1.34419970     -11.37792084      -0.00443801      -0.01218475       0.00554324       0.32540025
H       -3.34409811       2.30921364       2.11663266     -11.28631125      -0.00381807      -0.00038118      -0.00029514       0.31913458
H       -0.33787045       1.60894135       1.49201318     -13.14892915       0.00486380       0.01345550      -0.02251534       0.04670674
H       -0.63284615       1.97644480      -0.21493358     -13.04844898       0.00818396      -0.00337735      -0.03247908       0.05550510
H       -1.42897157      -2.46335686       0.12345735     -11.36109745      -0.00321201      -0.00660792       0.01343778       0.32197639
H        1.83527225       1.57786940       1.03644009     -11.25894630       0.00717202      -0.00206792      -0.02661622       0.32869051
H       -4.75958383       3.13224336      -0.07103442     -11.58826143      -0.00067787      -0.00045991      -0.00041315       0.29218018
O        1.90738383      -1.74291958      -2.66203478    -112.44729006       0.01204590       0.01588634      -0.00565712      -0.36333327
O        1.04047952      -3.08114545      -1.09906320    -112.25580451      -0.01853774       0.00097097      -0.01080687      -0.41280936
O        5.03517694      -1.39571788      -1.52346395    -112.29439226       0.01400521      -0.02218832       0.00071895      -0.42152230
N        1.00943534      -0.82218035       0.62446815     -81.09622954      -0.00101566      -0.00734873       0.00181917      -0.30102932
N        4.84802208       0.40777588      -0.19138953     -80.89639386      -0.00603870       0.00279007       0.00041670      -0.27353502
C        2.02628125      -0.99554653      -0.40700126     -58.83974936       0.00248982      -0.00465117       0.00416698       0.03196736
C        3.36587256      -1.43183050       0.22259036     -59.37689540       0.00124587      -0.01513394       0.00691397      -0.10962579
C        1.59285467      -2.05967424      -1.41123503     -58.92161326      -0.00289782       0.00364735      -0.00475175       0.36114543
C        4.50835179      -0.84008398      -0.58871842     -59.15924410       0.00451238      -0.01310039       0.00308899       0.28603822
H        2.16732708      -0.04999282      -0.93375999     -12.87857182       0.00765074       0.00062093       0.01125926       0.07548138
H        3.41493966      -1.06540447       1.24617016     -12.88801001       0.00619456      -0.01630934       0.01275441       0.08154245
H        3.44341116      -2.51864339       0.22578073     -13.05351256      -0.00786757      -0.02037640       0.00457674       0.07247974
H        0.71612400      -1.75417779       0.93196012     -12.22734708      -0.00199519      -0.00838077      -0.00128941       0.19256477
H        0.07270343       0.27274438      -1.75415561     -11.22963170      -0.01182093      -0.01149801      -0.01362568       0.34128307
H        4.43826378       0.83412974       0.62087129     -12.15328784      -0.01140215       0.00841941       0.00295783       0.19671082
H        5.60343043       0.87949607      -0.65984968     -12.21057570      -0.00225474       0.00447667      -0.00063754       0.19228581
H        1.66289380      -2.45986343      -3.26859821     -10.98932295       0.00714023       0.01971330      -0.01079198       0.33528409
O        2.26526369       0.62523476       2.61302578    -114.91282568       0.00501690       0.00684872      -0.01841299      -0.61093713
H        1.75765592      -0.05025895       2.11406958     -11.58292170      -0.00719489       0.01017044      -0.01745973       0.30951290
H        1.83577847       0.72557574       3.46417312     -11.89993009       0.01012706       0.01136775      -0.01353272       0.28176577
O        1.06318755       1.47220310      -2.64351267    -114.66209339      -0.03177980       0.04944246       0.02838026      -0.58843222
H        1.63821085       1.65602428      -3.38821111     -11.76313638       0.01992748      -0.05767556       0.04040863       0.29269237
H        1.46503810       1.85387891      -1.85328738     -11.57919098      -0.00343691       0.10569826       0.07274284       0.31250023
47
Properties=species:S:1:pos:R:3:energies:R:1:forces:R:3:charge:R:1 energy=-2291.717091063687 free_energy=-2291.717091063687 dipole="0.3605582808818108 0.5446653436686469 -0.3617594651192406" pbc="F F F"
O       -2.87599028      -0.92246852      -0.85757428    -113.22259426       0.00454454      -0.00027593       0.00828339      -0.45803752
O       -2.86177107       1.61241064       1.75212077    -113.24835746      -0.03101517      -0.01649547       0.02863582      -0.46037800
O       -1.20333749      -2.13604480       0.85406660    -112.98945558      -0.01270733      -0.00929033       0.02130133      -0.44262853
O       -4.95569328       2.66175501       0.17044379    -113.04606424      -0.00494633      -0.00743502      -0.00744199      -0.44050153
O       -0.51678716       0.32658082      -0.85716680    -113.36790363      -0.00811921      -0.01638821      -0.00900756      -0.47704541
O        1.25919100       1.88721006       1.32624894    -113.09091844       0.07514586      -0.03264113      -0.04039859      -0.45034005
C       -2.79067405      -0.41219414       0.44846977     -59.15167897      -0.00552582      -0.00599604       0.01085186       0.09416207
C       -3.15184235       1.07847376       0.48310261     -59.12809619      -0.00861594      -0.00710336       0.01682299       0.08733730
C       -1.41396360      -0.76434060       1.06236431     -59.03424540      -0.00720485      -0.00368590       0.01357876       0.08670515
C       -4.64251434       1.28671498       0.17999773     -59.22148660      -0.00507060      -0.00794116      -0.00844422       0.06017442
C       -0.21291789       0.07033668       0.49704872     -58.94678839      -0.00464586      -0.00627288       0.00010678       0.17790013
C       -0.05116235       1.39646345       1.30026093     -59.30840229       0.00739863       0.01568770      -0.03354044       0.05134787
H       -3.53856618      -0.96468628       1.02926236     -12.97336856      -0.00671838      -0.01042486       0.00526524       0.05512327
H       -2.56274525       1.59642347      -0.29527075     -13.19656626       0.00541324       0.00032994       0.03057219       0.02733446
H       -1.45708891      -0.61384401       2.14336688     -13.07202290      -0.00640308       0.00488980       0.01624719       0.04903646
H       -4.91428765       0.79812914      -0.76102091     -13.22633593       0.01137488      -0.00507373      -0.01709938       0.03920843
H       -5.23177950       0.85714623       0.99341123     -13.00104264      -0.02068460      -0.01223983      -0.01921484       0.06216897
H       -2.15885872      -0.50516417      -1.36426859     -11.34158559       0.01014838       0.00290693       0.01723725       0.32541598
H       -3.37632799       2.42899229       1.83138705     -11.30546878      -0.04014702      -0.01714028       0.03002344       0.31792734
H       -0.41911492       1.23981651       2.31666439     -13.21592323      -0.05857797       0.01757590      -0.01106617       0.03493354
H       -0.67173131       2.16017325       0.83528361     -13.02461980       0.02497673       0.08290568      -0.07070624       0.05641691
H       -1.57339840      -2.34862006      -0.01808632     -11.39754379      -0.00269952      -0.00394726       0.01328949       0.31782783
H        1.70634391       1.45686712       2.07062804     -11.38491931       0.10862572      -0.07470301      -0.05739915       0.32154471
H       -4.54881214       3.07182558      -0.60123973     -11.60320962       0.00452409      -0.00466606      -0.00166253       0.29159443
O        1.41160491      -1.77044515      -2.55053468    -112.56439333      -0.01412332       0.02131740      -0.00394092      -0.37366671
O        1.73032022      -3.12467685      -0.81363671    -112.16469327       0.00876039      -0.00737539       0.00420481      -0.40515015
O        4.16987055      -1.13717950      -2.18946496    -112.49217921      -0.01684860      -0.02044279       0.02399939      -0.44113373
N        1.01325868      -0.71287645       0.68743534     -80.85029273      -0.00674660      -0.01426483       0.01091703      -0.29019558
N        5.29685178       0.32745184      -0.91795804     -80.82219482       0.01041977      -0.00022188       0.01454633      -0.26500241
C        1.94335268      -0.76069626      -0.43142117     -58.86989217       0.00395139       0.00166920       0.01664199       0.03380501
C        3.39925620      -0.80390110       0.06428643     -59.36450863       0.00418057       0.00167246       0.02827843      -0.10715688
C        1.70432362      -2.01322591      -1.26910083     -58.86828100       0.00366454       0.00575744       0.00303023       0.36170640
C        4.31425276      -0.57329622      -1.12540444     -59.14337526      -0.00124306      -0.00624129       0.02280048       0.28662776
H        1.83501802       0.13037290      -1.04855518     -12.81579442       0.00826691       0.01442081       0.02194488       0.08339818
H        3.53464220      -0.04473774       0.83159934     -12.97995218       0.00725338       0.00562041       0.02715260       0.07457448
H        3.60489287      -1.79103272       0.48270330     -12.94144268       0.00150687      -0.00119042       0.03299097       0.07996811
H        0.75826812      -1.66810684       0.93856737     -12.37989018      -0.02433677      -0.02351405      -0.00660686       0.17963510
H        0.13295814       0.92031363      -1.26139671     -11.32469544      -0.00885027       0.02608014       0.01542034       0.32892167
H        5.39018265       0.82313550      -0.05059314     -12.21752046       0.02010368       0.01533262       0.01316272       0.18937731
H        5.93093200       0.53913841      -1.67086633     -12.15840798       0.00516778      -0.00492609       0.00870968       0.19591224
H        1.33158178      -2.60945722      -3.03277994     -10.97928374      -0.01497479       0.02397683      -0.01275585       0.33663789
O        1.92055113       0.11878510       3.52702476    -114.60363391       0.00566734       0.01150603      -0.04963735      -0.58321090
H        1.71368078      -0.56013710       2.87346164     -11.63431086      -0.01938330       0.01556155      -0.09843174       0.30484621
H        1.33200696      -0.01726278       4.27255831     -11.84218985       0.01830127      -0.00058418      -0.03458359       0.28577856
O        1.28778716       1.07524225      -3.06386898    -114.60434421       0.01214914       0.02744731       0.01500259      -0.59432352
H        1.66245224       1.50922006      -3.83104325     -11.92225229       0.00998463       0.04768596      -0.01558595       0.28136724
H        1.48059547       0.13482231      -3.16260977     -11.67496458      -0.04194134      -0.02186272       0.02650516       0.31005549
47
Properties=species:S:1:pos:R:3:energies:R:1:forces:R:3:charge:R:1 energy=-2289.2084536206667 free_energy=-2289.2084536206667 dipole="0.6594784365108258 -0.3561341089457492 0.029346044276783802" pbc="F F F"
O       -2.74702628      -0.88847444      -1.18649943    -113.17454757       0.08399067       0.01084859       0.02291602      -0.44748062
O       -2.46560283       1.77536396       1.21952317    -112.73710076      -0.10449969       0.02273854       0.07049844      -0.43306346
O       -0.89676727      -1.99034830       0.24026280    -113.11012918       0.09039260       0.08897622      -0.01687069      -0.46325284
O       -4.73206680       2.81009096      -0.07517292    -112.96973591      -0.07057793      -0.01888868      -0.03427256      -0.43970632
O       -0.36536294       1.09780786      -0.42379414    -112.76703847      -0.14168039       0.38667476       0.82829250      -0.42768858
O       -0.08135921       2.46447384       2.69294211    -112.76266686       0.24880236      -0.27093213      -0.76371710      -0.43702572
C       -2.65965470      -0.34720297       0.11246716     -59.04478678       0.00371789       0.01788732       0.04254113       0.09582659
C       -2.97962156       1.15659013       0.08061933     -59.18996661      -0.03883312       0.01238813       0.03276214       0.09292165
C       -1.30489935      -0.75400813       0.78690169     -58.86403987      -0.01045790       0.03828318       0.12961867       0.08435906
C       -4.49036032       1.42589516       0.04411005     -59.19683576      -0.05450010      -0.01644444      -0.02778118       0.05943054
C       -0.13966477       0.30931266       0.70855490     -58.59393125       0.02207555       0.16845005       0.34215648       0.18212185
C       -0.28111583       1.06739084       2.44542012     -58.35391005       0.26683453      -0.28515077      -0.82720085       0.03822288
H       -3.44560790      -0.86502525       0.67328145     -13.05341450      -0.02895546      -0.00226262      -0.00321824       0.04710101
H       -2.52656719       1.57920319      -0.83332880     -13.10482026      -0.00707654       0.02014942       0.04619571       0.03547625
H       -1.49299089      -0.92892494       1.84627127     -13.15183502      -0.12021454      -0.08871871       0.14237780       0.03357793
H       -4.97790482       0.86025377      -0.75700548     -13.32978599      -0.02028225      -0.02531182      -0.05297313       0.02719882
H       -4.91161052       1.13852777       1.00975996     -13.02956493      -0.08776626      -0.02042163      -0.03822399       0.05968970
H       -2.12876996      -0.41313531      -1.75867812     -11.40836272       0.07730347       0.05337471       0.04067095       0.31143015
H       -2.66956823       2.71667105       1.17453943     -11.40758004      -0.02245940       0.04497052      -0.00205106       0.31540523
H        0.43043913       0.52861357       3.07994060     -13.17674322       0.27350046      -0.26555606      -0.58676093       0.04582057
H       -1.29305204       0.85822916       2.83209184     -13.15395505       0.27068966      -0.29224445      -0.68159828       0.04167225
H       -1.49209074      -2.18469550      -0.50480692     -11.45387900       0.07110951       0.10255396      -0.00801543       0.31593558
H       -0.12832793       2.62971153       3.65089478     -11.73263756       0.02762946      -0.32331382      -0.53676182       0.28696640
H       -4.36957840       3.11888418      -0.91357902     -11.66002204      -0.00089991      -0.01050188      -0.01496145       0.28872922
O        0.93824339      -2.35568063      -2.15332776    -112.34257146      -0.03212200       0.07130962       0.09692747      -0.35675526
O        2.43873367      -3.01214032      -0.65012444    -112.25443484      -0.06557240       0.04798542       0.11284809      -0.41238024
O        3.75123765      -0.31925276      -2.95701410    -112.67499522      -0.09145846      -0.00652135       0.05936937      -0.44739965
N        1.16043378      -0.33240310       0.55472748     -80.37709297       0.01522854       0.05217976       0.23267318      -0.24920141
N        5.47021908       0.06393182      -1.57860546     -80.81125338      -0.05522376      -0.01447136       0.01802104      -0.26261839
C        1.83728258      -0.65679283      -0.72275063     -58.90448804      -0.06501264       0.05307298       0.16251658       0.01951169
C        3.33939914      -0.32189841      -0.55087857     -59.37878688      -0.03483537       0.03343555       0.07865146      -0.11066578
C        1.76863847      -2.13832730      -1.13517587     -58.90627529      -0.06860599       0.05401763       0.13030826       0.36025354
C        4.16890714      -0.20476959      -1.82030985     -59.07166309      -0.06721890       0.00242626       0.05076590       0.29002259
H        1.45214589      -0.11302904      -1.59147337     -12.67896251      -0.10349278       0.05302176       0.17410364       0.10088248
H        3.41169814       0.62012536      -0.00822429     -12.82869379       0.00365071       0.04108021       0.06555448       0.08671598
H        3.79058884      -1.10976852       0.05734987     -12.87700432      -0.02174676       0.03519073       0.07196350       0.08337205
H        1.23272711      -1.12709800       1.17168022     -12.56740316       0.01662288      -0.01997816       0.17819244       0.16249659
H        0.36834986       1.05153476      -1.05363258     -11.35759952       0.02630718       0.20359931       0.34566770       0.31915219
H        5.83521330       0.14779741      -0.64680178     -12.22427876      -0.03122221      -0.00971704       0.00953724       0.18799337
H        6.10837868       0.16579097      -2.35179950     -12.12081443      -0.07031963      -0.02850632       0.00228553       0.19873328
H        0.94699244      -3.29348027      -2.40939560     -11.03258825      -0.01023926       0.07612926       0.06013633       0.33132304
O        1.65822238      -0.29741896       4.87186159    -114.28957410      -0.00854402       0.00277714       0.02547628      -0.56543510
H        2.15271350      -1.11386155       4.96218565     -11.84136250       0.01175095      -0.00988656      -0.01308605       0.28498622
H        0.81106303      -0.42840084       5.30204292     -11.84443004      -0.01075578      -0.03105122       0.03530842       0.28404382
O        1.18465884       0.47297370      -3.61108714    -114.60011269       0.12459718      -0.04496651      -0.28172494      -0.60419795
H        0.92612503       0.13977931      -4.47510239     -12.05066161      -0.10124126       0.07217964       0.14375782       0.27287791
H        2.13197041       0.25059054      -3.55095752     -11.74611737      -0.08838889       0.01914485       0.13712312       0.31262089
47
Properties=species:S:1:pos:R:3:energies:R:1:forces:R:3:charge:R:1 energy=-2287.6196306527404 free_energy=-2287.6196306527404 dipole="1.0495441390572822 -0.09162600870342315 -0.8442644056595767" pbc="F F F"
O       -3.15394064      -1.00262638      -1.27763909    -113.22219222       0.00105234       0.00115249      -0.00230063      -0.45435673
O       -1.88758167       1.64146762       0.84635790    -113.15657802      -0.00288284      -0.00235533       0.01302297      -0.45368900
O       -1.21788354      -2.34213181       0.20887715    -112.99591866      -0.00241439      -0.00471626      -0.00762485      -0.45054493
O       -4.35310630       2.93827816       0.07639051    -113.00681729       0.00458676       0.00087951      -0.00283845      -0.43857298
O       -0.62988214      -0.07445726      -2.03500290    -112.79872969      -0.00868000      -0.00626627       0.00216200      -0.39239443
O       -1.58806452       3.70460576       6.05182856    -112.47941621      -0.00982691       0.02946614       0.01016698      -0.38223074
C       -2.67582903      -0.43960768      -0.08328809     -59.13768070       0.00093449      -0.00145929       0.00010039       0.09428093
C       -2.77481955       1.09589280      -0.09942889     -59.14166942       0.00346193      -0.00125043       0.00234451       0.08696749
C       -1.24213009      -0.92014016       0.20196958     -59.19937392       0.00060978      -0.00436505       0.00022323       0.08958410
C       -4.21257658       1.54236693       0.20104363     -59.26059729      -0.00117162      -0.00052737      -0.00866177       0.05958462
C       -0.22907787      -0.38856357      -0.77294566     -57.53254298      -0.00018799      -0.00197937       0.00167087       0.12964298
C       -1.47168060       2.32941181       6.06265373     -57.04595115       0.00983947      -0.01324515      -0.00410689      -0.03772432
H       -3.31943328      -0.83812794       0.70882909     -12.99175303      -0.00086241      -0.00162959      -0.00065938       0.05552575
H       -2.49647100       1.44559675      -1.11038951     -13.15259704       0.01353214       0.00005538       0.00376200       0.03127276
H       -0.95501579      -0.60459864       1.20968553     -12.85311057       0.00106200      -0.00869034       0.00166791       0.07091655
H       -4.91350788       1.00286790      -0.44597698     -13.25188601       0.00233616       0.00327638      -0.01989140       0.03554054
H       -4.44182915       1.31613562       1.24545333     -13.00168214      -0.01300046      -0.00497487      -0.00976221       0.06257647
H       -2.55357420      -0.71984255      -1.98494242     -11.36147552       0.00189651       0.00453918      -0.00203526       0.31773527
H       -2.20519673       2.53227198       1.04969357     -11.35435851      -0.00839609      -0.00223145       0.02072647       0.31609288
H       -0.57816991       1.90976115       5.62966918     -13.81241878       0.01983542      -0.03814350      -0.02671065      -0.00158899
H       -2.41204077       1.84242733       5.88568209     -13.61078762      -0.01486413      -0.02714929      -0.00086094       0.02590267
H       -1.80834869      -2.63746659      -0.49936975     -11.46570555      -0.00639344       0.00194592      -0.00759490       0.30948190
H       -0.70801983       4.08914947       6.09094575     -11.70265658       0.01023326       0.03788564       0.00561207       0.28981789
H       -4.27527968       3.18065332      -0.85308308     -11.61456899       0.01390684       0.00498519      -0.00293313       0.29114181
O        1.10983384      -2.64467174      -2.54581014    -112.68133137      -0.01913662      -0.01326803       0.02165560      -0.38908317
O        2.73620654      -3.18409944      -1.08449573    -112.44030372       0.02868036       0.00289290       0.01240015      -0.43348324
O        4.10796849      -0.26391763      -3.23033905    -112.73375578      -0.00949777       0.04010381      -0.03124651      -0.44977493
N        1.09011395      -0.51363115      -0.43477262     -80.24373569       0.00105165       0.00291272       0.00002718      -0.17885030
N        5.71457526       0.07429165      -1.70618325     -80.84219572       0.00712323      -0.00438128       0.00354800      -0.25992382
C        2.13241876      -0.85412627      -1.40197764     -58.99818950       0.00197274      -0.00075108       0.00137893       0.01080548
C        3.50336964      -0.42399426      -0.89570468     -59.47011110       0.00210816       0.00403743      -0.00260313      -0.10743174
C        2.07960628      -2.34508266      -1.65864770     -58.78709359       0.00487540      -0.00266467       0.01092111       0.33313478
C        4.44974924      -0.21030563      -2.06448232     -59.04145388      -0.00095330       0.01494604      -0.01140583       0.29133931
H        1.91068115      -0.32622865      -2.32932232     -12.51169480       0.00061119      -0.00558860      -0.00092236       0.11097572
H        3.41217072       0.50759326      -0.33473871     -12.90135238      -0.00199440       0.00415847       0.00183472       0.07997498
H        3.90781953      -1.19662354      -0.23825015     -12.88634694       0.00961558       0.00062199      -0.00496930       0.08506924
H        1.21087445      -0.95899364       0.46698529     -12.19167845       0.00241270       0.00729200       0.00201331       0.18932942
H        0.11434658       0.00179125      -2.65763600     -11.06845506       0.00496013       0.01252463      -0.00400706       0.34229669
H        5.99721804       0.11774987      -0.74420790     -12.18151150       0.01615834      -0.02628411       0.02094552       0.19068693
H        6.40633265       0.21813982      -2.42317591     -12.07496288       0.00531355       0.00086971      -0.00142426       0.20154282
H        1.03185500      -3.60531400      -2.63952540     -11.13450690      -0.02038275      -0.01464224       0.02864464       0.32737424
O        1.73803793      -0.43466246       4.72610947    -114.29068523      -0.00071738      -0.00037801      -0.00832665      -0.56936826
H        2.05914260      -1.23170789       5.15251778     -11.88349668      -0.00997890      -0.00110065      -0.00042109       0.28259884
H        0.84303266      -0.29042382       5.04163927     -11.86124383      -0.00271389       0.00844565      -0.01085577       0.28629330
O        1.50623679       0.25653913      -4.27446634    -114.72716800      -0.01600625      -0.00574270       0.00676883      -0.59932971
H        1.31263604      -0.20741981      -5.09049053     -11.90623254      -0.03828822      -0.00256362      -0.00671826       0.28266121
H        2.46404430       0.16518016      -4.14213596     -11.61165723       0.02017961       0.01335740       0.00728328       0.31819974
47
Properties=species:S:1:pos:R:3:energies:R:1:forces:R:3:charge:R:1 energy=-2286.5502414548105 free_energy=-2286.5502414548105 dipole="0.7801916252665261 0.461386928754591 -1.072111254527639" pbc="F F F"
O       -3.34369472      -1.20473640      -1.26302099    -113.12143125      -0.03101617      -0.02564791       0.01750064      -0.44618841
O       -1.38310480       1.43802097       0.16935007    -113.07851923       0.00428141      -0.00548959      -0.01924539      -0.44740647
O       -1.15140190      -2.52770581      -0.03289311    -112.85397903       0.11537692       0.03025805      -0.05259415      -0.44178908
O       -3.90607007       2.96696066       0.07340779    -112.99217399       0.00733013      -0.00595950      -0.01676503      -0.43784595
O       -0.39941121      -0.50539178      -2.64198692    -113.00491148      -1.05903831      -0.20856768       0.98693725      -0.42404373
O       -3.13428435       3.84828632       8.78403650    -112.42973556       0.00312475      -0.01338164      -0.01599304      -0.37270207
C       -2.60484786      -0.58374132      -0.24159545     -59.11604001       0.02670473      -0.00284134      -0.03396324       0.09333473
C       -2.59193972       0.95477600      -0.36828121     -59.11080378       0.00662094      -0.00184706      -0.02543951       0.08726377
C       -1.16206049      -1.11471778      -0.18161997     -59.24791025       0.04715807       0.03218856      -0.09574928       0.08322766
C       -3.79036897       1.59181671       0.35695789     -59.25078343       0.00211358      -0.01051658      -0.02486926       0.05954007
C       -0.22038427      -0.62397554      -1.26846218     -57.34697745       0.04128076       0.07800128      -0.09375870       0.10457071
C       -2.59459872       4.17270453      10.00641154     -56.98677574      -0.02124576      -0.00458904       0.01721835      -0.02773648
H       -3.11577298      -0.87115101       0.68468177     -12.97132645       0.06854024      -0.01032160      -0.01069538       0.05708887
H       -2.64935582       1.20216011      -1.44217387     -13.19236154       0.01268347       0.00447627      -0.02565987       0.02905056
H       -0.73873119      -0.75194829       0.76228101     -12.69665174       0.05480219       0.04645915      -0.10411187       0.08161644
H       -4.71019725       1.05185314       0.10307099     -13.26908947       0.00157216      -0.00723209      -0.03051472       0.03281360
H       -3.62217403       1.52837082       1.43485496     -12.97990364      -0.00194117      -0.01722377      -0.02377711       0.06474897
H       -2.82978197      -1.16029001      -2.07572502     -11.48565388       0.07603676       0.16871512      -0.18959863       0.30263689
H       -1.35390011       2.39016835       0.03018612     -11.38976176      -0.08180134       0.12378940       0.07082260       0.31067955
H       -2.00531803       5.06854351      10.08847421     -13.75923214       0.02032992       0.02641348       0.00086843       0.00643880
H       -2.34341717       3.31322479      10.59546625     -13.54643163       0.00931799      -0.01982361       0.01167572       0.03349244
H       -1.74209561      -2.93571642      -0.67393427     -11.61210025      -0.15758538       0.03274546      -0.11386772       0.29722913
H       -3.26569555       4.65105164       8.27098993     -11.63053316      -0.00933483       0.00939070      -0.01647363       0.29322219
H       -4.16205023       3.07640490      -0.84913399     -11.63036037       0.00274421      -0.00046485      -0.01515152       0.28938581
O        2.08600221      -2.30826909      -3.76669274    -112.85664617      -0.00239812      -0.03895662      -0.05990362      -0.40478397
O        1.84964694      -3.25676275      -1.75936069    -112.02178385       0.08432694      -0.09931669       0.13952359      -0.39212861
O        4.59220465      -2.15925406      -2.53420807    -112.36744656       0.00607939      -0.03287600      -0.06753660      -0.42693943
N        1.10265107      -0.65175037      -0.89351885     -79.91851197       0.04414907       0.08377914      -0.05654878      -0.16276781
N        5.60561620      -0.16735671      -2.29334058     -80.85101890       0.04801357       0.00932966      -0.02053778      -0.26330494
C        2.13050855      -0.84252972      -1.88295430     -59.01637944       0.03674557       0.07144834      -0.08145496       0.02301915
C        3.46889419      -0.50435596      -1.22838722     -59.38209210       0.04326392       0.00495855      -0.02547729      -0.10146292
C        2.07725029      -2.27748585      -2.41146066     -58.73931535       0.04891508      -0.04348913       0.01125203       0.35394870
C        4.59909645      -1.03579463      -2.08112542     -59.07501178       0.03290819      -0.00150688      -0.03420495       0.29041941
H        1.94416740      -0.18532717      -2.75202940     -12.58560166       0.06699283      -0.01249990       0.34248820       0.10408660
H        3.52343111       0.57249954      -1.08016859     -13.05214185       0.06646519       0.00923158       0.02250563       0.06569443
H        3.52031031      -0.99620991      -0.25343489     -12.83234581       0.00888463      -0.04635544      -0.03379781       0.08660865
H        1.28199911      -1.04070528       0.02270028     -12.13568660       0.02350290      -0.02537239      -0.07013039       0.19543573
H       -0.18229025      -1.33152321      -3.09129504     -11.55037462       0.15246623      -0.16932260      -0.16717497       0.29095352
H        5.56117474       0.77879536      -1.96416719     -12.18395962       0.06491017       0.03816754       0.00901884       0.19018124
H        6.38888472      -0.45666764      -2.85391956     -12.10709096       0.04589113       0.00881625      -0.02239031       0.19925744
H        2.13565246      -3.22795404      -4.06497894     -11.03665122       0.00833753      -0.07593206      -0.01158614       0.33431939
O        1.58752652      -0.62079602       3.77493207    -114.30998859       0.02676646       0.01598085      -0.01507798      -0.56913076
H        1.86872460      -1.26784158       4.42501499     -11.86540305      -0.01393913      -0.01070153      -0.01127130       0.28386718
H        0.87962965      -0.11116907       4.17437450     -11.85250133      -0.00927045      -0.00442292      -0.02181262       0.28527105
O        2.37043023       0.11154779      -5.21635363    -114.42711982       1.60992143       0.25521079      -1.34126822      -0.58263543
H        3.16629698      -0.00932093      -5.84900608     -11.85664852      -1.97546236      -0.10433370       1.56882200       0.27296548
H        1.99765988      -0.73333025      -4.94405935     -11.82307445       0.44447456      -0.05036805      -0.25023152       0.29849789
47
Properties=species:S:1:pos:R:3:energies:R:1:forces:R:3:charge:R:1 energy=-2284.725640558039 free_energy=-2284.725640558039 dipole="-2.7067667136731357 1.2148675695798175 4.181042070463478" pbc="F F F"
O       -3.29909881      -1.09076810      -1.20154487    -113.36833933      -0.00277750      -0.00930201       0.00970899      -0.44987538
O       -1.38582042       1.45476028       0.29205122    -113.15146138       0.01228601      -0.02094315       0.00530074      -0.44509800
O       -1.66558197      -2.65038389       0.25215178    -113.10357120      -0.00350001      -0.00966633       0.01034608      -0.44881755
O       -3.94489002       3.00942440       0.16505660    -112.89200804       0.01646146      -0.00038601      -0.00602955      -0.42430210
O       -0.77425607      -0.81546528      -2.09540936    -112.35482382      -0.00744282      -0.01976658      -0.00353895      -0.35910195
O       -3.02878876       3.56149720       9.04858540    -112.05372014       0.00248486      -0.00147825      -0.00097241      -0.31070493
C       -2.72823712      -0.56205604      -0.02024210     -58.91154973      -0.00113411      -0.00812363       0.00835344       0.09146798
C       -2.61744172       0.97120059      -0.20176358     -59.08927127       0.00705877      -0.00967906       0.00384966       0.09070640
C       -1.37170860      -1.25434456       0.24346074     -59.12603281      -0.00245435      -0.01002390       0.00942709       0.08152641
C       -3.78238419       1.66711826       0.52878930     -59.29057331       0.00753183      -0.00051096      -0.00132386       0.06566705
C       -0.36593184      -0.95553028      -0.82564130     -58.16923675      -0.00338056      -0.00783239       0.00979874       0.15588109
C       -2.48412246       4.31491619      10.01758573     -57.02103170      -0.00150802       0.00063958      -0.00034138       0.01301457
H       -3.37369690      -0.79355473       0.83685790     -13.05101772      -0.00240735      -0.00369393       0.00880001       0.04503588
H       -2.71510001       1.17702805      -1.27575399     -13.05046214       0.01159517      -0.01347706       0.00221002       0.04646471
H       -0.98066844      -0.94785823       1.22292796     -12.94140292      -0.00206032      -0.00974195       0.00925807       0.06061088
H       -4.70229728       1.09550627       0.34424220     -13.23621887       0.00424354       0.00408557      -0.00282169       0.03072236
H       -3.56572760       1.67309785       1.59859726     -12.89824824       0.00391439       0.00174869       0.00020891       0.07082227
H       -3.34265064      -2.05243744      -1.08276021     -11.14534689      -0.00155287      -0.00239340       0.00703708       0.32771450
H       -0.84052401       1.77283986      -0.43318353     -11.34229347      -0.00726676       0.02952431       0.01501701       0.31057622
H       -2.61389427       5.37861365      10.04910820     -13.36671454      -0.00369830       0.00526993      -0.00112926       0.04686689
H       -1.91954012       3.78035705      10.75284269     -13.10414668       0.00176187      -0.00477673      -0.00088574       0.07519128
H       -0.91667796      -3.13791207      -0.11427999     -11.35383799      -0.00743031      -0.01069557       0.01461949       0.31627514
H       -3.52988197       4.09759538       8.42236400     -11.08240795       0.00082439       0.00179321      -0.00060710       0.31886508
H       -4.17505405       3.06144597      -0.76981891     -11.53104878       0.01310465      -0.00256364      -0.00552667       0.29331311
O        2.71658839      -1.93978625      -3.51282237    -112.97740248       0.00885414       0.02306836       0.00989686      -0.43361748
O        0.74630601      -2.69886001      -2.71730222    -112.91424689       0.00464585       0.01374317      -0.00308732      -0.50578595
O        4.76023583      -2.37659262      -1.50509297    -112.23114940      -0.00666386      -0.00639370       0.04687795      -0.42116576
N        0.92279814      -1.01274876      -0.54491669     -79.85338757      -0.00238736       0.00227155       0.00882418      -0.05858850
N        5.27583044      -0.36302696      -2.36064770     -80.81613973      -0.00987379      -0.01796203      -0.00942525      -0.27034944
C        1.95336394      -1.15345415      -1.44047800     -57.95517519      -0.00249377       0.00901108       0.01027760      -0.04396657
C        3.26415967      -0.54203438      -1.03858408     -59.44332736      -0.00400375       0.01314650       0.00947089      -0.09120228
C        1.72953923      -1.97929321      -2.56307754     -59.28568569       0.00289175       0.01518093       0.00552630       0.33049749
C        4.47668689      -1.21526130      -1.67476439     -59.13115825      -0.00657297      -0.00427461       0.01831254       0.29738654
H        1.61788481      -0.07680874      -4.27214316     -11.99436381      -0.01192085       0.00263177      -0.02537548       0.28464310
H        3.27468042       0.52934827      -1.26491820     -13.21060138       0.00127950       0.01346195      -0.00658913       0.04467079
H        3.37735428      -0.65883589       0.04569866     -13.04535453      -0.00833576       0.02736189       0.01490767       0.06135227
H        1.17325508      -0.89844915       0.43666417     -11.83797619      -0.00217351       0.00811364       0.01471054       0.20688054
H       -1.74873177      -0.93176946      -2.13318982     -10.84591071      -0.01125623      -0.03493168      -0.01513907       0.35525849
H        4.98241786       0.56790910      -2.59603510     -12.32575821      -0.01810354      -0.02254660      -0.04186161       0.18154743
H        6.07273764      -0.74124387      -2.84583875     -12.22423484      -0.01716420      -0.03402786      -0.01069614       0.19319490
H        2.55198401      -2.66269044      -4.13510940     -11.31817194       0.01291736       0.02644668       0.00548062       0.32364972
O        1.32956916      -0.71889818       3.51087830    -114.53908121      -0.01100017      -0.00249176      -0.03913739      -0.57437994
H        1.86486343      -1.25774255       4.09830226     -11.75961478      -0.00659873      -0.00424096      -0.04500162       0.28811250
H        0.89540274      -0.06242743       4.06032016     -11.77064845      -0.00214821       0.00098744      -0.03502933       0.28651646
O        0.75491790       0.34590857      -4.30339520    -114.41477427       0.02337304       0.03070397      -0.01590277      -0.59396632
H       12.71189099       0.60399573     -13.34549264     -12.27929585       0.00000467       0.00047501       0.00052713      -0.15885385
H        0.15505113      -0.25892212      -3.85437575     -11.91741620       0.03207672       0.04225853       0.01167409       0.29534396
47
Properties=species:S:1:pos:R:3:energies:R:1:forces:R:3:charge:R:1 energy=-2285.9390067168006 free_energy=-2285.9390067168006 dipole="-1.944157479983422 0.2038656056003446 4.1614915534359165" pbc="F F F"
O       -3.82130328      -0.78917609      -0.44686653    -113.02130454       0.03686504      -0.01091380      -0.12617441      -0.44407201
O       -2.21736797       1.89232843       1.36036386    -113.43266574       0.09315758      -0.05424135      -0.05334491      -0.46342619
O       -1.85685372      -2.27551233       0.30936400    -113.23571097       0.06057505       0.02291989       0.05873888      -0.45361252
O       -4.80760628       3.06267953       0.24134742    -113.03540269       0.09156158      -0.04208465       0.00676948      -0.43963633
O       -0.47463754       0.91646112      -0.77033332    -112.92212951       0.02413611       0.37220103       0.28866210      -0.43392589
O       -1.78559906       2.04564292       5.26941877    -112.12294650      -0.04790756       0.07986085       0.34370038      -0.31722344
C       -3.00353403      -0.25005837       0.55853301     -59.02104989       0.14772062      -0.06475883      -0.09332514       0.10939849
C       -3.12264664       1.28260981       0.45085663     -59.00277203       0.10585161      -0.04253710      -0.05770578       0.09049075
C       -1.56903826      -0.89311792       0.49709450     -58.75559075      -0.06129452       0.11994065       0.10199746       0.06807899
C       -4.57949665       1.75100697       0.70729180     -59.23315982       0.10339620      -0.05476736      -0.00809234       0.06021667
C       -0.56993108      -0.47499303      -0.64438331     -59.27683385      -0.04297002       0.16948703       0.11273460       0.32647022
C       -0.92178449       2.78717408       5.99367085     -57.02394171      -0.09796435       0.14799411       0.41754528       0.01498021
H       -3.40173282      -0.53768712       1.55171953     -13.07600517       0.07398609      -0.08291166      -0.11164407       0.03393952
H       -2.86432146       1.55391703      -0.57831374     -12.99784104       0.07736844      -0.01084493      -0.06765450       0.05477664
H       -1.06073245      -0.71032658       1.44552944     -13.16976271      -0.02109738       0.05411331       0.10350341       0.04333736
H       -5.27263678       1.04406017       0.23937468     -13.13220078       0.08856589      -0.04250310       0.00161745       0.04846709
H       -4.78195061       1.79170339       1.78066191     -13.00251924       0.11772251      -0.06838794      -0.00047798       0.06135039
H       -3.43766336      -1.62989065      -0.74546157     -11.27296196      -0.12313967       0.20482896       0.22903916       0.32403017
H       -2.03626696       2.77671999       1.02261734     -11.37798532      -0.12540598       0.01733535       0.09130251       0.30712634
H       -0.14737495       3.31754841       5.46342473     -13.33690753      -0.02471321       0.06117284       0.30433603       0.04651113
H       -1.09188603       2.90651053       7.08866058     -13.09663628       0.08403315      -0.31643884      -1.39916716       0.07475686
H       -1.22820765      -2.81985839       0.78349934     -11.44847814       0.17420859      -0.08443618       0.09574536       0.30520120
H       -1.68797409       2.16806135       4.31083459     -10.98182978       0.06469824       0.00005077       0.20740384       0.33019501
H       -4.84102083       3.05590784      -0.72174276     -11.59959181       0.03817306      -0.03687746       0.00771212       0.29230023
O        1.70490318      -1.96171496      -3.51518603    -112.19799029      -0.02233743       0.02950758       0.04270682      -0.34238264
O        1.62458148      -3.29270337      -1.72443093    -112.43855631      -0.05988471       0.02926956       0.01290899      -0.43077247
O        4.36742354      -1.44034256      -2.72015688    -112.29903216      -0.05129786       0.00196372       0.03114895      -0.42055720
N        0.76967459      -0.94150306      -0.29744207     -80.88297198      -0.03327084       0.01614985       0.07191220      -0.30369719
N        5.34303670      -0.00316972      -1.30030115     -80.84223090      -0.03458845      -0.01195019      -0.00230418      -0.27011744
C        1.76959974      -0.92090796      -1.36825073     -58.82517112      -0.05041841       0.01157615       0.05341515       0.03789037
C        3.16159797      -0.85427025      -0.70858933     -59.32362481      -0.03470970       0.01110282       0.02527509      -0.10026135
C        1.70258268      -2.19280458      -2.21590057     -58.93912331      -0.04761783       0.02786100       0.03622135       0.36553577
C        4.32104658      -0.80215589      -1.69506908     -59.14533772      -0.04419745       0.00144251       0.01807687       0.28715018
H        1.59646156      -0.05338140      -2.00638338     -12.91187957      -0.06250931       0.02410380       0.02499457       0.08000027
H        3.18438667      -0.00136454      -0.03197987     -13.04943881      -0.02090211       0.00587794       0.01894689       0.06433435
H        3.29403117      -1.76875698      -0.12193682     -12.91211626      -0.02834114       0.01926266       0.02240808       0.07767046
H        0.77763980      -1.86204001       0.12351991     -12.51709796      -0.06534548      -0.13737170      -0.00975288       0.15748372
H       -0.12397786       1.37162882       0.05000278     -11.16176282      -0.48840392      -1.21744456      -0.99461529       0.31933100
H        5.33585891       0.50457710      -0.43422166     -12.29471989      -0.02819654      -0.00723196      -0.01881779       0.18089971
H        6.17028812       0.04334433      -1.87325120     -12.14366406      -0.04137661      -0.01848333      -0.01178678       0.19704338
H        1.73439736      -2.78925719      -4.02318897     -10.94239022       0.00180042       0.03333874       0.03643542       0.33837198
O        0.99576099      -0.23515222       3.29530149    -114.57076364      -0.02937606       0.01403547      -0.00111965      -0.57270001
H        1.66376546      -0.68960203       3.81336597     -11.73113508      -0.00990623       0.00411791      -0.02732133       0.28756818
H        0.30513733       0.03450222       3.90396943     -11.74405550      -0.02140794      -0.01986724       0.04203952       0.28552255
O       -1.03690456      -1.04058838      -1.84347697    -112.96609035       0.23586676       0.47573025       0.09787454      -0.44757638
H       18.02624467       2.11352374     -17.02932578     -12.19390471      -0.00004104       0.00010634       0.00038112      -0.14941879
H       -1.37115808      -1.93616562      -1.64632722     -11.32972146       0.09893482       0.36870108       0.07775059       0.31895067
47
Properties=species:S:1:pos:R:3:energies:R:1:forces:R:3:charge:R:1 energy=-2276.6039175429464 free_energy=-2276.6039175429464 dipole="-1.6760175493974847 0.30598869953236285 0.914248925558539" pbc="F F F"
O       -4.00204464      -0.88681386       0.50488222    -111.60628744       0.02675346       0.03937199       0.13602879      -0.32350441
O       -2.92207564       2.22921531       1.64293733    -113.29084059      -0.03175254      -0.02887346      -0.00766496      -0.44304803
O       -2.16007928      -2.59751156      -0.32572394    -111.18191266       0.11544253       0.13372495      -0.02288573      -0.24442098
O       -5.01048461       3.37222850      -0.00253519    -113.04711754       0.01836259      -0.00739459       0.00686154      -0.42433960
O       -0.48722013      -1.71718544      -2.43140374    -112.21956391       0.06720265      -0.20498977      -0.10552408      -0.42058917
O       -1.59955580       1.90794697       4.33978643    -111.52130833       0.15855556       0.07052526      -0.04527771      -0.22625830
C       -3.84454358       0.06061516       1.22828807     -58.30351078      -0.01010831      -0.00299383      -0.01072058       0.19994148
C       -3.68469757       1.47179028       0.73535410     -59.04876366      -0.01116485      -0.01810864      -0.00685021       0.08396807
C       -1.06981186      -1.88964281      -0.13995423     -57.47414314       0.04176608       0.08355341       0.08647193       0.07541532
C       -5.10029851       2.09644082       0.56778816     -59.09562510       0.00282065      -0.00524181      -0.00531409       0.07072720
C       -0.16073793      -1.64134700      -1.25802019     -59.24449654       0.02522501       0.19027088       0.23035216       0.26302019
C       -0.44641612       2.44044080       4.39865714     -56.86435752      -0.07409558      -0.06135127      -0.13187271      -0.05741439
H       -3.84057265      -0.05676427       2.32539522     -12.88660079       0.08162940       0.14389892       0.01468653       0.05388264
H       -3.20047002       1.44877661      -0.25457781     -12.92316578       0.00347850      -0.02869456       0.00042936       0.05646593
H       -0.84407561      -1.45180431       0.82535482     -12.98040957       0.01939310      -0.04296158       0.05226053       0.07331487
H       -5.73377145       1.42092590      -0.01546854     -13.20932431       0.00026681       0.00864872      -0.01225961       0.04139589
H       -5.53795718       2.23750632       1.55976222     -12.90628409       0.00242867      -0.00580633      -0.00543235       0.06868290
H       -2.34036806      -2.83497806      -2.56572906     -11.83819597       0.04873429      -0.04590670      -0.15541354       0.29813036
H       -2.94131598       3.14646171       1.33346453     -11.21117802      -0.07348096      -0.03380541       0.05609477       0.31647932
H       -0.42600092       3.56146441       4.40189523     -13.67175279      -0.17546434      -0.21097058       0.01299229      -0.00165210
H       -1.54940568       5.74323786      17.37289017     -11.56429181      -0.00037677      -0.00054762      -0.00074669      -0.08264984
H       -2.82702680      -2.54761146       0.38078038     -10.63082892       0.03116508       0.06359872      -0.07416180       0.35632096
H       -2.42832750       2.44094349       4.28347000     -11.19372734       0.10738184       0.08803768       0.00862873       0.28834312
H       -4.91025270       3.30117969      -0.95859346     -11.34867796       0.02334960      -0.00073589       0.00652939       0.30374144
O        2.15108534      -2.22062944      -3.93172756    -112.21381821      -0.01075851      -0.07255992      -0.04971476      -0.33758822
O        2.04107867      -3.59141828      -2.16748629    -112.18330978       0.01706885       0.02708551      -0.01649667      -0.39952137
O        4.98451995      -1.79413086      -2.79100580    -112.27089030      -0.09235480       0.04920184       0.02510244      -0.40890856
N        1.09131372      -1.26276510      -0.86347574     -80.01597975       0.03252777       0.18325450       0.12815132      -0.17979801
N        5.67010002      -0.16865055      -1.39440044     -80.88173979      -0.02390148      -0.01884252      -0.01900387      -0.26728595
C        2.20297026      -1.21609295      -1.79911418     -58.85016147      -0.02459134       0.09512371       0.12134902       0.03239800
C        3.50245313      -1.14790831      -0.99326442     -59.38380563      -0.01092196       0.03030169       0.04466261      -0.10167674
C        2.13591900      -2.49403056      -2.64361405     -58.82384116      -0.04333125      -0.05600986      -0.04928835       0.37867150
C        4.77387755      -1.08112581      -1.84101124     -59.07763045      -0.04862886       0.02428110       0.01478918       0.28833880
H        2.12215432      -0.36321082      -2.49011757     -12.77906596      -0.06598922      -0.04446451       0.11484705       0.08111088
H        3.44123176      -0.28169862      -0.33352945     -13.09677315       0.05282515      -0.00275073       0.06184568       0.05708474
H        3.57771742      -2.05913288      -0.39214073     -12.82668431      -0.02427778       0.00872850       0.00306912       0.08635886
H        1.27108481      -1.06309128       0.11369260     -12.04835577      -0.03947749      -0.11646660      -0.16398487       0.19624534
H        2.48911053       9.21588482       6.84671959     -11.74501832      -0.00195926      -0.00287664      -0.00291135      -0.10031153
H        5.49985181       0.42160261      -0.59932483     -12.22971496       0.00743013      -0.03740330      -0.03401368       0.18385024
H        6.56273801      -0.09405378      -1.85536348     -12.07086966      -0.04171671      -0.03159540      -0.03474331       0.20134115
H        2.05394402      -3.02965143      -4.45995830     -10.79193497       0.06767409       0.01356721      -0.01923392       0.34670443
O        0.61662943      -0.17538754       2.35319196    -114.90743465       0.02068031      -0.01351327       0.00361792      -0.59015371
H        1.36191002      -0.39287414       2.92015696     -11.70368152      -0.05455441       0.01094062      -0.01262723       0.28797512
H        0.10957543       0.48102138       2.84470800     -11.58502053       0.00986067       0.00132717      -0.01673787       0.30285495
O       -2.38713785      -3.78198510      -2.73071771    -114.31226637      -0.08877344      -0.13628101      -0.04357007      -0.58555707
H       18.03863366       2.20460362     -17.41962625     -11.48160375      -0.00006158       0.00008629       0.00014359      -0.07450614
H       -1.50843980      -4.10738348      -2.52338820     -12.06195251      -0.03428138      -0.03438286      -0.08246392       0.27642045
47
Properties=species:S:1:pos:R:3:energies:R:1:forces:R:3:charge:R:1 energy=-2283.4914106098045 free_energy=-2283.4914106098045 dipole="-1.3976762337551436 -0.33189349183292655 1.3536803234563488" pbc="F F F"
O       -3.60924143      -0.22607154       2.30739699    -111.39897218      -0.00535418      -0.01159655       0.01826349      -0.31696650
O       -2.74137550       2.68236544       1.07897507    -113.17928068       0.02147760      -0.00082583      -0.03848378      -0.44647640
O       -1.53187385      -0.69657121      -0.24264874    -113.09680504       0.04200001       0.06786008      -0.01750480      -0.43088922
O       -5.30843503       2.93893966       0.24487356    -113.10945964       0.00546623      -0.00847206      -0.00256524      -0.43444584
O        0.16672739      -2.33802318      -2.09674410    -112.67290445       0.03608398      -0.02258663       0.00551483      -0.38659200
O        0.28384186       2.51208907       2.90005388    -113.23971671       0.04330886       0.01033927      -0.04982696      -0.44036947
C       -2.92530063       0.30771649       1.47669009     -58.28408262       0.03309730      -0.01295348      -0.02525032       0.21083028
C       -3.41280082       1.51090212       0.66423962     -59.00144814       0.01623066      -0.00962374      -0.02694882       0.08218417
C       -1.53768782      -0.26498546       1.10110385     -59.12279746      -0.01948940       0.05144829       0.03355984       0.09368711
C       -4.92646844       1.72568933       0.84726483     -59.17774291       0.01329505      -0.01543889      -0.01263893       0.06448239
C       -0.45728017       0.73577291       1.41711977     -57.76325248      -0.01623976       0.08264252       0.11260811      -0.03991772
C       -0.64935980       1.47215471       2.73216168     -59.39003058      -0.02796587      -0.07130063      -0.07045591       0.06183510
H       -1.67848196       1.83505470       2.80297676     -13.02676269       0.06699498       0.03357167       0.01882376       0.05994791
H       -3.17331409       1.31668454      -0.39552229     -12.97950830       0.00482701      -0.01066267      -0.03134201       0.05082172
H       -1.39232791      -1.14782359       1.75911072     -12.95842317      -0.03034034      -0.00838864       0.01789172       0.04233932
H       -5.49140010       0.87362448       0.45760594     -13.27578480       0.00900152      -0.01360928      -0.01388408       0.03515811
H       -5.14616382       1.83700779       1.91212897     -12.84839649       0.02105436      -0.02499082      -0.00900111       0.07836599
H       -1.68946212      -3.10008449      -2.53876833     -11.71014786       0.02283298       0.01307390      -0.00385546       0.29982284
H       -3.37397222       3.40956671       0.95642484     -11.18972738       0.00062421      -0.00323795      -0.02503650       0.32348210
H       -0.49240405       0.80167715       3.58916664     -13.00301312      -0.01476504      -0.14777003      -0.03464678       0.04983726
H       -2.53217047       2.20674155       8.32202168     -12.30935222       0.00656376      -0.00209218      -0.00787950      -0.15901842
H       -2.20462834      -1.38176317      -0.35529793     -11.32277011       0.04284733       0.03638896      -0.06254411       0.31075013
H       -0.06986251       3.30041825       2.47666248     -11.37724032       0.05915563       0.01395816      -0.07538926       0.30754360
H       -5.29680113       2.84030756      -0.71413123     -11.48041457      -0.00249302      -0.00120963      -0.00355518       0.29633776
O        1.61235823      -2.59137153      -3.69658025    -112.31570949      -0.01117720      -0.01850127       0.00597246      -0.35635849
O        2.23022132      -3.03002507      -1.58053790    -112.80339483       0.01457428       0.03029732       0.02448864      -0.45899704
O        3.14720681      -0.42438433      -2.39992532    -112.52539819      -0.08508118       0.06195759       0.01292458      -0.43086157
N        0.80800458       0.65525183       0.99175709     -79.51277005      -0.01309574       0.07577871       0.08180426       0.00546988
N        4.91249093       0.12326820      -1.12345768     -80.89416650      -0.02898063       0.01141944      -0.00492316      -0.26898521
C        1.37568399       0.02420955      -0.02098464     -57.89531762      -0.02850969       0.05453063       0.07735922      -0.03225246
C        2.83347559      -0.27400677       0.00632058     -59.64069159      -0.02017101       0.04493621       0.04094927      -0.10233568
C        1.42672152      -2.67016636      -2.39154935     -59.46711005      -0.02204735      -0.00448281       0.00661388       0.49555360
C        3.60826437      -0.18605765      -1.30816000     -59.00811539      -0.04877841       0.04142637       0.01589617       0.29239963
H        0.75290041      -0.42255149      -0.77268567     -13.02614646      -0.04641684      -0.00154545       0.07021165       0.08507149
H        3.32190861       0.31676117       0.78018743     -13.01865475       0.00562361       0.03842855       0.04029012       0.06752177
H        2.94789530      -1.33616845       0.27604227     -12.55721736      -0.01294149       0.03988902       0.03078193       0.10359788
H        0.02855756      -2.31708061      -1.13494195     -10.68414376      -0.04699769      -0.04171681      -0.06287066       0.35499300
H        1.41487216       1.24193180       1.59276496     -11.47796494      -0.05546807      -0.34558722      -0.21925433       0.23191943
H        5.30455880       0.26354756      -0.20987741     -12.22790061       0.00284087      -0.00875404      -0.00308074       0.18526348
H        5.54084204       0.10645546      -1.91013643     -12.13739656      -0.04650166       0.00600399      -0.02389640       0.19571372
H        2.55111508      -2.66775364      -3.91335843     -10.74444170       0.03390819       0.01184357       0.02221541       0.35358496
O        2.14540304      -0.20909498       3.22267384    -114.72883434       0.05749268       0.01426278       0.04879607      -0.58163488
H        1.93397956      -1.03928913       3.65185442     -11.77929559       0.01845528      -0.01318013       0.04175423       0.28559799
H        1.73888710       0.49098533       3.74096352     -11.62996760       0.05560862       0.01396554       0.04805114       0.29777309
O       -2.30487952      -3.75693471      -2.19578034    -114.60562765      -0.00678651       0.03784179       0.03172274      -0.58915330
H       18.69076073       2.38221139     -17.86332054     -11.99690492      -0.00032787      -0.00005627       0.00042911      -0.12787379
H       -2.09617430      -4.57772081      -2.64623023     -11.89620674      -0.04343602       0.00671866       0.01791142       0.28124230
47
Properties=species:S:1:pos:R:3:energies:R:1:forces:R:3:charge:R:1 energy=-2286.7652477159313 free_energy=-2286.7652477159313 dipole="-2.833343905247032 0.17380408830763314 4.447291818916652" pbc="F F F"
O       -3.78337768      -0.81527708       1.83287997    -113.18749235      -0.01354799      -0.05128091      -0.08106387      -0.44661076
O       -2.49991208       2.29545848       0.43704413    -113.36672392       0.01611693      -0.00650917      -0.02447107      -0.46011489
O       -1.52297501      -1.10035568       0.27430015    -113.32783100       0.00961382      -0.00188047       0.00501781      -0.45173941
O       -5.17300023       2.74153262       0.06857777    -113.12668820       0.00914182       0.00166674      -0.00396195      -0.43754534
O       -0.34798074      -1.33745896      -3.55183953    -114.48467572       0.01540963       0.06678812      -0.12409006      -0.57712755
O        0.83079418       2.50130572       2.36387406    -112.67740845       0.03612582      -0.00850743      -0.01477705      -0.37273427
C       -2.88564618       0.26138651       1.72376460     -59.19403990       0.00037430      -0.01151972      -0.00538569       0.08559424
C       -3.37974592       1.21620277       0.61844990     -59.01760296       0.00418118      -0.00965143      -0.01089689       0.09184682
C       -1.49794634      -0.35984103       1.47787125     -59.13583617       0.00423447      -0.00747878       0.00280398       0.08917402
C       -4.77945926       1.74457161       0.98151809     -59.21937190       0.00667015      -0.00243769      -0.00024971       0.06079294
C       -0.26156124       0.50970633       1.51739764     -58.63461976       0.01659216      -0.01714977       0.00241121      -0.01337285
C       -0.23908690       1.71282423       2.11978661     -58.39256922       0.02551963       0.00600805      -0.02733284       0.06679270
H       -2.88107181       0.79298735       2.68067323     -13.05585092      -0.09879327      -0.10083316      -0.02202751       0.05181921
H       -3.46560852       0.65095944      -0.32911930     -13.23468562      -0.00685439      -0.01593099      -0.01544915       0.02150796
H       -1.38818704      -1.13296925       2.25620463     -12.82320892      -0.00231829      -0.01029912       0.00050633       0.06218285
H       -5.49475787       0.91895777       1.03003139     -13.16820892      -0.00008022      -0.00482759       0.00517351       0.04560355
H       -4.73978356       2.23616827       1.95629445     -13.00666621       0.01282838       0.00270061       0.00447565       0.06064837
H       -3.57303925      -1.43786176       1.11147548     -11.21092989      -0.12813080       0.11709193       0.20290805       0.31943324
H       -3.04865506       3.06511240       0.21793097     -11.22414440       0.01842536      -0.00111587      -0.01168465       0.32139992
H       -1.15020816       2.15619082       2.47488363     -12.99228802      -0.04890138       0.07354471      -0.04795032       0.07329993
H       -1.82183239      -2.68664440      -0.45758175     -11.82320746       0.00151045      -0.36547526      -0.50672238       0.29776012
H       -1.65373923      -0.51030824      -0.47751911     -11.30691458       0.04447005       0.09132765      -0.03387820       0.31419125
H        1.64253061       2.00663777       2.19297560     -11.15535279       0.11846513      -0.08791156      -0.02504372       0.31965829
H       -5.38523631       2.33346692      -0.77852944     -11.50357832      -0.00427960      -0.00326414      -0.00446719       0.29571475
O        1.76811257      -0.34936445      -2.34679116    -111.40227893       0.13912563       0.49214910      -0.17119836      -0.26769802
O        1.11721138      -2.23672341      -1.21572362    -111.22686856       0.23239357       0.65398641      -0.37525985      -0.24545127
O        3.83454186      -1.66167528      -1.45441632    -112.50801814       0.06937292      -0.05764649       0.06005226      -0.43252052
N        0.82303203      -0.20855667       1.03860647     -79.66377046       0.00048775      -0.05134397      -0.01332389      -0.07632529
N        4.90189960       0.19968883      -0.81706580     -80.86389893       0.01310561       0.03415636       0.01526502      -0.25718283
C        2.03272228       0.22116732       0.62043526     -57.64641683       0.04198626       0.02733656       0.02524418      -0.04039875
C        3.20048854      -0.69869066       0.66465932     -59.66120594       0.03132932      -0.00748206       0.03429311      -0.10078316
C        1.47739817      -1.30596292      -1.79004698     -58.28664144      -0.34538437      -1.04622306       0.68089691       0.48270678
C        3.99984770      -0.77947787      -0.63858859     -58.97024239       0.03495060      -0.03004257       0.04419568       0.28604688
H        2.13269681       1.23962985       0.29808293     -13.36371726       0.08924337       0.13474567       0.05654323       0.04956971
H        3.88470996      -0.37854183       1.45893068     -12.88531435       0.03662771      -0.01847854       0.03943581       0.07178106
H        2.85401818      -1.70683489       0.89687234     -12.92279044       0.00276898      -0.00454376       0.03256385       0.07791560
H        0.64613132      -1.20791167       0.94818593     -11.96094146       0.04676543       0.08484577       0.12209639       0.19964350
H        0.09994927      -0.48264283      -3.59108945     -11.70618954      -0.25546673      -0.19550842      -0.23651527       0.29351437
H        5.07532449       0.90489130      -0.12517398     -12.14022366      -0.00161715       0.06457076       0.00578041       0.19088051
H        5.44580907       0.19971807      -1.66507139     -12.01084077       0.01261258       0.02615530       0.01867733       0.20502063
H        0.16305273      -1.94949175      -4.09092423     -11.77136162      -0.14784306       0.10258259      -0.01017930       0.28894709
O        2.00351894       0.17309807       3.72310473    -114.76696506       0.01756552       0.00875453       0.01537327      -0.58112553
H        2.29881445      -0.45761223       4.38204038     -11.71845958       0.02184398      -0.01353524       0.01017960       0.28745550
H        1.29444580       0.68167517       4.12432453     -11.65821196       0.02088519       0.01353344       0.02578955       0.29280344
O       -2.10395225      -3.27906303      -1.17604963    -114.52891959      -0.11391558      -0.03113179       0.25429348      -0.59990860
H       17.61370114       2.09410220     -17.50056792     -12.86815528      -0.00083020       0.00003813       0.00117438      -0.22562396
H       -1.32917706      -3.52076736      -1.68717523     -11.96391989       0.01721934       0.16002657       0.10077796       0.28255780
47
Properties=species:S:1:pos:R:3:energies:R:1:forces:R:3:charge:R:1 energy=-2286.8826624579124 free_energy=-2286.8826624579124 dipole="-0.3163133164080394 0.5583782614433629 3.2798820942263984" pbc="F F F"
O       -3.84102819      -0.35366491       2.62972901    -113.14382401      -0.00634813       0.00050020       0.00161005      -0.44385357
O       -2.32544188       1.83664304       0.15240128    -113.30617013       0.00551949      -0.00165800      -0.00178325      -0.45924528
O       -1.69590593      -1.40933963       1.15878800    -113.28730629      -0.00165054      -0.00705555       0.01093514      -0.45810499
O       -5.03154647       2.44928881      -0.26880236    -113.06742353       0.00668874      -0.00281197      -0.01320424      -0.43752018
O        1.44653596      -0.99827508      -5.66164678    -114.28954240       0.00184491       0.00444933      -0.00257880      -0.59823670
O        1.04925273       2.44270396       2.01943241    -112.39857747       0.00109940      -0.00298362       0.00729864      -0.34487287
C       -2.85746771       0.49659441       2.09808148     -59.14941587      -0.00344078      -0.00004927       0.00164607       0.08782256
C       -3.32900109       1.04867537       0.74202049     -59.03600094       0.00250145      -0.00235866      -0.00301391       0.09225384
C       -1.54057978      -0.31023662       2.01987571     -59.22766818      -0.00342336      -0.00156501       0.00749037       0.09449186
C       -4.60158541       1.88757045       0.94737313     -59.23691300       0.00121858      -0.00144119      -0.00823689       0.06068019
C       -0.26741135       0.46172378       1.73291281     -58.44795072      -0.00273074      -0.00150959       0.00661188       0.01212917
C       -0.11982643       1.78775965       1.95645426     -58.23306685      -0.00056458      -0.00006638       0.00608204       0.09146238
H       -2.74762256       1.31846633       2.81044395     -13.08811412      -0.00591338       0.00277886       0.00104948       0.04685169
H       -3.56902210       0.19528372       0.08178536     -13.17142833       0.00578434      -0.00531485      -0.00328327       0.03035626
H       -1.42684397      -0.76257047       3.02118462     -12.84005573      -0.00633998       0.00244881       0.01130391       0.05724207
H       -5.37852358       1.28000499       1.42224561     -13.19658527      -0.00113552      -0.00287034      -0.00879726       0.04206979
H       -4.36846135       2.73469906       1.59756599     -13.02455213      -0.00165472       0.00181794      -0.00713436       0.05850235
H       -3.76933734      -1.19836280       2.16048687     -11.27429976      -0.00475475      -0.00225750       0.00410419       0.31632819
H       -2.77209437       2.44290419      -0.45712333     -11.27707146       0.00821122       0.00006096      -0.00539268       0.32021889
H       -0.96876371       2.43247323       2.10306708     -12.82043094       0.00001120       0.00280386       0.00392210       0.08938792
H        0.92039714      -1.63574174      -5.15401486     -11.89194100       0.02867350       0.00982798      -0.06313433       0.30352629
H       -1.46773139      -1.14567772       0.24940235     -11.21441753       0.00900597      -0.01227405       0.00898282       0.33609784
H        1.76163465       1.81382553       2.20873375     -10.97927283      -0.00158039      -0.00620093       0.01691251       0.32839610
H       -5.39759967       1.75560074      -0.82885383     -11.54386783       0.00850767      -0.00568222      -0.01437305       0.29507355
O        1.82891741      -0.16117655      -2.01781042    -112.22124441       0.00834013       0.03825571       0.01113279      -0.39314527
O       -0.10770706      -0.83223295      -1.06632849    -112.49248480      -0.00884657       0.01682245      -0.00648949      -0.41166122
O        3.88372886      -2.18043091      -1.34807402    -112.18101013      -0.00974137      -0.00895331       0.00148549      -0.40833678
N        0.78659554      -0.36882908       1.40780606     -79.61498894      -0.00344427      -0.00230397       0.00569512      -0.08759678
N        4.55046917      -0.06236022      -0.95956839     -80.86525102      -0.00600640      -0.00706474      -0.00414194      -0.26377257
C        1.75935604      -0.13085187       0.45537558     -58.22635831      -0.00525290      -0.00169150      -0.00055117      -0.00183929
C        2.94217959      -1.06794273       0.55865616     -59.40495259      -0.00513778      -0.00256317       0.00015893      -0.10008115
C        1.01261060      -0.43659575      -1.19333246     -58.94494086       0.00057750       0.02874769       0.01039648       0.40599362
C        3.80609871      -1.16207761      -0.70667163     -59.07428730      -0.00715291      -0.00609386      -0.00117911       0.29613111
H        2.00885360       0.91987358       0.32690901     -13.04660138      -0.00194559      -0.00021959       0.00944139       0.06609431
H        3.58969011      -0.74628546       1.38095081     -12.94634142      -0.00446063      -0.00118622      -0.00125441       0.07007743
H        2.58799929      -2.07822577       0.77618418     -12.95812405      -0.00592930      -0.00181460       0.00227891       0.07547004
H        0.55202752      -1.35332108       1.51592320     -11.85031093      -0.00515860      -0.00278966       0.00425059       0.20971401
H        1.99654155      -0.54367107      -5.02023710     -12.16369074      -0.00967975       0.00393460       0.01790575       0.27162803
H        4.34445477       0.82176888      -0.52967517     -12.25045670      -0.01160939      -0.00212208      -0.01072661       0.18384727
H        5.05006480      -0.03913380      -1.83440877     -12.05307458      -0.01121086      -0.00805997      -0.00729897       0.20588054
H        0.47917140      -1.85909014      -3.09428491     -11.83565442      -0.07806593      -0.02595361       0.06012768       0.30062998
O        1.44453123       0.41172958       4.19932113    -114.77671121       0.02117448       0.00702054      -0.00634291      -0.57839669
H        2.03966959       0.42109055       4.95247906     -11.64333606       0.03033348       0.00116982      -0.00637486       0.29205630
H        0.55578148       0.35395017       4.55706396     -11.70334197       0.01763234       0.00999604      -0.00422559       0.28805877
O        0.35420482      -2.63281922      -3.65009706    -114.28413493       0.01789886      -0.01097104      -0.02847488      -0.57395689
H       10.55982250       0.68914927     -12.27899785     -11.32430393       0.00095825       0.00040439      -0.00004202      -0.05932596
H        1.00772326      -3.27945956      -3.37482317     -11.87516542       0.03719760       0.00684728      -0.00278835       0.29147385
47
Properties=species:S:1:pos:R:3:energies:R:1:forces:R:3:charge:R:1 energy=-2290.397756506127 free_energy=-2290.397756506127 dipole="-0.39597560662240117 0.1739657498713106 -1.1941527462620798" pbc="F F F"
O       -3.37716188      -1.00232303       1.23124838    -113.15769568       0.01860773      -0.04537657      -0.08468707      -0.44383724
O       -2.45747848       2.49594953       1.01926239    -113.04868842      -0.00029313       0.04218569       0.04214619      -0.44531538
O       -1.34227294      -1.39898715       2.66100888    -113.07709342       0.02803233      -0.00420565       0.09944116      -0.45714015
O       -4.96781017       2.46630941      -0.37994598    -113.03061597       0.00612688      -0.00240253      -0.01384608      -0.43844284
O        3.52046544      -1.06988173      -6.68591918    -114.44047478       0.20964213       0.00061833      -0.14444850      -0.57369260
O        1.39389382       2.27677048       1.56326562    -113.02061003       0.02186925      -0.00473811      -0.00064201      -0.43300775
C       -2.90511237       0.20730469       1.78538175     -59.05534424      -0.00713626      -0.01740010      -0.01690589       0.08466077
C       -3.13684913       1.30701671       0.74021416     -59.11676775       0.01403359       0.01390528      -0.00450040       0.09527658
C       -1.48256043      -0.01959030       2.41846983     -59.18282765       0.00172648       0.01892754       0.03340933       0.09233054
C       -4.64878946       1.61296709       0.69271854     -59.19206879      -0.00218145      -0.01633828      -0.01844934       0.05929904
C       -0.21003806       0.50033116       1.74566083     -58.53687425       0.00181496       0.01043758       0.01328280       0.00942763
C        0.13001307       1.78948431       1.84745978     -58.35781591       0.01327234       0.00771478       0.01263882       0.03894231
H       -3.57035553       0.40263430       2.63235894     -12.97654869      -0.06050168      -0.05027644      -0.00682040       0.05422798
H       -2.81432240       0.90995913      -0.24177264     -13.25172799       0.04753124       0.03439555      -0.02575857       0.02028483
H       -1.51997788       0.47002684       3.39953756     -13.08587071      -0.01127787       0.07664495       0.03826199       0.03615557
H       -5.23428291       0.68845649       0.66847002     -13.25280495       0.00595042      -0.03638026      -0.04411346       0.03607865
H       -4.90144313       2.17258107       1.59770094     -12.99011332      -0.03026781      -0.02792734      -0.00332143       0.06214955
H       -2.89382533      -1.16922849       0.41005967     -11.37418113       0.04190956      -0.00323672      -0.11364849       0.31071878
H       -2.85655304       3.17852475       0.46116582     -11.30643696       0.00106103       0.04488648       0.04391151       0.31779238
H       -0.58303671       2.54087412       2.13713599     -13.28773887       0.02069686       0.01526026       0.01758150       0.04925477
H        0.41144466      -2.22748181      -4.64274069     -11.65993488      -0.04603594      -0.07770065       0.04198933       0.29917317
H       -2.03164064      -1.84410980       2.13797488     -11.40571399      -0.04681618      -0.05260107       0.13296268       0.31784092
H        2.00302266       1.80901432       2.15453048     -11.44395297       0.01209915      -0.01386045       0.01510839       0.31180268
H       -4.93305156       1.96693745      -1.20263067     -11.59535541       0.02834722       0.00418591      -0.02895520       0.29204389
O        1.73435332      -0.60152406      -2.07330013    -112.72867224      -0.03336247      -0.01515114      -0.00163153      -0.39411679
O       -0.13925938      -1.32350023      -1.08903693    -112.54276047      -0.02081759      -0.01787213       0.01589300      -0.44019403
O        4.21969555      -2.18492135      -1.12871281    -112.30273161      -0.01416424       0.00314533      -0.01866444      -0.42632213
N        0.70045819      -0.49771819       1.39040616     -80.24482017      -0.00010134       0.00371446       0.01283600      -0.20146588
N        4.46785307       0.02468513      -0.79764442     -80.82665828      -0.01360731       0.00340056      -0.00437498      -0.26831004
C        1.60250768      -0.35527255       0.27536253     -59.08953194      -0.01707587      -0.00230955      -0.00870947       0.01617750
C        2.88078587      -1.16074370       0.58617357     -59.32003265      -0.01239673      -0.00261323      -0.00905985      -0.10364603
C        0.96081783      -0.82745893      -1.03226036     -59.05533727      -0.02202146      -0.01031463       0.02128744       0.35421743
C        3.89748411      -1.17538262      -0.54543471     -59.16474427      -0.01292699       0.00096161      -0.00950294       0.29132374
H        1.84396099       0.70385535       0.14318657     -12.78954847      -0.01282414      -0.00260484      -0.00732810       0.08701843
H        3.34642301      -0.73389132       1.47680508     -13.00657401      -0.01426945      -0.00268425      -0.00644693       0.06992706
H        2.60635357      -2.19481867       0.80168459     -13.04385011      -0.01234102      -0.00337112      -0.01154227       0.06999908
H        0.27976243      -1.41991536       1.43876878     -12.38978977      -0.01126749       0.00689735       0.01031454       0.17884323
H        2.78569541      -0.45320934      -6.74457663     -11.78121765       0.14106587       0.05226392      -0.07835911       0.28842380
H        4.11003115       0.87429686      -0.39972002     -12.25710018      -0.00794494       0.00111911       0.00748944       0.18780254
H        5.09081806       0.09492667      -1.58500591     -12.20517346      -0.00959430       0.00664869      -0.00189134       0.19375660
H        1.34344150      -0.93981126      -2.92441925     -10.82266040       0.03863630       0.07096594       0.02203440       0.36420373
O        1.76610254       0.65061513       4.12364137    -114.45404764       0.04410759       0.01174906      -0.00933039      -0.57890115
H        1.54725826      -0.22361023       3.79161745     -11.76178060      -0.01818554      -0.05413882      -0.09039746       0.29624874
H        0.96692657       0.97757313       4.54214094     -11.88887191       0.05125101       0.04150620      -0.00468909       0.28500313
O        1.01823534      -1.49843039      -4.50643164    -114.58966533       0.05831318       0.03489998      -0.04728267      -0.56918880
H        4.23201148      -0.76437530      -7.26888917     -11.81033801      -0.44261032      -0.07360132       0.29626742       0.28615638
H        1.88081684      -1.78150176      -4.82706769     -11.47459332       0.07392639       0.03067063      -0.06154853       0.31701936
47
Properties=species:S:1:pos:R:3:energies:R:1:forces:R:3:charge:R:1 energy=-2290.9838248764063 free_energy=-2290.9838248764063 dipole="-0.34066435949845103 1.2324927775966603 0.1932794922936867" pbc="F F F"
O       -2.78474157      -1.12343055       0.34472754    -113.23911674       0.01123257      -0.00305833      -0.00228427      -0.45023277
O       -2.66469416       2.32773715       1.50156768    -113.22595477      -0.00508096      -0.00023547       0.01050963      -0.45479506
O       -1.29084602      -1.43774540       2.61471125    -113.11429837       0.00179720       0.00726813       0.01384068      -0.44975064
O       -4.60439672       2.64759889      -0.54919678    -113.06526362       0.00566240      -0.00034659      -0.00139814      -0.43882252
O        1.11848782      -1.59512476      -4.89496174    -114.68405219       0.00734761      -0.01289918       0.00611539      -0.60324206
O        1.37689003       1.92531541       0.57539477    -113.06745142       0.00197564      -0.00415661      -0.00657049      -0.42522133
C       -2.72895408      -0.06854265       1.27122357     -59.13194745       0.00259751      -0.00274137       0.00073518       0.08731742
C       -2.94679452       1.29170696       0.59373962     -59.11582426       0.00281088      -0.00045992       0.00262124       0.08954966
C       -1.41218966      -0.14011637       2.07821491     -59.24723504       0.00034427       0.00406438       0.00461931       0.08926623
C       -4.39700296       1.41594823       0.10210272     -59.23431599       0.00426306      -0.00573420      -0.00664078       0.06021968
C       -0.19414551       0.20964311       1.23568693     -58.59506672      -0.00122432      -0.00031242       0.00043493       0.00996999
C        0.29233692       1.45189247       1.29834674     -58.38329940       0.00454196      -0.00249701       0.00125990       0.03879595
H       -3.55446143      -0.24873600       1.96970715     -12.95742420      -0.00061003      -0.00743740      -0.00188726       0.05812061
H       -2.26336181       1.36426000      -0.27335201     -13.28223752       0.00977614       0.00520366       0.00497015       0.01819152
H       -1.48294383       0.56464787       2.91131014     -13.00691382      -0.00123689       0.01031220      -0.00018887       0.05584122
H       -4.65476674       0.56391377      -0.53517649     -13.21920001       0.01140806      -0.00568505      -0.01624268       0.03960544
H       -5.06223384       1.42729841       0.96923414     -12.98431669      -0.00380300      -0.01455748      -0.00801867       0.06296287
H       -2.01183155      -1.07076856      -0.23762255     -11.36776625       0.01767140      -0.00154912       0.00338532       0.31081792
H       -3.15636982       3.10440522       1.19642390     -11.28243591      -0.00773253      -0.00006264       0.01285900       0.31820171
H       -0.20675437       2.17841970       1.92219446     -13.40013399       0.01042872      -0.00278391       0.00851439       0.03316248
H        0.57793724       0.97609081      -2.74722191     -11.80235976      -0.01184269       0.03350236      -0.00444340       0.28890293
H       -1.81203696      -2.03081383       2.05219593     -11.38957262       0.00460747       0.00241100       0.01571159       0.31317398
H        1.85941257       2.52942026       1.14976782     -11.47880229      -0.00230870       0.01782649      -0.00871969       0.30423069
H       -4.16333506       2.63280335      -1.40574967     -11.56648166       0.01387619       0.00736694      -0.00136953       0.29280818
O        2.22617724      -1.43696590      -2.38817368    -112.68727889       0.00066359      -0.01015578      -0.00368984      -0.38202345
O        0.73408078      -2.77668622      -1.39371320    -112.11711039      -0.00836256      -0.01028136      -0.01279256      -0.39831497
O        4.60938999      -2.13527571      -0.41958576    -112.27969873       0.00007145      -0.00036452       0.00884397      -0.42338879
N        0.23298400      -0.83141702       0.41801550     -80.40412998      -0.01430977      -0.00128227      -0.01000649      -0.20415945
N        4.46212484       0.08961570      -0.11563986     -80.85772853      -0.00952586       0.00092501      -0.00026488      -0.27259197
C        1.53301222      -0.83760793      -0.20847032     -59.07165054      -0.01025689      -0.00407741      -0.00745725       0.01406820
C        2.67722282      -1.27067429       0.73747382     -59.26590711      -0.00975763      -0.00125746      -0.00160974      -0.10479484
C        1.45068120      -1.81402641      -1.38045512     -59.03704215      -0.00595154      -0.00888696      -0.00802770       0.35461220
C        4.01250621      -1.17921378       0.01664954     -59.19858036      -0.00562188      -0.00028803       0.00280663       0.28624330
H        1.74557224       0.16444873      -0.58586361     -12.79494231      -0.01137185      -0.00430150      -0.01009844       0.08541242
H        2.68273529      -0.61262392       1.60732318     -12.99405379      -0.01415339       0.00110916      -0.00067185       0.07530069
H        2.51632546      -2.30152548       1.05611842     -13.10490167      -0.00824025      -0.00151940      -0.00098980       0.06754214
H       -0.00663331      -1.74553960       0.78758054     -12.23755917      -0.00881914      -0.00082647      -0.00214713       0.18587477
H        0.64455460      -1.73388218      -5.71523097     -11.97374705       0.01265622      -0.04103800      -0.00491938       0.27895937
H        3.97040941       0.86850042       0.28438885     -12.20495599      -0.01333623       0.00061268      -0.00383738       0.19283784
H        5.33630462       0.25057683      -0.58664915     -12.22968748      -0.00617188       0.00199150       0.00322056       0.19199651
H        2.08614180      -1.99195109      -3.18406175     -10.67809848       0.00680870      -0.01161728      -0.00505873       0.37055406
O        2.23438802       1.11516799       3.44863451    -114.53209011       0.00811899      -0.00210815      -0.00072507      -0.58157387
H        1.45630134       0.55996651       3.33428816     -11.78185135      -0.00348412       0.00638854       0.00181624       0.29238602
H        2.28630931       1.32974832       4.38181155     -11.84606356       0.02701435      -0.01109843       0.00958295       0.28426968
O        1.10222647       0.85380188      -3.54145648    -114.64326200       0.00855218       0.03618933      -0.00859445      -0.58515308
H        0.97286578      -0.66943751      -4.64411474     -11.63580802      -0.01517769      -0.00008105       0.00827455       0.31223736
H        1.93592668       0.46258372      -3.25423488     -11.56620655       0.00415326       0.03852937       0.01853287       0.31063175
47
Properties=species:S:1:pos:R:3:energies:R:1:forces:R:3:charge:R:1 energy=-2291.0708102883236 free_energy=-2291.0708102883236 dipole="0.6129106294462878 1.4818154218638264 0.14815888355248963" pbc="F F F"
O       -2.87530416      -0.86355087      -0.66940242    -113.28007169       0.00270484      -0.01169212       0.01442657      -0.47096179
O       -2.56567325       2.07725827       1.46348403    -113.28665372      -0.00250541       0.00266062      -0.00254399      -0.46519218
O       -1.57172572      -1.92295472       1.51049718    -113.05300493       0.00173539       0.00456542       0.02286861      -0.44526289
O       -4.77571762       3.02282294       0.16528792    -113.07040413       0.00364839      -0.00484585      -0.01861171      -0.44097964
O       -0.79013227      -0.57972435      -2.43913071    -114.71157298      -0.01410241       0.01324568      -0.00009326      -0.60488676
O        1.31645038       1.51413262      -0.32413942    -113.58847743       0.00137263      -0.00521386       0.00057620      -0.47915791
C       -2.77807375      -0.14753090       0.52575488     -59.20801681       0.00224797      -0.00273096       0.00957100       0.09075521
C       -3.02577582       1.35914779       0.33785115     -59.12673704       0.00340156      -0.00383669      -0.00108387       0.08330731
C       -1.48878026      -0.53343101       1.29734142     -59.23518492       0.00294012       0.00268393       0.01177561       0.08777797
C       -4.52626811       1.63426117       0.15309572     -59.22435475       0.00404490      -0.00481172      -0.00982150       0.06052942
C       -0.15171608      -0.17326663       0.63847581     -58.73488945       0.00100062      -0.00424068       0.00334549       0.02308860
C        0.11678998       1.08791747       0.27983637     -58.33253023       0.00403245       0.00068360       0.01244407       0.00174067
H       -3.59479842      -0.53515156       1.15210122     -12.95882193       0.00221239       0.00167754       0.01264998       0.05168262
H       -2.49306310       1.70029642      -0.56645739     -13.14099092       0.00886364      -0.00924560      -0.00021431       0.03470512
H       -1.52908063      -0.05566569       2.28181751     -12.97905437       0.00465341       0.01139947       0.00754032       0.05848117
H       -4.88914510       1.15822442      -0.76250561     -13.22008991       0.00814314      -0.00993970      -0.00883111       0.04084399
H       -5.07745620       1.23418363       1.00797241     -13.03109464       0.00017555      -0.00019541      -0.00996364       0.05880717
H       -2.13212946      -0.65159162      -1.27791893     -11.35182283      -0.00428033      -0.00497818       0.00783478       0.33277640
H       -3.18620819       2.81211240       1.58983598     -11.34625383      -0.00354818       0.00310086      -0.00978616       0.31656371
H       -0.58500935       1.88211243       0.45566067     -13.37828523       0.00999204       0.00454384       0.03090790       0.03962927
H        0.58808305       1.96536085      -1.95043115     -11.50478108       0.00508621       0.00273277       0.00812533       0.32571018
H       -1.95681418      -2.29906510       0.70183202     -11.37400117      -0.00335665      -0.00086723       0.02737718       0.31811723
H        1.93129850       1.76515696       0.38349752     -11.50370128       0.00225770       0.01024767      -0.00508054       0.30814636
H       -4.40903223       3.41501600      -0.63533116     -11.57373536       0.00688567      -0.00915867      -0.01931708       0.29453177
O        2.74706729      -2.34600698      -2.02461346    -112.54901803       0.00492463      -0.00246401      -0.01035351      -0.37070204
O        1.58113720      -3.61906711      -0.60393949    -112.09275497       0.01008146      -0.00694148      -0.01149829      -0.39446216
O        5.05536422      -2.31565311      -0.08177871    -112.35580580      -0.00403318       0.00169384      -0.00060085      -0.42815747
N        0.69317764      -1.24577012       0.56224008     -79.94777971      -0.01024788      -0.01193275      -0.02117702      -0.17337294
N        4.93767732      -0.09115462       0.23633374     -80.87106233      -0.00513294       0.00087749       0.00341447      -0.27141354
C        1.99211315      -1.31179246      -0.03225981     -59.13579285      -0.00358086      -0.00538191      -0.01046095       0.01614356
C        3.11223990      -1.43118027       1.03671068     -59.27742829      -0.00763296      -0.00097758      -0.00445510      -0.10876661
C        2.07536176      -2.56595998      -0.89637137     -58.93990577       0.00478030      -0.00657681      -0.01088967       0.35485497
C        4.46731550      -1.35341552       0.35577928     -59.17196582      -0.00509021       0.00046243      -0.00021096       0.28590930
H        2.17159031      -0.43025193      -0.65128918     -12.78087809      -0.00378781      -0.00407236      -0.00878293       0.08893357
H        3.00344525      -0.62357018       1.75862366     -12.99623647      -0.01238036      -0.00003163      -0.00574800       0.07319992
H        3.01473537      -2.39236005       1.54242490     -13.02937376      -0.00723574      -0.00068427      -0.00358652       0.07437797
H        0.32173131      -2.11240497       0.93208267     -12.21666234      -0.00608023      -0.01074205      -0.01452119       0.19769630
H        0.02698217      -1.02466441      -2.20811346     -11.97135509      -0.01614628       0.01066154       0.00025144       0.28128443
H        4.46219543       0.69198651       0.64801976     -12.18663031      -0.00595973       0.00006367       0.00425001       0.19345292
H        5.82499348       0.05752016      -0.21442819     -12.20962876      -0.00389133       0.00165747       0.00572205       0.19266874
H        2.88617674      -3.17421910      -2.51151355     -10.91306169       0.00825295      -0.00167678      -0.01125618       0.34054466
O        2.39795635       1.65563011       2.27341539    -114.73313888       0.00216752       0.00689271       0.00110648      -0.57941545
H        1.58389986       1.17976921       2.47213173     -11.57762484      -0.00233196       0.01193884      -0.00260572       0.30417966
H        2.40542402       2.43516421       2.83296461     -11.69907686       0.00819353       0.00399655       0.00619955       0.29266549
O        0.14806872       1.96909302      -2.81568757    -114.71330016       0.00510795       0.00942807       0.00235746      -0.59566017
H       -0.55625204       0.34265466      -2.65582154     -11.59375850      -0.00771702       0.01729491       0.00259342       0.32228950
H        0.83169200       2.09298854      -3.47603249     -11.89404034       0.01013451       0.00072937       0.00615614       0.28299638
