47
Properties=species:S:1:pos:R:3 pbc="F F F"
O       -4.00204464      -0.88681386       0.50488222
O       -2.92207564       2.22921531       1.64293733
O       -2.16007928      -2.59751156      -0.32572394
O       -5.01048461       3.37222850      -0.00253519
O       -0.48722013      -1.71718544      -2.43140374
O       -1.59955580       1.90794697       4.33978643
C       -3.84454358       0.06061516       1.22828807
C       -3.68469757       1.47179028       0.73535410
C       -1.06981186      -1.88964281      -0.13995423
C       -5.10029851       2.09644082       0.56778816
C       -0.16073793      -1.64134700      -1.25802019
C       -0.44641612       2.44044080       4.39865714
H       -3.84057265      -0.05676427       2.32539522
H       -3.20047002       1.44877661      -0.25457781
H       -0.84407561      -1.45180431       0.82535482
H       -5.73377145       1.42092590      -0.01546854
H       -5.53795718       2.23750632       1.55976222
H       -2.34036806      -2.83497806      -2.56572906
H       -2.94131598       3.14646171       1.33346453
H       -0.42600092       3.56146441       4.40189523
H       -1.54940568       5.74323786      17.37289017
H       -2.82702680      -2.54761146       0.38078038
H       -2.42832750       2.44094349       4.28347000
H       -4.91025270       3.30117969      -0.95859346
O        2.15108534      -2.22062944      -3.93172756
O        2.04107867      -3.59141828      -2.16748629
O        4.98451995      -1.79413086      -2.79100580
N        1.09131372      -1.26276510      -0.86347574
N        5.67010002      -0.16865055      -1.39440044
C        2.20297026      -1.21609295      -1.79911418
C        3.50245313      -1.14790831      -0.99326442
C        2.13591900      -2.49403056      -2.64361405
C        4.77387755      -1.08112581      -1.84101124
H        2.12215432      -0.36321082      -2.49011757
H        3.44123176      -0.28169862      -0.33352945
H        3.57771742      -2.05913288      -0.39214073
H        1.27108481      -1.06309128       0.11369260
H        2.48911053       9.21588482       6.84671959
H        5.49985181       0.42160261      -0.59932483
H        6.56273801      -0.09405378      -1.85536348
H        2.05394402      -3.02965143      -4.45995830
O        0.61662943      -0.17538754       2.35319196
H        1.36191002      -0.39287414       2.92015696
H        0.10957543       0.48102138       2.84470800
O       -2.38713785      -3.78198510      -2.73071771
H       18.03863366       2.20460362     -17.41962625
H       -1.50843980      -4.10738348      -2.52338820
