44
Properties=species:S:1:pos:R:3 reactant=T mapped=T (centered)=T charge=0 spin=1 pbc="F F F"
O       -3.15211495       1.11521316      -1.58332096
O       -3.25594068       0.58244203       1.95586933
O       -1.63367160      -1.17537915      -1.47504929
O       -5.18317732       2.53659166       1.82015873
O        0.07501831       0.77833804      -1.13232011
O        0.82908213       1.94232408       1.13034250
C       -3.11555873       0.33903964      -0.40464808
C       -3.43428084       1.28369093       0.73743076
C       -1.77823751      -0.41685283      -0.28832103
C       -4.85973290       1.80115617       0.64263103
C       -0.56871027       0.49470980      -0.14793480
C       -0.18277425       0.95736731       1.23071670
H       -3.88547075      -0.44329615      -0.43023342
H       -2.74887330       2.14408485       0.67981058
H       -1.81936490      -1.08313164       0.57485981
H       -4.99349038       2.39361167      -0.26313011
H       -5.54754538       0.95425619       0.61593091
H       -2.94555847       0.52365476      -2.31705624
H       -3.79582665       1.04038161       2.61493956
H       -1.05978286       1.31498977       1.77271200
H        0.17176274       0.05039816       1.73481269
H       -0.92560897      -0.73894166      -1.97722707
H        1.15774133       2.14327442       2.01137234
H       -4.84535874       3.43311067       1.73054411
O        3.49317285      -3.03627400      -1.90449744
O        2.66563685      -4.15137557      -0.14037845
O        5.15699102      -1.79346764       0.22037093
N        0.77513916      -2.08905087       0.23581944
N        4.69250216       0.22738427      -0.68863117
C        2.03874593      -1.84566957      -0.44737832
C        2.92728088      -0.98259611       0.46356631
C        2.75530087      -3.14415807      -0.78881317
C        4.37007723      -0.89030849      -0.00731275
H        1.84845146      -1.30160129      -1.37467064
H        2.46396300       0.00068495       0.54214831
H        2.95085677      -1.45067527       1.44913978
H        0.94021826      -2.78670035       0.95620845
H        0.10516023      -2.49830966      -0.40824540
H        4.02046010       0.96812304      -0.86442201
H        5.63336210       0.30225140      -1.03606818
H        4.03045616      -3.83985855      -1.97265695
O        2.60129246       2.21721965      -1.15369018
H        2.05833195       1.93461812      -1.89733375
H        1.97007551       2.18873051      -0.41604477
44
Properties=species:S:1:pos:R:3 reactant=T mapped=T (centered)=T charge=0 spin=1 pbc="F F F"
O       -3.16284378       1.10246033      -1.56717472
O       -3.23508441       0.58323903       1.97182525
O       -1.68169409      -1.20515001      -1.46885164
O       -5.19854015       2.50541591       1.84403656
O        0.06546526       0.73043860      -1.17860918
O        0.86360921       1.92309205       1.07589862
C       -3.12564754       0.32078581      -0.38900762
C       -3.44128431       1.26768983       0.75041059
C       -1.78793615      -0.43203576      -0.28473464
C       -4.87689770       1.76562624       0.66897023
C       -0.55559540       0.45322380      -0.17384397
C       -0.18222553       0.98190343       1.16666433
H       -3.89466439      -0.46484467      -0.40319421
H       -2.76944387       2.13557842       0.67562068
H       -1.82570402      -1.09220115       0.58330114
H       -5.03188317       2.34762048      -0.24120666
H       -5.55428427       0.90934202       0.66007755
H       -3.05592672       0.51130209      -2.30755981
H       -3.77026597       1.04135065       2.63481277
H       -1.02507155       1.43904145       1.66229420
H        0.09668289       0.09361552       1.73703563
H       -1.01915256      -0.75034750      -2.01499825
H        1.21887625       2.06109147       1.96451378
H       -4.87809869       3.40697966       1.74150887
O        3.49451930      -3.01136220      -1.88568684
O        2.58856266      -4.12537889      -0.15720076
O        5.16590550      -1.82702814       0.26957691
N        0.76391918      -2.00827778       0.21979207
N        4.74582187       0.20278703      -0.64731076
C        2.04468736      -1.79484825      -0.43840491
C        2.94827114      -0.97714321       0.49239332
C        2.72692954      -3.11108183      -0.78854352
C        4.39885577      -0.90913267       0.03440673
H        1.88534169      -1.23452819      -1.36226184
H        2.51496634       0.01462650       0.57875311
H        2.94881717      -1.46200647       1.46964835
H        0.87675482      -2.73562550       0.90763372
H        0.09124944      -2.42704364      -0.54437157
H        4.08329315       0.94890459      -0.84178808
H        5.68983216       0.26104447      -0.98646216
H        4.01083446      -3.82946590      -1.95172707
O        2.68229814       2.20444423      -1.17278244
H        2.09671747       1.91280033      -1.86895977
H        2.07003348       2.27309784      -0.43449401
44
Properties=species:S:1:pos:R:3 reactant=T mapped=T (centered)=T charge=0 spin=1 pbc="F F F"
O       -3.17603747       1.08025544      -1.55536492
O       -3.20997714       0.58429282       1.98564694
O       -1.72467635      -1.23932622      -1.46031968
O       -5.20354909       2.47743620       1.86851929
O        0.05429991       0.67988606      -1.22846118
O        0.89339756       1.90384109       1.01889712
C       -3.13387630       0.29908366      -0.37418116
C       -3.44415059       1.25025195       0.76213805
C       -1.79547181      -0.45085356      -0.28267644
C       -4.88782297       1.73048911       0.69675193
C       -0.54354550       0.41177766      -0.20138340
C       -0.18429276       1.00691264       1.09879218
H       -3.90109435      -0.48965687      -0.37414575
H       -2.78605193       2.12462388       0.66937981
H       -1.82783198      -1.10409965       0.59059884
H       -5.06505875       2.30048926      -0.21724271
H       -5.55471731       0.86626386       0.70783854
H       -3.16593091       0.49650249      -2.28917073
H       -3.73714911       1.04543323       2.65272612
H       -0.99198484       1.54861918       1.52817063
H        0.02117684       0.15167029       1.72915355
H       -1.11469160      -0.76662638      -2.04692795
H        1.25959105       1.98447696       1.91079428
H       -4.89889601       3.38226479       1.75187059
O        3.49116305      -2.98430786      -1.86827353
O        2.50975868      -4.09300131      -0.17962289
O        5.16856430      -1.86185600       0.31658693
N        0.75413918      -1.92881198       0.20728507
N        4.79333671       0.17691450      -0.60393451
C        2.04853805      -1.74421581      -0.42786631
C        2.96529542      -0.97266196       0.52190616
C        2.69635697      -3.07497131      -0.78981455
C        4.42191727      -0.92944599       0.07587438
H        1.92002695      -1.16843941      -1.34615437
H        2.56203949       0.02598459       0.61868011
H        2.94242269      -1.47360403       1.48981930
H        0.81810594      -2.68131040       0.85916852
H        0.08442853      -2.34634196      -0.67723438
H        4.14207237       0.92925926      -0.81406827
H        5.73968924       0.21770907      -0.93646627
H        3.98598690      -3.81579070      -1.93446284
O        2.76080287       2.19443841      -1.17952852
H        2.13526190       1.90217409      -1.82668233
H        2.17843492       2.35427089      -0.44661567
44
Properties=species:S:1:pos:R:3 reactant=T mapped=T (centered)=T charge=0 spin=1 pbc="F F F"
O       -3.19063070       1.05767351      -1.54368418
O       -3.18343093       0.58596608       1.99966211
O       -1.76843403      -1.27298951      -1.45284660
O       -5.20831111       2.44853213       1.89465949
O        0.04305237       0.62934432      -1.27984528
O        0.92377954       1.88428160       0.96050969
C       -3.14256972       0.27734064      -0.35927242
C       -3.44715088       1.23250515       0.77417556
C       -1.80320564      -0.46939899      -0.28144926
C       -4.89917040       1.69431492       0.72601430
C       -0.53158128       0.37047773      -0.23015579
C       -0.18646453       1.03241215       1.02963255
H       -3.90783422      -0.51492801      -0.34456518
H       -2.80368986       2.11374936       0.66263896
H       -1.82978738      -1.11599243       0.59703375
H       -5.09955417       2.25208051      -0.19182878
H       -5.55503147       0.82172641       0.75789341
H       -3.27786519       0.48166216      -2.27019741
H       -3.70225206       1.04993354       2.67136142
H       -0.95862796       1.66078825       1.38884090
H       -0.05511322       0.21191613       1.72025352
H       -1.21166011      -0.78184071      -2.07953774
H        1.29881129       1.90768615       1.85611430
H       -4.91996221       3.35678267       1.76336660
O        3.48850080      -2.95771150      -1.85002709
O        2.43046022      -4.06026632      -0.20219408
O        5.17100602      -1.89720413       0.36519447
N        0.74430767      -1.84870846       0.19397773
N        4.84132164       0.15021034      -0.55931282
C        2.05253520      -1.69355693      -0.41711648
C        2.98216922      -0.96850129       0.55194962
C        2.66573376      -3.03856540      -0.79111563
C        4.44509072      -0.95024130       0.11855261
H        1.95561157      -1.10215147      -1.33000534
H        2.60937873       0.03712799       0.65899802
H        2.93508492      -1.48528091       1.51034506
H        0.75897855      -2.62643536       0.80940751
H        0.07909129      -2.26381952      -0.81233304
H        4.20168965       0.90891929      -0.78557772
H        5.79016053       0.17358066      -0.88464447
H        3.96119442      -3.80268446      -1.91626654
O        2.84011866       2.18334583      -1.18651333
H        2.17461173       1.89163394      -1.78355312
H        2.28963858       2.43628526      -0.45853930
44
Properties=species:S:1:pos:R:3 reactant=T mapped=T (centered)=T charge=0 spin=1 pbc="F F F"
O       -3.20547789       1.02353469      -1.53637467
O       -3.15529499       0.58840677       2.01136559
O       -1.80525288      -1.31505513      -1.43838515
O       -5.20133229       2.42815243       1.91698726
O        0.02938840       0.57462038      -1.33203753
O        0.94726127       1.86441283       0.90257477
C       -3.14831888       0.25163491      -0.34443040
C       -3.44455779       1.21502578       0.78391569
C       -1.80829905      -0.49344923      -0.27872655
C       -4.90222966       1.66253935       0.75332374
C       -0.52077193       0.32757621      -0.25748496
C       -0.19161182       1.05623850       0.95826641
H       -3.91132479      -0.54288706      -0.31199728
H       -2.81384211       2.10051372       0.65346680
H       -1.82777687      -1.13093927       0.60608638
H       -5.12433588       2.20635134      -0.16802101
H       -5.54862036       0.78433322       0.80746630
H       -3.38400132       0.46158871      -2.24234443
H       -3.66327499       1.05911882       2.68629979
H       -0.92854037       1.74899191       1.23347919
H       -0.13000353       0.28319407       1.70055135
H       -1.30966713      -0.80916184      -2.10136702
H        1.32084452       1.83479861       1.79800450
H       -4.92564497       3.33754424       1.76946000
O        3.48113693      -2.92543773      -1.83642889
O        2.35182062      -4.02095435      -0.23344083
O        5.16737768      -1.93192803       0.40800347
N        0.73550149      -1.77258392       0.18578610
N        4.88176665       0.12478984      -0.51337061
C        2.05384781      -1.64302098      -0.40584273
C        2.99429916      -0.96526471       0.58176311
C        2.63398983      -2.99826711      -0.79595792
C        4.46155124      -0.97108939       0.15911053
H        1.98710664      -1.03613421      -1.31030207
H        2.65078027       0.04546984       0.70332845
H        2.92462660      -1.49773845       1.52909370
H        0.70703024      -2.57100984       0.76063032
H        0.07679479      -2.17497644      -0.94148778
H        4.25411894       0.89032157      -0.75171351
H        5.83178360       0.13116441      -0.83385565
H        3.93200937      -3.78198056      -1.90652653
O        2.91255096       2.17760117      -1.17923223
H        2.21156314       1.89136800      -1.72674323
H        2.40302938       2.51258694      -0.46289245
44
Properties=species:S:1:pos:R:3 reactant=T mapped=T (centered)=T charge=0 spin=1 pbc="F F F"
O       -3.21918634       0.98964660      -1.52907624
O       -3.12944048       0.58996231       2.02257723
O       -1.84349109      -1.35856560      -1.42282224
O       -5.19393048       2.41008595       1.93744057
O        0.01474134       0.51939745      -1.38327567
O        0.96903345       1.84427135       0.84541100
C       -3.15398861       0.22623237      -0.32969369
C       -3.44184368       1.19831893       0.79315536
C       -1.81431829      -0.51884954      -0.27529811
C       -4.90458059       1.63360368       0.77865147
C       -0.51061669       0.28376012      -0.28370305
C       -0.19703587       1.07827499       0.88814736
H       -3.91566051      -0.56964589      -0.28055175
H       -2.82245336       2.08717783       0.64528784
H       -1.82688597      -1.14686081       0.61582261
H       -5.14562872       2.16456118      -0.14591457
H       -5.54272825       0.75061509       0.85361501
H       -3.48850622       0.44213444      -2.21491399
H       -3.62771867       1.06692806       2.70036355
H       -0.89981176       1.82870677       1.08456287
H       -0.20379896       0.35258670       1.68152352
H       -1.40939880      -0.83887041      -2.12186532
H        1.34172748       1.76240564       1.74008871
H       -4.92884644       3.32033268       1.77545317
O        3.47419593      -2.89327246      -1.82279529
O        2.27746980      -3.98211255      -0.26327102
O        5.16485694      -1.96475752       0.44908138
N        0.72733439      -1.69744164       0.17834893
N        4.92118015       0.10035942      -0.46955148
C        2.05537569      -1.59303322      -0.39438494
C        3.00734515      -0.96169006       0.61112163
C        2.60322066      -2.95791659      -0.80089498
C        4.47838972      -0.99069641       0.19794250
H        2.01770722      -0.97079744      -1.29028876
H        2.69238505       0.05395043       0.74740858
H        2.91543391      -1.50969382       1.54719646
H        0.65704559      -2.51649335       0.71245430
H        0.07495016      -2.08726691      -1.06816302
H        4.30547596       0.87235265      -0.71983937
H        5.87216965       0.09025106      -0.78618814
H        3.90310835      -3.76100420      -1.89734995
O        2.98337111       2.17251453      -1.17128166
H        2.24708369       1.89216091      -1.66854649
H        2.51626841       2.58837725      -0.46598431
44
Properties=species:S:1:pos:R:3 reactant=T mapped=T (centered)=T charge=0 spin=1 pbc="F F F"
O       -3.23402079       0.94415271      -1.52518980
O       -3.10078099       0.59332342       2.03205913
O       -1.87354983      -1.40884698      -1.40014373
O       -5.17720829       2.39868420       1.95426118
O       -0.00137934       0.46116892      -1.43568315
O        0.98611168       1.82430010       0.78894666
C       -3.15640165       0.19739136      -0.31432569
C       -3.43457281       1.18177360       0.80054672
C       -1.81671994      -0.54807635      -0.26995119
C       -4.90083272       1.60690857       0.80295368
C       -0.50066581       0.24003996      -0.30918466
C       -0.20456615       1.09980373       0.81474800
H       -3.91593868      -0.59931889      -0.24529964
H       -2.82517650       2.07243442       0.63367665
H       -1.82105452      -1.16363084       0.62914690
H       -5.16059680       2.12272725      -0.12491653
H       -5.53072610       0.72084936       0.90130522
H       -3.58785024       0.41753572      -2.17777969
H       -3.58690092       1.08008161       2.71155930
H       -0.87395597       1.88991060       0.91949940
H       -0.27538828       0.43421081       1.64991227
H       -1.50894099      -0.88046891      -2.12999581
H        1.35003969       1.69332136       1.67856107
H       -4.92092376       3.30794168       1.77538100
O        3.46254571      -2.85512776      -1.81417944
O        2.20463183      -3.93736422      -0.30206566
O        5.15592854      -1.99826979       0.48596493
N        0.71926606      -1.62552031       0.17420867
N        4.95391698       0.07625162      -0.42260498
C        2.05402209      -1.54321093      -0.38315658
C        3.01498453      -0.95946481       0.64011547
C        2.57061673      -2.91375242      -0.81024451
C        4.48841329      -1.01134637       0.23604912
H        2.04441712      -0.90520766      -1.26736926
H        2.72785976       0.05914919       0.79563716
H        2.90174286      -1.52338573       1.56326880
H        0.61193811      -2.46231303       0.66423485
H        0.07407063      -1.99053232      -1.19287182
H        4.35075607       0.85534751      -0.68122131
H        5.90513820       0.05011420      -0.73617731
H        3.86990631      -3.73200044      -1.89741316
O        3.04872544       2.17155080      -1.15092623
H        2.28176166       1.90094712      -1.59824807
H        2.63135777       2.65791795      -0.46308802
44
Properties=species:S:1:pos:R:3 reactant=T mapped=T (centered)=T charge=0 spin=1 pbc="F F F"
O       -3.24801228       0.89886706      -1.52117937
O       -3.07277148       0.59652761       2.04141290
O       -1.90269899      -1.45915294      -1.37696283
O       -5.16035244       2.38826834       1.96989165
O       -0.01761253       0.40307422      -1.48708065
O        1.00229263       1.80423201       0.73378216
C       -3.15847958       0.16876277      -0.29905026
C       -3.42703181       1.16575020       0.80753890
C       -1.81901266      -0.57741412      -0.26423809
C       -4.89651729       1.58133552       0.82627538
C       -0.49064079       0.19592118      -0.33362629
C       -0.21202763       1.12025358       0.74228781
H       -3.91596112      -0.62834505      -0.21053531
H       -2.82699406       2.05801460       0.62186080
H       -1.81546742      -1.18035379       0.64283969
H       -5.17422687       2.08234345      -0.10481168
H       -5.51864482       0.69251131       0.94740063
H       -3.68502526       0.39334673      -2.14128541
H       -3.54699931       1.09318473       2.72213265
H       -0.84843959       1.94744251       0.75813419
H       -0.34641474       0.51451100       1.61797842
H       -1.60752440      -0.92324948      -2.13725627
H        1.35863462       1.62388892       1.61807598
H       -4.91218469       3.29646884       1.77459431
O        3.45079117      -2.81640226      -1.80612835
O        2.13304841      -3.89288752      -0.34055214
O        5.14740816      -2.03108398       0.52162450
N        0.71113926      -1.55444091       0.17081408
N        4.98588006       0.05288429      -0.37645598
C        2.05269302      -1.49359123      -0.37202101
C        3.02248685      -0.95718676       0.66860241
C        2.53845309      -2.86950783      -0.81978956
C        4.49822423      -1.03151517       0.27322562
H        2.07017030      -0.84009091      -1.24449278
H        2.76293384       0.06436939       0.84382434
H        2.88869678      -1.53703430       1.57896205
H        0.56783729      -2.40870397       0.61718449
H        0.07159287      -1.89582557      -1.31514740
H        4.39497367       0.83896708      -0.64302658
H        5.93713873       0.01102039      -0.68755136
H        3.83678615      -3.70215468      -1.89849764
O        3.11263120       2.17092627      -1.13032821
H        2.31538125       1.90949371      -1.52810039
H        2.74384618       2.72657475      -0.46032537
44
Properties=species:S:1:pos:R:3 reactant=T mapped=T (centered)=T charge=0 spin=1 pbc="F F F"
O       -3.26041955       0.84216170      -1.51987345
O       -3.04306765       0.60258864       2.04888727
O       -1.92022135      -1.51574272      -1.34444728
O       -5.13624558       2.38561278       1.97792104
O       -0.03454674       0.34373576      -1.53556312
O        1.01371260       1.78373559       0.68453405
C       -3.15602001       0.13738713      -0.28320485
C       -3.41483816       1.15120421       0.81128466
C       -1.81692836      -0.61031386      -0.25418300
C       -4.88606520       1.55957644       0.84524104
C       -0.47998032       0.15183203      -0.35389345
C       -0.22105782       1.13895396       0.66926067
H       -3.91110000      -0.65909131      -0.17291473
H       -2.82248633       2.04307160       0.60533868
H       -1.80513361      -1.19697079       0.66286498
H       -5.17982366       2.04346874      -0.08942363
H       -5.50082177       0.66989317       0.99135913
H       -3.77246379       0.36348982      -2.09730570
H       -3.50438725       1.11236006       2.72858217
H       -0.82565375       1.98287281       0.58936475
H       -0.41435112       0.60236438       1.57479617
H       -1.70043909      -0.98054897      -2.12830820
H        1.35820406       1.55450838       1.55849957
H       -4.89377396       3.29108568       1.76407478
O        3.43282730      -2.77024788      -1.80531903
O        2.06473963      -3.84322070      -0.38737830
O        5.13326420      -2.06373197       0.54839580
N        0.70278375      -1.48785659       0.17241520
N        5.00969880       0.03057157      -0.33050580
C        2.04803611      -1.44482708      -0.36131122
C        3.02500608      -0.95652201       0.69542855
C        2.50476864      -2.82137298      -0.83411290
C        4.50131688      -1.05175606       0.30638274
H        2.08983152      -0.77470958      -1.21927803
H        2.79057879       0.06573778       0.89502027
H        2.87309536      -1.55340289       1.59113392
H        0.52909364      -2.35724113       0.57336461
H        0.06414263      -1.79466101      -1.43098350
H        4.43126994       0.82473707      -0.59962686
H        5.96037779      -0.02559129      -0.64093396
H        3.79875713      -3.66234018      -1.91192194
O        3.16834852       2.17472966      -1.09738334
H        2.34622087       1.92571650      -1.44451668
H        2.85375082       2.78875355      -0.45176109
44
Properties=species:S:1:pos:R:3 reactant=T mapped=T (centered)=T charge=0 spin=1 pbc="F F F"
O       -3.27432135       0.78479868      -1.51777278
O       -3.01578942       0.61073988       2.05661943
O       -1.94076751      -1.57737226      -1.30698718
O       -5.11716904       2.38407445       1.98391330
O       -0.05439736       0.28628171      -1.58222731
O        1.02566875       1.76421308       0.63683678
C       -3.15513331       0.10635454      -0.26630669
C       -3.40489527       1.13840369       0.81462469
C       -1.81656055      -0.64326691      -0.24247623
C       -4.87835305       1.53862598       0.86298118
C       -0.47042413       0.10714020      -0.37166291
C       -0.22942475       1.15807569       0.59585762
H       -3.90777470      -0.68918128      -0.13338723
H       -2.82091878       2.02999647       0.58740234
H       -1.79463354      -1.21094822       0.68574954
H       -5.18957339       2.00489404      -0.07561064
H       -5.48614895       0.64802544       1.03420571
H       -3.85931399       0.33373396      -2.05312993
H       -3.46694093       1.13252577       2.73448914
H       -0.80434377       2.01618236       0.42555201
H       -0.48060318       0.69299050       1.53001715
H       -1.80269044      -1.04978964      -2.11657544
H        1.36075008       1.48517174       1.49933510
H       -4.88147565       3.28699858       1.75101768
O        3.41787614      -2.72402740      -1.80621393
O        1.99988551      -3.79389028      -0.43545277
O        5.12059700      -2.09804527       0.57425928
N        0.69544099      -1.42032552       0.17275928
N        5.03698095       0.00679184      -0.28485009
C        2.04453161      -1.39498904      -0.35291793
C        3.03004954      -0.95595535       0.72092742
C        2.47183276      -2.77237051      -0.85221963
C        4.50691156      -1.07369451       0.33800265
H        2.10924784      -0.70805701      -1.19540734
H        2.82138056       0.06720083       0.94646152
H        2.85966171      -1.57085667       1.60133655
H        0.49265182      -2.30482366       0.52873336
H        0.05448236      -1.69185294      -1.54906068
H        4.47103172       0.80881283      -0.55763395
H        5.98673996      -0.06459633      -0.59576385
H        3.76328523      -3.62290080      -1.92686142
O        3.23010129       2.18055805      -1.06168650
H        2.38300788       1.94420632      -1.35723283
H        2.96953779       2.85014697      -0.43964447
44
Properties=species:S:1:pos:R:3 reactant=T mapped=T (centered)=T charge=0 spin=1 pbc="F F F"
O       -3.28412469       0.71829755      -1.51719779
O       -2.98758595       0.62288687       2.06221527
O       -1.94718844      -1.64120664      -1.26080511
O       -5.09433315       2.38947833       1.97975005
O       -0.07337141       0.22880983      -1.62301805
O        1.03379724       1.74375826       0.59906623
C       -3.14915745       0.07411534      -0.24898331
C       -3.39125794       1.12758007       0.81444233
C       -1.81126926      -0.67787768      -0.22558934
C       -4.86569928       1.52159392       0.87428404
C       -0.45913690       0.06256911      -0.38269805
C       -0.23831753       1.17411993       0.52455321
H       -3.89874219      -0.71906053      -0.09254337
H       -2.81413691       2.01753032       0.56444064
H       -1.77973965      -1.22313063       0.71550700
H       -5.19178499       1.96798856      -0.06839967
H       -5.46681484       0.63211695       1.07155134
H       -3.93178329       0.30151779      -2.00498834
H       -3.42965053       1.15863243       2.73544791
H       -0.78397627       2.02753793       0.26224533
H       -0.54413050       0.78717213       1.47423203
H       -1.89369547      -1.13147877      -2.08485744
H        1.35755141       1.41369946       1.44440310
H       -4.86421747       3.28800447       1.72613146
O        3.39645825      -2.67040315      -1.81490807
O        1.94061179      -3.74108670      -0.48804437
O        5.10465609      -2.13126574       0.58773485
N        0.68772579      -1.35822116       0.17932848
N        5.05576293      -0.01548871      -0.24337865
C        2.03852447      -1.34649223      -0.34465317
C        3.03148002      -0.95748423       0.74380699
C        2.43768372      -2.72037334      -0.87454087
C        4.50638487      -1.09559733       0.36219627
H        2.12156785      -0.64225614      -1.16932268
H        2.84540186       0.06380023       1.00009063
H        2.84632144      -1.59163575       1.60699705
H        0.46151577      -2.25565341       0.49023100
H        0.03273749      -1.58648473      -1.65678966
H        4.50167101       0.79512989      -0.51367947
H        6.00341806      -0.10004640      -0.55803230
H        3.72272505      -3.57325987      -1.95490663
O        3.28115982       2.18973805      -1.01449833
H        2.41317748       1.96726925      -1.25439850
H        3.07978169       2.90515648      -0.42242204
44
Properties=species:S:1:pos:R:3 reactant=T mapped=T (centered)=T charge=0 spin=1 pbc="F F F"
O       -3.29877248       0.58217150      -1.51576540
O       -2.92902189       0.65116304       2.06978498
O       -1.94789679      -1.76372808      -1.16693980
O       -5.04623778       2.40429834       1.96329440
O       -0.10806007       0.11322252      -1.69730282
O        1.04542113       1.70016365       0.53669209
C       -3.13209244       0.01163519      -0.21556668
C       -3.36075071       1.10890764       0.81020009
C       -1.79607824      -0.74619945      -0.18790146
C       -4.83637134       1.49122025       0.89113614
C       -0.43369810      -0.02683976      -0.39946621
C       -0.25527767       1.19975958       0.38658777
H       -3.87572427      -0.77508993      -0.01335679
H       -2.79729977       1.99452754       0.51316169
H       -1.74750563      -1.24480201       0.77823758
H       -5.19061938       1.89708426      -0.05972687
H       -5.42411971       0.60549269       1.14009090
H       -4.06018673       0.24266910      -1.90866727
H       -3.35446866       1.21472105       2.73153781
H       -0.74098067       2.02792478      -0.05401859
H       -0.66733312       0.97009393       1.34951560
H       -2.05925998      -1.29698056      -2.00656521
H        1.34650178       1.26826607       1.34110234
H       -4.82671505       3.29292224       1.66799489
O        3.34955718      -2.55705412      -1.83670122
O        1.82928877      -3.63453863      -0.59110918
O        5.07217659      -2.19357394       0.60209934
N        0.67125022      -1.24128626       0.19812671
N        5.08480456      -0.05638071      -0.16725342
C        2.02472610      -1.25268801      -0.32763200
C        3.03205312      -0.96260273       0.78681542
C        2.36990121      -2.61493348      -0.91993402
C        4.50120381      -1.13710629       0.40248339
H        2.13928866      -0.51397768      -1.11605301
H        2.88685122       0.05185978       1.10789035
H        2.82184460      -1.63630670       1.61411895
H        0.40292025      -2.16239095       0.42253565
H       -0.03013172      -1.38587414      -1.85329463
H        4.55272626       0.77114388      -0.42662304
H        6.02733385      -0.16383835      -0.49301838
H        3.63960527      -3.46414744      -2.01937811
O        3.36761115       2.20947426      -0.91297835
H        2.46317524       2.01345141      -1.03028462
H        3.29036121       3.00816654      -0.39386897
44
Properties=species:S:1:pos:R:3 reactant=T mapped=T (centered)=T charge=0 spin=1 pbc="F F F"
O       -3.30452256       0.44386673      -1.51387388
O       -2.86605899       0.68341677       2.07025340
O       -1.92977773      -1.87581338      -1.07448967
O       -4.99223229       2.42422731       1.93531436
O       -0.13636480      -0.00297297      -1.75876247
O        1.04784569       1.65092303       0.50194267
C       -3.10663723      -0.04621682      -0.18581117
C       -3.32414908       1.09419191       0.79972343
C       -1.77382784      -0.81247259      -0.14615267
C       -4.79910344       1.46772717       0.89874919
C       -0.40331427      -0.11755934      -0.40778564
C       -0.27043005       1.21336100       0.25762744
H       -3.84528017      -0.82316852       0.05820152
H       -2.77366349       1.97386044       0.45483836
H       -1.71204768      -1.26322995       0.84334077
H       -5.17793348       1.83384211      -0.05879419
H       -5.37409463       0.58867614       1.19662722
H       -4.15876290       0.19972581      -1.81515039
H       -3.27717016       1.27323522       2.71785236
H       -0.69101878       1.98817249      -0.34911072
H       -0.78547792       1.13842846       1.20072754
H       -2.19702696      -1.45982249      -1.90391973
H        1.32833432       1.11991655       1.25296806
H       -4.78195632       3.30104167       1.59995915
O        3.29727677      -2.43465764      -1.86312574
O        1.73004369      -3.52662539      -0.69034427
O        5.03948291      -2.24581381       0.59741913
N        0.65230269      -1.13791906       0.22597123
N        5.09837765      -0.08920785      -0.10225831
C        2.00812529      -1.16499668      -0.30826992
C        3.02831113      -0.97123665       0.82626486
C        2.30354414      -2.50752147      -0.96483816
C        4.48843721      -1.17293840       0.42984849
H        2.14551476      -0.39175045      -1.05922932
H        2.91591285       0.03029597       1.21749523
H        2.80094081      -1.68634039       1.61418390
H        0.34956803      -2.07902619       0.36815191
H       -0.12529855      -1.19818917      -2.02012173
H        4.58473010       0.75371254      -0.34134652
H        6.03410188      -0.21280179      -0.44537513
H        3.55671690      -3.34046535      -2.09152128
O        3.42096894       2.22727415      -0.81004652
H        2.49322177       2.05948955      -0.75447273
H        3.48239181       3.09536134      -0.40266006
44
Properties=species:S:1:pos:R:3 reactant=T mapped=T (centered)=T charge=0 spin=1 pbc="F F F"
O       -3.30379778       0.31090995      -1.51124159
O       -2.79666432       0.71657975       2.06364187
O       -1.89911447      -1.97480709      -0.99315332
O       -4.93038034       2.44636937       1.90348082
O       -0.15610065      -0.12106697      -1.81118213
O        1.04084255       1.59382755       0.49229560
C       -3.07431155      -0.09748147      -0.16136689
C       -3.28140639       1.08261752       0.78509532
C       -1.74610291      -0.87509109      -0.10590090
C       -4.75392548       1.45045044       0.90182675
C       -0.36791746      -0.20821739      -0.41438873
C       -0.28267602       1.21486772       0.13876066
H       -3.80953110      -0.86210912       0.11915483
H       -2.74387793       1.95539589       0.39339565
H       -1.67569181      -1.28140816       0.90376635
H       -5.15529793       1.78016602      -0.05992865
H       -5.31662634       0.57999493       1.24455551
H       -4.23111015       0.17890129      -1.72764402
H       -3.19409083       1.32990516       2.69684672
H       -0.62884206       1.91718182      -0.61747996
H       -0.89856669       1.28296170       1.03214996
H       -2.31084071      -1.60867801      -1.78954236
H        1.30548899       0.96915308       1.17971995
H       -4.72845499       3.31056321       1.53130521
O        3.24548246      -2.30242660      -1.88856991
O        1.64180825      -3.41829075      -0.78668881
O        5.00853843      -2.28713025       0.58114361
N        0.62980599      -1.04766069       0.25876651
N        5.09813019      -0.11120516      -0.03953662
C        1.98977687      -1.08465936      -0.28357822
C        3.02022028      -0.98531105       0.86678209
C        2.24122019      -2.39912917      -1.00652044
C        4.47007919      -1.20222754       0.45189792
H        2.14349589      -0.27521552      -0.99482420
H        2.93252686      -0.00313301       1.33252775
H        2.78105418      -1.74463518       1.60960995
H        0.29832276      -2.00629527       0.32111154
H       -0.24507249      -1.01785412      -2.16152613
H        4.59801713       0.74493845      -0.25118152
H        6.02638093      -0.24283275      -0.40365533
H        3.47962084      -3.20132848      -2.16605414
O        3.42899186       2.23748274      -0.71544740
H        2.51401532       2.10220552      -0.40490548
H        3.63658123       3.15372211      -0.51351781
