44
Properties=species:S:1:pos:R:3:forces:R:3 reactant=T mapped=T (centered)=T charge=0 spin=1 energy=-34182.56146528821 free_energy=-34182.56146528821 stress="2.8863579441110248 -2.283508172610039 -0.7589642865783561 -2.283508172610039 1.937586266718382 0.8927839036068991 -0.7589642865783561 0.8927839036068991 -0.5917061177773341" pbc="F F F"
O       -3.31610721       0.43808248      -1.49918145       0.07503654       0.02960989      -0.00436982
O       -2.97914457       0.54941364       2.12048919       0.02501326       0.00642862       0.00330120
O       -1.87193700      -1.89061457      -1.03581662      -0.02655474      -0.04444303       0.00114382
O       -5.03156798       2.38652438       1.94260034       0.01068795      -0.01454095       0.00139843
O       -0.23217392       0.18999423      -1.80247148       0.17438696      -0.21311207       0.00282858
O        1.10298856       1.64872880       0.42637964       0.02822859       0.00724814      -0.00370479
C       -3.09825309      -0.05421091      -0.17984642       0.06581227       0.01735650      -0.00510192
C       -3.34676582       1.04619889       0.84737820       0.03462500       0.01002626       0.00150123
C       -1.74880707      -0.79877825      -0.13998730       0.03673716      -0.06370116       0.02895679
C       -4.80923814       1.47407355       0.87285782       0.02386199      -0.00944718      -0.00262375
C       -0.36717526      -0.11817044      -0.42391621       0.22853126      -0.27485406       0.11536657
C       -0.24246301       1.17863714       0.37524340       0.05152916      -0.10153514      -0.03419548
H       -3.81576239      -0.85710994       0.04084581       0.04233075       0.03017914      -0.02347822
H       -2.75065384       1.92815784       0.58561052       0.01972323       0.02453992       0.01712224
H       -1.66509456      -1.21131835       0.86498361      -0.05410889      -0.09724246       0.03077608
H       -5.10704920       1.91438512      -0.08309731       0.01463981      -0.00965172       0.00024054
H       -5.44593969       0.61154960       1.08025275       0.03098514      -0.01493415      -0.00154784
H       -4.26315462       0.49331841      -1.66099936       0.07232443      -0.05670854      -0.03362315
H       -3.44359864       1.08821924       2.77508134       0.01270090      -0.00047605       0.00081408
H       -0.84418808       1.96555189      -0.08424043       0.00138414      -0.18058550      -0.14833841
H       -0.61906251       0.99604699       1.38341740       0.03097743      -0.01190633      -0.01388167
H       -2.15129273      -1.51207220      -1.88081400       0.01008646       0.00663468       0.00797606
H        1.36665981       1.74159819       1.34425492       0.01065450      -0.03017987       0.02242948
H       -4.68218509       3.24883290       1.69440304      -0.01132369      -0.00515236       0.00222808
O        3.39339585      -2.44617182      -1.93772831      -0.08481292       0.08549561       0.07092851
O        1.82358513      -3.56352167      -0.79672815      -0.14331557       0.07169829      -0.01930611
O        4.93741218      -2.31814497       0.87092847      -0.00399382      -0.00313884      -0.03691182
N        0.61357089      -1.13799540      -0.02823137      -0.08508833       0.07965398       0.23352516
N        5.05914834      -0.19970546       0.08561670       0.00836792       0.00500879      -0.01097148
C        2.02401060      -1.17534664      -0.43814996      -0.10376947       0.07134540       0.06414570
C        2.90850791      -1.05115679       0.82387181       0.00764496       0.02087547       0.01428620
C        2.36747688      -2.52812712      -1.07121308      -0.13073836       0.07501141       0.02315036
C        4.39584735      -1.26123127       0.59813207       0.00134771       0.00328894      -0.02558370
H        2.28599291      -0.39556559      -1.15579357      -0.13086109       0.06857119       0.04989066
H        2.72049072      -0.06380896       1.23848359       0.03948426       0.01351106       0.05093021
H        2.57349899      -1.80643524       1.53249215       0.02155279       0.01040769       0.00942294
H        0.23253231      -2.07489227      -0.09533580      -0.11879910       0.05959540      -0.01171535
H        0.10048059      -0.65001113      -2.15218253      -0.17632972       0.34220758      -0.40689737
H        4.57744391       0.63211088      -0.23144141       0.01150112       0.00919255      -0.00456678
H        6.01930250      -0.34323260      -0.17604827       0.01076710       0.00661544      -0.00264332
H        3.63447811      -3.35350754      -2.18782913      -0.04903118       0.08991525       0.08039316
O        3.48025167       2.13678381      -0.87852982       0.00489170      -0.00614210      -0.02382581
H        2.54410108       2.06658038      -0.62371327       0.00941702      -0.00189293       0.00471034
H        3.67043814       3.07634074      -0.94002849       0.00349556      -0.00477265      -0.02417957
