44
Properties=species:S:1:pos:R:3:forces:R:3 reactant=T mapped=T (centered)=T charge=0 spin=1 energy=-34182.754451278044 free_energy=-34182.754451278044 stress="-2.8810509461303573 1.3307496146359363 0.18667643699564332 1.3307496146359363 -0.30085831233851207 0.1436451518437546 0.18667643699564332 0.1436451518437546 -0.09000498836543648" pbc="F F F"
O       -3.61808878       0.60645335      -1.49355756      -0.04057338       0.03036869       0.00074544
O       -3.09585866       0.52371094       2.08969699      -0.01647044       0.00271380      -0.00370738
O       -1.88264174      -1.60462651      -1.21270279      -0.01037348       0.04078229      -0.03077063
O       -5.12510240       2.41801023       2.05088297      -0.01710974       0.00475877       0.01831124
O       -0.51183392       0.63036588      -1.82375196       0.00081868       0.01541420       0.00150256
O        0.94757709       1.68898977       0.43965690      -0.02324758       0.02127267      -0.00226032
C       -3.33252249       0.02713222      -0.22415441      -0.02523514       0.01857135      -0.00674646
C       -3.52178070       1.07669996       0.85879148      -0.02486177       0.01037985       0.00212085
C       -1.91515171      -0.53953803      -0.29455768      -0.02026384       0.02908260      -0.01745640
C       -4.96529210       1.52698626       0.95332046      -0.02515335       0.00798746       0.01374659
C       -0.90892831       0.54680125      -0.68909740      -0.02458769       0.03535818      -0.01117279
C       -0.45677479       1.52864133       0.39261163      -0.02396060       0.03269075      -0.00512954
H       -3.99033969      -0.82274330      -0.01777538      -0.01814753       0.01256972      -0.00942516
H       -2.91512276       1.95645418       0.60114423      -0.02826807       0.01414520       0.00487048
H       -1.64303439      -0.93491905       0.68385934      -0.01393884       0.02152407      -0.02218847
H       -5.27893330       1.98354099       0.01233015      -0.03256225       0.00924244       0.01708879
H       -5.60177401       0.66577292       1.16432683      -0.02258608       0.00686130       0.01716556
H       -4.47539887       0.30776010      -1.80316871      -0.02885326      -0.04593023      -0.02207773
H       -3.49596775       1.05783946       2.78885621      -0.00789553       0.00177381       0.00241562
H       -0.87196318       2.50545028       0.14307469      -0.00946524       0.04144198       0.00120981
H       -0.84011075       1.21701633       1.36612191      -0.02948033       0.03424864      -0.00570805
H       -1.92692021      -1.21147969      -2.09518825       0.03417043       0.05908956      -0.03449246
H        1.29576787       0.87070178       0.81166598       0.00143650      -0.19069205      -0.09679840
H       -4.78103605       3.28133172       1.79931214      -0.02545619       0.00747941       0.01604262
O        3.62579127      -2.62026867      -2.03208645       0.02720096      -0.00334876       0.00721381
O        2.18561444      -3.79302070      -0.77794479       0.02551928      -0.02031017      -0.00851757
O        5.18625163      -2.30852848       0.82475859       0.04535465      -0.00145589      -0.01370227
N        0.86682973      -1.40644663      -0.14240674       0.02150450      -0.02061207       0.04864212
N        5.15915975      -0.18234760       0.03711764       0.02486996       0.00388995      -0.00295577
C        2.28050074      -1.40834390      -0.47448575       0.01694970      -0.01969057       0.00940582
C        3.08951632      -1.16526531       0.80506726       0.03622770      -0.01712894      -0.00086471
C        2.67913558      -2.74283885      -1.09053392       0.02121589      -0.01481627       0.00013930
C        4.58302611      -1.28296764       0.57036649       0.03642140      -0.00516523      -0.00881095
H        2.48145259      -0.61438432      -1.19728436       0.00082216      -0.01828338       0.00477392
H        2.85106039      -0.17183397       1.19028088       0.03645994      -0.01930322       0.00703515
H        2.80268288      -1.90706065       1.54989090       0.04670606      -0.01911683       0.00214634
H        0.66009451      -2.26629318       0.35966726       0.04020167      -0.01475931       0.07276883
H        0.32804685      -1.48137991      -1.00064814      -0.00991739      -0.03904597       0.06501598
H        4.61100767       0.61614269      -0.25976362       0.01425794      -0.00149429       0.00007979
H        6.11591024      -0.26423427      -0.26015274       0.02704503       0.01729038      -0.00104038
H        3.85188217      -3.51717056      -2.32244887       0.03977465       0.00048337       0.00430609
O        3.40688734       2.09665779      -0.85599622      -0.01275769      -0.01664532      -0.00819096
H        2.46239986       2.09766583      -0.62485958      -0.01275937       0.00657912      -0.00330851
H        3.68398155       3.01556595      -0.80023659       0.00696773      -0.01820120      -0.00142172
