44
Properties=species:S:1:pos:R:3:forces:R:3 reactant=T mapped=T (centered)=T charge=0 spin=1 energy=-34183.13667737906 free_energy=-34183.13667737906 stress="-0.49200555597981777 0.09568162510328092 0.001503335395595253 0.09568162510328092 -0.3524787057305201 0.001885173813967754 0.001503335395595253 0.001885173813967754 -0.06433920833301913" pbc="F F F"
O       -3.15211495       1.11521316      -1.58332098      -0.00611664      -0.00800739       0.00508471
O       -3.25594068       0.58244203       1.95586931      -0.00789903       0.00702223      -0.00348922
O       -1.63367160      -1.17537915      -1.47504931      -0.00155279       0.00699665       0.00265388
O       -5.18317732       2.53659166       1.82015871       0.00032364       0.00027209      -0.00643721
O        0.07501831       0.77833804      -1.13232013      -0.00545363      -0.00031312      -0.03667004
O        0.82908213       1.94232408       1.13034248      -0.00940733       0.00306419       0.00680991
C       -3.11555873       0.33903964      -0.40464810      -0.00730137      -0.00269506       0.00392456
C       -3.43428084       1.28369093       0.73743074      -0.00782201       0.00099038      -0.00106777
C       -1.77823751      -0.41685283      -0.28832106      -0.00867756       0.00048291       0.00117409
C       -4.85973290       1.80115617       0.64263101      -0.00045007      -0.00060635       0.00298343
C       -0.56871027       0.49470980      -0.14793482      -0.02109530      -0.00569446       0.01331160
C       -0.18277425       0.95736731       1.23071667      -0.00363873       0.00179130      -0.01147537
H       -3.88547075      -0.44329615      -0.43023345      -0.00736262       0.00250192      -0.00655283
H       -2.74887330       2.14408485       0.67981056      -0.00116011      -0.00742643       0.00745232
H       -1.81936490      -1.08313164       0.57485979      -0.01570194      -0.00447685      -0.00374619
H       -4.99349038       2.39361167      -0.26313013       0.00215111      -0.00223463       0.01091366
H       -5.54754538       0.95425619       0.61593089      -0.00342125       0.00538459      -0.00332654
H       -2.94555847       0.52365476      -2.31705626      -0.00034757       0.00476214      -0.00250818
H       -3.79582665       1.04038161       2.61493954       0.00191009       0.00506508       0.00419908
H       -1.05978286       1.31498977       1.77271197       0.00390590      -0.00001682      -0.00599050
H        0.17176274       0.05039816       1.73481267       0.00060164       0.01405367      -0.00551158
H       -0.92560897      -0.73894166      -1.97722709      -0.00207355       0.01255121       0.00718503
H        1.15774133       2.14327442       2.01137232      -0.00808431       0.00153881       0.00347899
H       -4.84535874       3.43311067       1.73054409      -0.00495067       0.00138784       0.00286944
O        3.49317285      -3.03627400      -1.90449746      -0.00936524      -0.01424585      -0.00235132
O        2.66563685      -4.15137557      -0.14037847       0.01159677      -0.02764837      -0.00235901
O        5.15699102      -1.79346764       0.22037091       0.03296352      -0.00677767       0.01164721
N        0.77513916      -2.08905087       0.23581941       0.00967691      -0.01057245       0.00443800
N        4.69250216       0.22738427      -0.68863120       0.00701374      -0.00004266       0.00883933
C        2.03874593      -1.84566957      -0.44737835       0.00795841      -0.00902009       0.00657066
C        2.92728088      -0.98259611       0.46356629       0.01293957      -0.00738685       0.00501481
C        2.75530087      -3.14415807      -0.78881319      -0.00261729       0.01352533      -0.01431136
C        4.37007723      -0.89030849      -0.00731277      -0.00555775       0.01794766       0.00246032
H        1.84845146      -1.30160129      -1.37467066       0.00054244      -0.01268089       0.00548325
H        2.46396300       0.00068495       0.54214828       0.01367857      -0.00351603       0.00783211
H        2.95085677      -1.45067527       1.44913976       0.00624807      -0.00227437       0.00856952
H        0.94021826      -2.78670035       0.95620843       0.00021808      -0.01636982       0.00115320
H        0.10516023      -2.49830966      -0.40824542       0.00532303       0.00173136       0.00269786
H        4.02046010       0.96812304      -0.86442204      -0.00129688      -0.00584123      -0.00668171
H        5.63336210       0.30225140      -1.03606821      -0.00426403       0.00518233      -0.00012161
H        4.03045616      -3.83985855      -1.97265697      -0.00727942      -0.01007800      -0.00819636
O        2.60129246       2.21721965      -1.15369021       0.00207538       0.04326743      -0.01224293
H        2.05833195       1.93461812      -1.89733377       0.01255797       0.00537359      -0.00504882
H        1.97007551       2.18873051      -0.41604479       0.02121206       0.00303272       0.00134162
44
Properties=species:S:1:pos:R:3:forces:R:3 reactant=T mapped=T (centered)=T charge=0 spin=1 energy=-34183.14609968927 free_energy=-34183.14609968927 stress="-0.03325112950402549 0.030699503725674142 0.010557482177639011 0.030699503725674142 -0.0307678964125993 0.005712340911914921 0.010557482177639011 0.005712340911914921 -0.0016851382422064377" pbc="F F F"
O       -3.24417303       1.12533594      -1.57511296       0.00053016       0.00086343       0.00025811
O       -3.24260836       0.59171709       1.96510883      -0.00104735      -0.00040382       0.00006295
O       -1.67557955      -1.13701346      -1.50440571      -0.00027171      -0.00015172       0.00037696
O       -5.22961275       2.48779519       1.88433868      -0.00080712      -0.00026890      -0.00005347
O        0.02605690       0.81761573      -1.20002541      -0.00032905       0.00008960      -0.00010865
O        0.83922791       1.97599567       1.04003765      -0.00170996       0.00194368      -0.00070484
C       -3.16379216       0.34792214      -0.39941404      -0.00004625       0.00041908       0.00001790
C       -3.47780811       1.28398165       0.75156476      -0.00031593       0.00010358       0.00021676
C       -1.80875218      -0.38070229      -0.31531541      -0.00021653       0.00011187       0.00022014
C       -4.92000995       1.75950076       0.69874072      -0.00020461       0.00041748      -0.00034979
C       -0.60536643       0.54599276      -0.20399090      -0.00030598       0.00009590       0.00007924
C       -0.20186177       1.02571468       1.16254074      -0.00005366       0.00021450      -0.00011462
H       -3.91743864      -0.45058483      -0.41087327      -0.00019016       0.00058062      -0.00052745
H       -2.82017754       2.16380834       0.67291432      -0.00007479      -0.00002016       0.00087970
H       -1.82008313      -1.04802757       0.54830399      -0.00036098       0.00030904       0.00038707
H       -5.09710446       2.34660976      -0.20272708       0.00047913       0.00107182      -0.00005568
H       -5.58403146       0.89348560       0.69242940      -0.00037139       0.00056975      -0.00136126
H       -3.04559967       0.53962868      -2.31570156       0.00054524       0.00110156       0.00005980
H       -3.76743484       1.04195487       2.64146253      -0.00145882      -0.00066365      -0.00005617
H       -1.06634717       1.42279191       1.69680126      -0.00027638      -0.00152583       0.00084433
H        0.12588901       0.12099823       1.68794028       0.00192028       0.00044064      -0.00087619
H       -0.98499222      -0.68673456      -2.01931781      -0.00025266      -0.00032806       0.00028620
H        1.14870504       2.21386070       1.91882214      -0.00206138       0.00311262      -0.00093240
H       -4.93697342       3.39811963       1.77793672      -0.00085189      -0.00025895       0.00066758
O        3.52125142      -3.02743987      -1.90935031      -0.00005470      -0.00039197      -0.00024821
O        2.63892515      -4.17319258      -0.19400950       0.00056889      -0.00036597      -0.00017100
O        5.23805168      -1.83429269       0.30103186       0.00124597      -0.00027451      -0.00106177
N        0.80785827      -2.05743839       0.22384769       0.00066699      -0.00044893       0.00066678
N        4.75305297       0.17711519      -0.61789402      -0.00033799      -0.00031660      -0.00052166
C        2.09482061      -1.83542461      -0.42290646       0.00060534      -0.00048850       0.00052308
C        2.99786637      -1.04360879       0.53735871       0.00104048      -0.00114931       0.00063687
C        2.76887768      -3.14635634      -0.80442514       0.00031301      -0.00076947       0.00016558
C        4.44096162      -0.94140656       0.06825155       0.00059932      -0.00044960      -0.00035995
H        1.94267658      -1.24941758      -1.33123850       0.00061095      -0.00014972       0.00078031
H        2.54991620      -0.05853212       0.67213584       0.00096486      -0.00129996       0.00170782
H        3.01540863      -1.56554103       1.49541261       0.00177889      -0.00189150       0.00020662
H        0.92937318      -2.78691980       0.92128229       0.00062825      -0.00056298       0.00052767
H        0.13986521      -2.41991666      -0.44993445       0.00052292      -0.00024465       0.00068976
H        4.07009671       0.89952068      -0.82374370      -0.00066849      -0.00044716       0.00026916
H        5.68943379       0.25311218      -0.97681283      -0.00061291       0.00011396      -0.00120440
H        4.01294044      -3.85629101      -2.01237346      -0.00013542      -0.00041545      -0.00053137
O        2.67796015       2.17561007      -1.19461013      -0.00004835       0.00017796       0.00049391
H        2.17335937       1.94473999      -1.98142987       0.00145310       0.00196519      -0.00096707
H        2.00717193       2.14591330      -0.49265104      -0.00140936      -0.00041497      -0.00081853
44
Properties=species:S:1:pos:R:3:forces:R:3 reactant=T mapped=T (centered)=T charge=0 spin=1 energy=-34183.1418775158 free_energy=-34183.1418775158 stress="-0.03378450539945257 0.06308354998039195 0.03484163987078912 0.06308354998039195 -0.05231504080242094 0.029637488339590852 0.03484163987078912 0.029637488339590852 -0.01351180664531019" pbc="F F F"
O       -3.31964538       1.12331023      -1.57283792       0.00282324       0.00311589       0.00092262
O       -3.18246316       0.60399760       1.96541483      -0.00296018      -0.00138130       0.00058803
O       -1.69531847      -1.09727833      -1.54145799       0.00036678       0.00015999       0.00140024
O       -5.25151810       2.42089489       1.95295638      -0.00253600      -0.00080660      -0.00069482
O        0.00499052       0.85129655      -1.25708602      -0.00106946       0.00165019       0.00085924
O        0.89730576       1.96327641       0.96825201      -0.00381743       0.00561743      -0.00133563
C       -3.19142390       0.34841236      -0.39979768       0.00054099       0.00144940       0.00012894
C       -3.50183729       1.27534235       0.75937664      -0.00056767       0.00028586       0.00080020
C       -1.81843227      -0.34739829      -0.34725429      -0.00004140       0.00044983       0.00121524
C       -4.96489020       1.68357726       0.76725991      -0.00051605       0.00092683      -0.00128524
C       -0.62219079       0.59373463      -0.25474183      -0.00044277       0.00049526       0.00139523
C       -0.21945523       1.10545618       1.10113134       0.00114999      -0.00081948       0.00125282
H       -3.92410188      -0.46962682      -0.39517264      -0.00007119       0.00197165      -0.00200484
H       -2.89053252       2.18429073       0.64644146       0.00025198       0.00006061       0.00293260
H       -1.79855190      -1.01791603       0.51353113      -0.00084446       0.00066437       0.00143617
H       -5.21159678       2.24352474      -0.13535408       0.00142286       0.00245418      -0.00094404
H       -5.58717157       0.78809545       0.80925578      -0.00093641       0.00107524      -0.00389956
H       -3.12829484       0.54053121      -2.31776517       0.00340428       0.00408313       0.00030950
H       -3.69134372       1.03949543       2.66308409      -0.00414562      -0.00215254       0.00021001
H       -1.06386480       1.60360210       1.57973685      -0.00014118      -0.00708190       0.00627625
H        0.01559615       0.21250531       1.69012523       0.00857819      -0.00185645      -0.00247529
H       -1.01443361      -0.63957404      -2.06318219       0.00027153       0.00031327       0.00143522
H        1.19274114       2.22676047       1.84451177      -0.00340515       0.00793336      -0.00217031
H       -5.00074422       3.33994143       1.81809849      -0.00264911      -0.00052594       0.00098697
O        3.54988218      -2.96360455      -1.90184882       0.00038932      -0.00070885       0.00013530
O        2.55624190      -4.15023260      -0.27790926       0.00137951      -0.00177635       0.00078515
O        5.25776667      -1.89148693       0.42026029       0.00151738       0.00030174      -0.00068401
N        0.80506398      -1.97978759       0.19340071       0.00081980      -0.00167742       0.00121850
N        4.82270620       0.11259660      -0.53921619      -0.00109316      -0.00066862      -0.00158259
C        2.11333717      -1.78321589      -0.41646691       0.00061903      -0.00130198       0.00088620
C        3.02381149      -1.06460113       0.59274425       0.00095623      -0.00143246       0.00076876
C        2.74840005      -3.10249062      -0.83388352       0.00094425      -0.00040386       0.00012378
C        4.47874091      -0.99185466       0.15517837       0.00058974      -0.00048123      -0.00046536
H        2.00387083      -1.15745907      -1.30438545       0.00026653      -0.00099386       0.00108329
H        2.60613216      -0.07122800       0.75925770       0.00074132      -0.00160820       0.00171882
H        3.00545398      -1.62490974       1.52861952       0.00197653      -0.00199475       0.00047302
H        0.88991881      -2.71765649       0.88731117       0.00100799      -0.00223740       0.00062247
H        0.14840121      -2.32386027      -0.50120828       0.00045346      -0.00099990       0.00120626
H        4.14539294       0.82259001      -0.79903402      -0.00173246      -0.00091454      -0.00058834
H        5.76272312       0.16110234      -0.89332063      -0.00140057       0.00008042      -0.00235086
H        4.00992715      -3.80742670      -2.02711907       0.00066761      -0.00045699      -0.00010633
O        2.74099111       2.05812731      -1.25132885      -0.00107930      -0.00105815      -0.00009668
H        2.23083974       1.82641754      -2.03413414       0.00465402       0.00448561      -0.00622746
H        2.06757546       2.07272858      -0.55144397      -0.00634325      -0.00423552      -0.00425930
44
Properties=species:S:1:pos:R:3:forces:R:3 reactant=T mapped=T (centered)=T charge=0 spin=1 energy=-34183.11989446572 free_energy=-34183.11989446572 stress="0.09339871776269547 0.12090412767557548 0.0679914697018743 0.12090412767557548 -0.029101569345873126 0.04207177746761367 0.0679914697018743 0.04207177746761367 -0.06046459994108916" pbc="F F F"
O       -3.37922943       1.11411032      -1.57844452       0.00745497       0.00676018       0.00094218
O       -3.11299441       0.62419662       1.95478178      -0.00309317      -0.00156337       0.00057544
O       -1.71174897      -1.07158858      -1.57879010       0.00353384       0.00217257       0.00212727
O       -5.25355347       2.36300456       2.00858326      -0.00407969      -0.00231662      -0.00163401
O        0.01665478       0.84488255      -1.31299870      -0.00108342       0.00640599       0.00327209
O        0.96314601       1.91799617       0.93301922      -0.00310408       0.00826402       0.00154339
C       -3.20659064       0.34645074      -0.40651212       0.00256828       0.00333509      -0.00047168
C       -3.51253320       1.26825012       0.75796124       0.00007445       0.00095126       0.00079712
C       -1.81955600      -0.32212686      -0.38342701       0.00158717       0.00163286       0.00237055
C       -4.98991203       1.61323199       0.82540076      -0.00025135       0.00049732      -0.00252181
C       -0.62212158       0.62379944      -0.30906496       0.00058403       0.00226448       0.00397170
C       -0.24479664       1.18868386       1.03411935       0.00291233      -0.00202524       0.00499440
H       -3.91992823      -0.48846748      -0.38427272       0.00138653       0.00426385      -0.00506224
H       -2.94916673       2.20274925       0.61104714       0.00071186       0.00114962       0.00418318
H       -1.77277211      -0.99188395       0.47687722      -0.00051797       0.00130161       0.00219101
H       -5.30163289       2.14299216      -0.07556550       0.00213662       0.00234311      -0.00231505
H       -5.57021028       0.69337770       0.91426370      -0.00006433      -0.00002956      -0.00635109
H       -3.20079795       0.52951901      -2.32532382       0.00886779       0.00870783      -0.00020848
H       -3.60417913       1.04934977       2.67111736      -0.00523862      -0.00327799       0.00015038
H       -1.05910938       1.81478473       1.40347956      -0.00022867      -0.01093207       0.01403693
H       -0.15255597       0.33475227       1.71094810       0.01440745      -0.00610118      -0.00076840
H       -1.02997467      -0.62103439      -2.10575918       0.00327501       0.00364962       0.00298206
H        1.22808879       2.18864295       1.81691896      -0.00706072       0.02005078      -0.00069049
H       -5.04270357       3.28769205       1.84630759      -0.00528686      -0.00165585       0.00073273
O        3.56438889      -2.90388561      -1.89995919       0.00028662      -0.00216361       0.00098448
O        2.48291231      -4.12560132      -0.36047144       0.00201173      -0.00278746       0.00318940
O        5.27141961      -1.93205148       0.50944826       0.00210886       0.00249961      -0.00123810
N        0.80255400      -1.91509544       0.17919427       0.00066012      -0.00239356       0.00171041
N        4.86814694       0.05998751      -0.48834861      -0.00313126      -0.00074716      -0.00558710
C        2.12377107      -1.73957016      -0.40763500       0.00031952      -0.00205293       0.00101269
C        3.04200891      -1.08299796       0.63565531       0.00073011      -0.00120641       0.00017251
C        2.72536586      -3.06166742      -0.86340376       0.00122057      -0.00062586       0.00102371
C        4.50344786      -1.03153388       0.21739948       0.00002023       0.00069338      -0.00206909
H        2.04453545      -1.08200796      -1.27565422      -0.00041049      -0.00223444       0.00084667
H        2.64732133      -0.08582519       0.83146342      -0.00008983      -0.00168266       0.00134629
H        2.99905846      -1.67442784       1.55122099       0.00273262      -0.00156064       0.00004490
H        0.86330141      -2.65226792       0.87621234       0.00113684      -0.00264705       0.00140400
H        0.15535736      -2.25497032      -0.52662593       0.00012587      -0.00194571       0.00198630
H        4.19419606       0.75284655      -0.79789640      -0.00404378      -0.00000850      -0.00270711
H        5.80828763       0.08343478      -0.84490371      -0.00334827       0.00125665      -0.00582445
H        3.99645787      -3.75786811      -2.05271876       0.00115992      -0.00177002       0.00165427
O        2.78495200       1.97915413      -1.31046631      -0.00315001      -0.00143082       0.00471994
H        2.14267003       1.64484304      -1.94657738       0.01358802       0.00625827      -0.03208702
H        2.22802467       2.12613958      -0.53060097      -0.03141869      -0.03129943       0.00457030
44
Properties=species:S:1:pos:R:3:forces:R:3 reactant=T mapped=T (centered)=T charge=0 spin=1 energy=-34183.08416543203 free_energy=-34183.08416543203 stress="0.27283409283228044 0.11475727245726197 0.05495359905798247 0.11475727245726197 -0.05417110777399194 0.02370002263836495 0.05495359905798247 0.02370002263836495 -0.045192322751689745" pbc="F F F"
O       -3.40919055       1.10435628      -1.58334157       0.01153726       0.00996192       0.00020535
O       -3.08680546       0.63163278       1.94714933      -0.00213784      -0.00151190      -0.00017405
O       -1.72903923      -1.07097589      -1.59654096       0.00508616       0.00333507       0.00128008
O       -5.25253444       2.34031566       2.02919002      -0.00449050      -0.00383972      -0.00249416
O        0.03759848       0.80442258      -1.34043036       0.00333578       0.00340436       0.00469579
O        0.98434937       1.88888219       0.91338682       0.00026415       0.00389754       0.00628149
C       -3.21559098       0.34226676      -0.41125343       0.00487965       0.00519407      -0.00172903
C       -3.51860298       1.26301138       0.75501977       0.00124171       0.00160829       0.00020931
C       -1.82356064      -0.31660292      -0.40374173       0.00334120       0.00223958       0.00186675
C       -5.00015944       1.58343961       0.84801572       0.00056617      -0.00015266      -0.00369214
C       -0.61937105       0.62265935      -0.33838448       0.00377467       0.00100211       0.00511619
C       -0.26249410       1.22899675       0.99164246       0.00434864      -0.00372430       0.00673937
H       -3.92025498      -0.49982903      -0.37885643       0.00319083       0.00636381      -0.00808417
H       -2.97574686       2.20704279       0.59431741       0.00129741       0.00236076       0.00458829
H       -1.76467047      -0.98269182       0.45908855      -0.00010398       0.00136507       0.00138244
H       -5.33852982       2.09952565      -0.05136567       0.00290524       0.00176924      -0.00348390
H       -5.56343092       0.65529202       0.95747828       0.00150585      -0.00128685      -0.00821615
H       -3.23943513       0.51687499      -2.33009587       0.01237630       0.01233607      -0.00145725
H       -3.56836303       1.05527846       2.67082350      -0.00481833      -0.00404897      -0.00049355
H       -1.05868984       1.91540199       1.28986306       0.00054761      -0.01102849       0.01375522
H       -0.25128333       0.40942356       1.71446833       0.01208675      -0.00865313       0.00154377
H       -1.03924379      -0.63644644      -2.12639167       0.00608225       0.00370323       0.00287495
H        1.26267156       2.09589882       1.81029465      -0.01073466       0.02491525       0.00763650
H       -5.05567377       3.26603705       1.85536467      -0.00679071      -0.00276286       0.00030603
O        3.57036620      -2.87682740      -1.89893019       0.00109205      -0.00378277       0.00246451
O        2.45071869      -4.11672532      -0.40178289       0.00297587      -0.00219889       0.00425860
O        5.27622977      -1.94686620       0.55122902       0.00239342       0.00775011       0.00074667
N        0.80119257      -1.89345344       0.17720961      -0.00017203      -0.00397944       0.00109687
N        4.88336715       0.03592375      -0.46982479      -0.00716113      -0.00001609      -0.01052382
C        2.12612446      -1.72445277      -0.40270867      -0.00054695      -0.00321671       0.00055294
C        3.04707682      -1.09167792       0.65273734      -0.00084788      -0.00040907      -0.00080521
C        2.71477547      -3.04551440      -0.87769374       0.00101792      -0.00416680       0.00301767
C        4.51102170      -1.04980388       0.24334429      -0.00154410       0.00290659      -0.00321558
H        2.05700466      -1.05533364      -1.26279258      -0.00146585      -0.00478163      -0.00056398
H        2.66245113      -0.09200746       0.85593118      -0.00298401      -0.00117007      -0.00072424
H        2.99311805      -1.69295557       1.56123499       0.00198048      -0.00010788      -0.00044079
H        0.85484624      -2.62936036       0.87603712       0.00077037      -0.00293123       0.00212909
H        0.15781358      -2.23439698      -0.53171058      -0.00019211      -0.00537064       0.00177896
H        4.20427299       0.70261813      -0.82188259      -0.01004433      -0.00379664      -0.01215227
H        5.81932201       0.04048890      -0.83852973      -0.00784309       0.00152142      -0.01229765
H        3.98884304      -3.73424902      -2.06896686       0.00218955      -0.00361958       0.00386781
O        2.79149198       1.93365426      -1.39671779      -0.00984327      -0.00489128      -0.00683474
H        1.94202171       1.52697442      -1.62393224      -0.01352819      -0.00634116      -0.00423805
H        2.55599319       2.41975233      -0.59795230      -0.00553813      -0.00784574       0.00322609
44
Properties=species:S:1:pos:R:3:forces:R:3 reactant=T mapped=T (centered)=T charge=0 spin=1 energy=-34183.05632231542 free_energy=-34183.05632231542 stress="0.3008928062697242 0.11398882433943057 0.06171587120464807 0.11398882433943057 -0.039343055839997 0.04786261094311692 0.06171587120464807 0.04786261094311692 -0.11103269892611412" pbc="F F F"
O       -3.46667608       1.07225710      -1.58539747       0.01209914       0.01101690      -0.00071475
O       -3.08265020       0.63286809       1.94304290      -0.00245377      -0.00139656      -0.00083041
O       -1.75852509      -1.08196717      -1.60338267       0.00731783       0.00626831       0.00021050
O       -5.26104786       2.32533422       2.04929232      -0.00632848      -0.00523776      -0.00333641
O        0.02637500       0.77835193      -1.35716222       0.00407323       0.00626663       0.00709837
O        0.95390203       1.91546411       0.84873599       0.00286294       0.00198864       0.00395781
C       -3.24844062       0.32250409      -0.40971370       0.00509273       0.00586215      -0.00267213
C       -3.54356569       1.24915127       0.75404639       0.00065476       0.00175511      -0.00049269
C       -1.84874694      -0.31917243      -0.41589353       0.00389521       0.00365319       0.00170411
C       -5.02595895       1.55571716       0.87260151      -0.00030979      -0.00128292      -0.00464336
C       -0.65104607       0.62740743      -0.36323890       0.00409732       0.00262253       0.00695180
C       -0.30604584       1.28733790       0.94605574       0.00549046      -0.00371826       0.00932977
H       -3.94321122      -0.52699148      -0.36048566       0.00366942       0.00664035      -0.00970603
H       -3.01559093       2.19809301       0.57575336       0.00030534       0.00289044       0.00424790
H       -1.77270976      -0.97751617       0.45234786      -0.00005674       0.00178406       0.00058514
H       -5.38720678       2.05786202      -0.02586378       0.00172918       0.00034027      -0.00456970
H       -5.57850910       0.62428674       1.00546863       0.00131501      -0.00297249      -0.00935559
H       -3.29603158       0.48083843      -2.32895371       0.01441607       0.01384844      -0.00245230
H       -3.54924758       1.06295184       2.67263503      -0.00564926      -0.00447448      -0.00106321
H       -1.08540525       2.01297388       1.19174449       0.00088919      -0.01179382       0.02007948
H       -0.33271533       0.51212710       1.71376370       0.01605561      -0.01083081       0.00290889
H       -1.06330683      -0.65830235      -2.13521203       0.00916358       0.00747122       0.00348009
H        1.37899408       1.87636377       1.70892005      -0.00593230       0.02858781       0.03301469
H       -5.06619289       3.24903961       1.86246798      -0.00917732      -0.00402438      -0.00037524
O        3.56782232      -2.84217890      -1.90729023       0.00037762      -0.00458374       0.00285810
O        2.41258685      -4.10094325      -0.45364490       0.00250792      -0.00406409       0.00551382
O        5.28388759      -2.00097672       0.57284149       0.00252463       0.00831732       0.00071467
N        0.80894567      -1.86352441       0.18953082      -0.00064340      -0.00473686       0.00179530
N        4.92436466      -0.00083555      -0.42818636      -0.00831357       0.00053117      -0.01098386
C        2.13468247      -1.70309510      -0.39078711      -0.00098292      -0.00383804       0.00115145
C        3.06841525      -1.11045874       0.67688249      -0.00128271      -0.00040659      -0.00036264
C        2.70094515      -3.02236819      -0.89763124       0.00089191      -0.00343703       0.00311059
C        4.53397115      -1.08941831       0.27177062      -0.00212094       0.00332732      -0.00321715
H        2.07447994      -1.01393301      -1.23568908      -0.00211356      -0.00528778      -0.00000450
H        2.70677408      -0.10536497       0.89479099      -0.00441546      -0.00124869      -0.00095450
H        2.99946388      -1.72455468       1.57553681       0.00209282      -0.00027446       0.00002244
H        0.85389741      -2.61176667       0.87572546       0.00053185      -0.00415637       0.00240604
H        0.16122044      -2.18666750      -0.52396017      -0.00071310      -0.00581016       0.00233261
H        4.24999620       0.66793179      -0.78469630      -0.01195614      -0.00388078      -0.01296546
H        5.85647186      -0.01343648      -0.80657860      -0.00948176       0.00175395      -0.01372551
H        3.96886678      -3.70307140      -2.10020662       0.00142408      -0.00437486       0.00418801
O        2.84185569       1.89619700      -1.39460778      -0.01227810      -0.00752849      -0.01530010
H        1.92586542       1.58093376      -1.32250306      -0.01124911      -0.00899075      -0.00460684
H        2.84904665       2.67055123      -0.82287055      -0.00801934      -0.00657553      -0.01532925
44
Properties=species:S:1:pos:R:3:forces:R:3 reactant=T mapped=T (centered)=T charge=0 spin=1 energy=-34183.05926893579 free_energy=-34183.05926893579 stress="0.12163007388443714 0.34823027316470645 0.10061406795331504 0.34823027316470645 0.0073216307451818875 0.11090604211195783 0.10061406795331504 0.11090604211195783 0.028468073522768648" pbc="F F F"
O       -3.50866639       1.04274957      -1.58325100       0.01352010       0.01130164      -0.00156777
O       -3.09384622       0.63301070       1.94470419      -0.00543143      -0.00107655      -0.00104235
O       -1.77283216      -1.09806758      -1.58814655       0.01547519       0.01141112       0.00199025
O       -5.27715904       2.31618041       2.06063043      -0.01071434      -0.00729395      -0.00533107
O        0.01738178       0.76462364      -1.36194880       0.01144607       0.01226072       0.01833765
O        0.87054254       2.03836300       0.87904009      -0.00781028       0.01692365       0.03539740
C       -3.27340822       0.30556732      -0.40253822       0.00666028       0.00668157      -0.00298678
C       -3.57075045       1.23751822       0.75669031      -0.00168236       0.00176570      -0.00102462
C       -1.86475887      -0.31715810      -0.41238399       0.00765846       0.00861344       0.00401248
C       -5.05332239       1.53617188       0.88847648      -0.00322331      -0.00335199      -0.00646950
C       -0.67828846       0.64546772      -0.37586909       0.00613715       0.01096523       0.01509432
C       -0.36697465       1.36929453       0.91500559      -0.00365530       0.00727372       0.01937923
H       -3.95760993      -0.55162267      -0.34150221       0.00716877       0.00569053      -0.01083388
H       -3.05505497       2.19065025       0.56710707      -0.00383197       0.00416328       0.00485960
H       -1.77472962      -0.96155963       0.46561436       0.00262733       0.00575613       0.00259817
H       -5.42718215       2.02894721      -0.01007054      -0.00135418      -0.00227101      -0.00665773
H       -5.60022860       0.60401593       1.03742658      -0.00046078      -0.00566643      -0.01111433
H       -3.34350402       0.44526232      -2.32306290       0.01507788       0.01364329      -0.00306895
H       -3.54729801       1.07197639       2.67723348      -0.00809123      -0.00355634      -0.00121666
H       -1.14140591       2.11592282       1.08769392      -0.00738507       0.00065795       0.01999350
H       -0.43811439       0.64859805       1.73050464      -0.00265407       0.00375279       0.01582818
H       -1.08264355      -0.67808322      -2.12927200       0.01769325       0.01417612       0.00705927
H        1.53520236       1.47770559       1.28916860       0.01373219      -0.02279104      -0.07029714
H       -5.07573819       3.23707187       1.86629758      -0.01251471      -0.00610944      -0.00177392
O        3.55934276      -2.81884984      -1.92002171      -0.00111683      -0.00580832       0.00196062
O        2.37995559      -4.08350804      -0.49023971      -0.00004043      -0.00430506       0.00523125
O        5.30560322      -2.06559766       0.56039673       0.00875112       0.00222014      -0.00420898
N        0.83034877      -1.82379888       0.21215942       0.00337860      -0.00025867       0.00554876
N        4.97875291      -0.03725404      -0.39629874      -0.00325938      -0.00287388      -0.01094101
C        2.15341946      -1.68224015      -0.37762680       0.00258464      -0.00325204       0.00334545
C        3.10962663      -1.13548578       0.69403841       0.00587033      -0.00522511       0.00127494
C        2.69014785      -3.00302089      -0.91339807       0.00037436      -0.00347149       0.00300490
C        4.57357606      -1.13376942       0.28183032       0.00418387      -0.00163462      -0.00465420
H        2.10101666      -0.97588488      -1.20879245       0.00262610      -0.00351627       0.00304533
H        2.78328967      -0.12460842       0.93872391       0.00707657      -0.00591978       0.00619517
H        3.02976246      -1.76027379       1.58378242       0.00967913      -0.00669693       0.00047644
H        0.86275535      -2.58631299       0.88324283       0.00245787      -0.00009983       0.00574732
H        0.16871747      -2.11778584      -0.50152382       0.00109610       0.00187917       0.00674880
H        4.31432037       0.65287284      -0.72689854      -0.00728951      -0.00610571      -0.00866878
H        5.90962182      -0.05298179      -0.77708564      -0.00471502       0.00028920      -0.01466311
H        3.94427602      -3.68275686      -2.13158711      -0.00167865      -0.00604550       0.00214742
O        2.88717162       1.88902827      -1.26978760      -0.02321285      -0.01595334       0.00735417
H        1.94175445       1.67553502      -1.20345690      -0.02705879      -0.00820872      -0.02026569
H        2.95693038       2.76408694      -0.87500594      -0.02809462      -0.00793318      -0.00984442
44
Properties=species:S:1:pos:R:3:forces:R:3 reactant=T mapped=T (centered)=T charge=0 spin=1 energy=-34183.049771668186 free_energy=-34183.049771668186 stress="-0.1829071761719622 0.27463448225158177 0.0295478191494053 0.27463448225158177 0.205490292269081 0.11091308954479784 0.0295478191494053 0.11091308954479784 -0.08092908176377026" pbc="F F F"
O       -3.59951139       0.99065456      -1.56499706       0.00620461       0.01006761      -0.00159178
O       -3.12851312       0.61145988       1.96311940      -0.00681750      -0.00223577      -0.00105215
O       -1.85362731      -1.15531647      -1.56845651       0.00532340       0.00847818      -0.00175064
O       -5.29599429       2.31742595       2.08529198      -0.01076560      -0.00607313      -0.00362154
O       -0.07678423       0.72023323      -1.44132461       0.00266233       0.00946810       0.00750142
O        0.89857267       1.89546791       0.79546439       0.00343799      -0.00634023       0.01349022
C       -3.33797264       0.26750354      -0.38043515       0.00178795       0.00583294      -0.00322293
C       -3.61143424       1.21164239       0.77526463      -0.00295389       0.00153587      -0.00077163
C       -1.92671200      -0.34126908      -0.41507395       0.00190270       0.00596722      -0.00017993
C       -5.09008125       1.52325402       0.91952922      -0.00420204      -0.00167537      -0.00537847
C       -0.76221318       0.64353183      -0.44446574       0.00278447       0.00609014       0.00437940
C       -0.42857438       1.43317287       0.80305280       0.00180775      -0.00079509       0.00973315
H       -4.01679477      -0.59147679      -0.29463452       0.00162215       0.00539194      -0.00894784
H       -3.08845585       2.15810278       0.57593127      -0.00302419       0.00278672       0.00474364
H       -1.79865450      -0.95374074       0.48173415      -0.00113644       0.00393704      -0.00118149
H       -5.47039154       2.00836459       0.01955084      -0.00198039       0.00022282      -0.00525595
H       -5.64119410       0.59627534       1.08465121      -0.00256883      -0.00361226      -0.01063370
H       -3.43565816       0.38842307      -2.30139855       0.00817746       0.01269923      -0.00330676
H       -3.56491102       1.06530425       2.69684336      -0.00999079      -0.00528502      -0.00109660
H       -1.07130801       2.31418525       0.83735178       0.00422148      -0.00042533       0.01361758
H       -0.65999725       0.82808501       1.68039536      -0.00041910      -0.00460498       0.00536831
H       -1.16896446      -0.75155818      -2.12950896       0.00685306       0.00976671       0.00091824
H        1.46991334       1.12421244       0.89143269      -0.00255886      -0.00625563       0.00504813
H       -5.08597483       3.23388921       1.87955467      -0.01451797      -0.00448124      -0.00029126
O        3.54184637      -2.76835200      -1.93781248      -0.00300334      -0.00362024       0.00248650
O        2.30391866      -4.02272460      -0.54847142      -0.00507068       0.00324740       0.00514045
O        5.37041726      -2.15342608       0.52905752       0.01395323       0.00497755      -0.00449065
N        0.87967693      -1.70769456       0.25003149       0.00655309       0.00963569       0.00746231
N        5.06686806      -0.08871729      -0.35462210      -0.00118753      -0.00067690      -0.01199392
C        2.20592731      -1.61857744      -0.34421890       0.00623437       0.00252470       0.00567852
C        3.19917184      -1.17896070       0.74275389       0.01050905      -0.00438895       0.00406007
C        2.66789031      -2.94520284      -0.93432976      -0.00200394      -0.00091224       0.00483644
C        4.65313708      -1.19834048       0.29775072       0.00792712       0.00037277      -0.00427582
H        2.18734788      -0.87858343      -1.14764198       0.00950500       0.00291853       0.00618222
H        2.92664480      -0.17732034       1.07796671       0.01063055      -0.00726680       0.01210203
H        3.11412582      -1.86073658       1.58907791       0.01563509      -0.01034653      -0.00040672
H        0.88510408      -2.46576128       0.92715083       0.00484300       0.01344284       0.01167321
H        0.20893718      -1.98948106      -0.46053115       0.00517887       0.00753004       0.00955095
H        4.41211301       0.62521267      -0.64855490      -0.00670586      -0.00601864      -0.01290272
H        5.98866864      -0.11018617      -0.75635085      -0.00424647       0.00118446      -0.01879426
H        3.88328608      -3.64166276      -2.18310825      -0.00804067      -0.00523915       0.00109231
O        3.01822542       1.96053616      -1.16017155      -0.01265602      -0.01103326      -0.01494365
H        2.05476363       1.85794562      -1.12159374      -0.01224650      -0.01830353      -0.02348373
H        3.17716619       2.82420624      -0.76525568      -0.02165788      -0.01848844       0.00450876
44
Properties=species:S:1:pos:R:3:forces:R:3 reactant=T mapped=T (centered)=T charge=0 spin=1 energy=-34183.14049157019 free_energy=-34183.14049157019 stress="-0.902780245296662 0.41424623128454163 0.021428838867141493 0.41424623128454163 0.04354192801115635 0.008665288617724127 0.021428838867141493 0.008665288617724127 -0.02260544416593898" pbc="F F F"
O       -3.78842599       0.84606041      -1.48942571      -0.01395758       0.00673698       0.00024581
O       -3.15381170       0.53089007       2.02613952      -0.00670215       0.00191836      -0.00228724
O       -2.03958364      -1.35526760      -1.49259505      -0.00975191       0.00969394      -0.00732776
O       -5.21006390       2.37388751       2.15353168      -0.00751006      -0.00197143       0.00574550
O       -0.39092641       0.61489386      -1.76280304      -0.01170716       0.00825324      -0.00365465
O        0.92669945       1.42805834       0.58502661      -0.00565115      -0.02940093       0.00867506
C       -3.43652305       0.16252394      -0.30288629      -0.00834826       0.00521189      -0.00212054
C       -3.61331259       1.14732466       0.83706840      -0.00755518       0.00343677      -0.00109933
C       -2.02920655      -0.43193486      -0.42507098      -0.00643532       0.00621682      -0.00438942
C       -5.06576910       1.55958739       0.99305442      -0.00805926       0.00343921       0.00144754
C       -0.94050101       0.59993266      -0.68572272      -0.00794646       0.00655783      -0.00893717
C       -0.47928028       1.50700842       0.44656729      -0.00244979       0.00404060      -0.00086206
H       -4.10546886      -0.68992559      -0.13027286      -0.00769497       0.00417104      -0.00090595
H       -3.02368415       2.05069650       0.61868555      -0.00769493       0.00437644       0.00023050
H       -1.78654468      -0.94185814       0.51235604      -0.00679724       0.00540606      -0.00713584
H       -5.42006445       2.06039041       0.09168027      -0.00811218       0.00747698       0.00389482
H       -5.67422033       0.67067182       1.16703320      -0.00787571       0.00262772      -0.00268683
H       -3.69990920       0.21892498      -2.21701947       0.01139278      -0.00291709      -0.01079558
H       -3.55309118       1.01801180       2.75969273      -0.00759261      -0.00080652      -0.00085572
H       -0.73720535       2.53744623       0.19591728       0.02267541       0.00591591      -0.01008257
H       -0.97820579       1.23086415       1.37729676      -0.01392237       0.01709005      -0.00941688
H       -1.45158001      -0.97726310      -2.16966023       0.00446565       0.01020102      -0.00513456
H        1.10574413       0.47334693       0.68943747      -0.02518755      -0.03852480      -0.01062857
H       -4.96194773       3.27692878       1.93243194      -0.01028382      -0.00037803       0.00906595
O        3.56243969      -2.67647001      -1.96025387       0.00342343      -0.00780494       0.00372952
O        2.18379585      -3.87485743      -0.65526414      -0.00117403      -0.00002983       0.00563124
O        5.39604994      -2.22536746       0.57100255       0.01940050       0.00279914      -0.01150586
N        0.93523741      -1.49292645       0.19726897       0.01284043       0.00406619       0.01029945
N        5.18387858      -0.11646464      -0.23384316       0.00999697       0.00209922      -0.01134227
C        2.28715125      -1.48562756      -0.35310827       0.01158995      -0.00081596       0.00422226
C        3.26298600      -1.17121019       0.79049083       0.01751505      -0.00187743       0.00001494
C        2.65192663      -2.81949295      -0.98702271       0.00363470      -0.00305001       0.00458914
C        4.72203627      -1.23196045       0.37082235       0.01589054       0.00117657      -0.00819513
H        2.35235643      -0.71111265      -1.12123483       0.01077631      -0.00177129       0.00314808
H        3.02575947      -0.18201492       1.18637921       0.01679656      -0.00307190       0.00254833
H        3.12302752      -1.90897750       1.58122630       0.02363677      -0.00394841      -0.00037290
H        0.87273257      -2.23863441       0.88516048       0.01435272       0.01000100       0.01814008
H        0.27442116      -1.74908419      -0.53210350       0.00833851      -0.00022870       0.01482058
H        4.57065155       0.65617911      -0.46746323       0.00747872       0.00234603      -0.00390460
H        6.11273348      -0.15038606      -0.61702055       0.00889989       0.00550520      -0.01470260
H        3.82932331      -3.56407450      -2.24351204      -0.00063720      -0.00910363       0.00405250
O        3.25549759       2.07149582      -0.90162927      -0.00908347      -0.01203741       0.01457054
H        2.35821312       1.99653102      -0.53004972      -0.00364549      -0.01787326       0.02795688
H        3.54666454       2.96325586      -0.69030922      -0.01732888      -0.00515223      -0.00468460
44
Properties=species:S:1:pos:R:3:forces:R:3 reactant=T mapped=T (centered)=T charge=0 spin=1 energy=-34182.754451278044 free_energy=-34182.754451278044 stress="-2.8810509461303573 1.3307496146359363 0.18667643699564332 1.3307496146359363 -0.30085831233851207 0.1436451518437546 0.18667643699564332 0.1436451518437546 -0.09000498836543648" pbc="F F F"
O       -3.61808878       0.60645335      -1.49355756      -0.04057338       0.03036869       0.00074544
O       -3.09585866       0.52371094       2.08969699      -0.01647044       0.00271380      -0.00370738
O       -1.88264174      -1.60462651      -1.21270279      -0.01037348       0.04078229      -0.03077063
O       -5.12510240       2.41801023       2.05088297      -0.01710974       0.00475877       0.01831124
O       -0.51183392       0.63036588      -1.82375196       0.00081868       0.01541420       0.00150256
O        0.94757709       1.68898977       0.43965690      -0.02324758       0.02127267      -0.00226032
C       -3.33252249       0.02713222      -0.22415441      -0.02523514       0.01857135      -0.00674646
C       -3.52178070       1.07669996       0.85879148      -0.02486177       0.01037985       0.00212085
C       -1.91515171      -0.53953803      -0.29455768      -0.02026384       0.02908260      -0.01745640
C       -4.96529210       1.52698626       0.95332046      -0.02515335       0.00798746       0.01374659
C       -0.90892831       0.54680125      -0.68909740      -0.02458769       0.03535818      -0.01117279
C       -0.45677479       1.52864133       0.39261163      -0.02396060       0.03269075      -0.00512954
H       -3.99033969      -0.82274330      -0.01777538      -0.01814753       0.01256972      -0.00942516
H       -2.91512276       1.95645418       0.60114423      -0.02826807       0.01414520       0.00487048
H       -1.64303439      -0.93491905       0.68385934      -0.01393884       0.02152407      -0.02218847
H       -5.27893330       1.98354099       0.01233015      -0.03256225       0.00924244       0.01708879
H       -5.60177401       0.66577292       1.16432683      -0.02258608       0.00686130       0.01716556
H       -4.47539887       0.30776010      -1.80316871      -0.02885326      -0.04593023      -0.02207773
H       -3.49596775       1.05783946       2.78885621      -0.00789553       0.00177381       0.00241562
H       -0.87196318       2.50545028       0.14307469      -0.00946524       0.04144198       0.00120981
H       -0.84011075       1.21701633       1.36612191      -0.02948033       0.03424864      -0.00570805
H       -1.92692021      -1.21147969      -2.09518825       0.03417043       0.05908956      -0.03449246
H        1.29576787       0.87070178       0.81166598       0.00143650      -0.19069205      -0.09679840
H       -4.78103605       3.28133172       1.79931214      -0.02545619       0.00747941       0.01604262
O        3.62579127      -2.62026867      -2.03208645       0.02720096      -0.00334876       0.00721381
O        2.18561444      -3.79302070      -0.77794479       0.02551928      -0.02031017      -0.00851757
O        5.18625163      -2.30852848       0.82475859       0.04535465      -0.00145589      -0.01370227
N        0.86682973      -1.40644663      -0.14240674       0.02150450      -0.02061207       0.04864212
N        5.15915975      -0.18234760       0.03711764       0.02486996       0.00388995      -0.00295577
C        2.28050074      -1.40834390      -0.47448575       0.01694970      -0.01969057       0.00940582
C        3.08951632      -1.16526531       0.80506726       0.03622770      -0.01712894      -0.00086471
C        2.67913558      -2.74283885      -1.09053392       0.02121589      -0.01481627       0.00013930
C        4.58302611      -1.28296764       0.57036649       0.03642140      -0.00516523      -0.00881095
H        2.48145259      -0.61438432      -1.19728436       0.00082216      -0.01828338       0.00477392
H        2.85106039      -0.17183397       1.19028088       0.03645994      -0.01930322       0.00703515
H        2.80268288      -1.90706065       1.54989090       0.04670606      -0.01911683       0.00214634
H        0.66009451      -2.26629318       0.35966726       0.04020167      -0.01475931       0.07276883
H        0.32804685      -1.48137991      -1.00064814      -0.00991739      -0.03904597       0.06501598
H        4.61100767       0.61614269      -0.25976362       0.01425794      -0.00149429       0.00007979
H        6.11591024      -0.26423427      -0.26015274       0.02704503       0.01729038      -0.00104038
H        3.85188217      -3.51717056      -2.32244887       0.03977465       0.00048337       0.00430609
O        3.40688734       2.09665779      -0.85599622      -0.01275769      -0.01664532      -0.00819096
H        2.46239986       2.09766583      -0.62485958      -0.01275937       0.00657912      -0.00330851
H        3.68398155       3.01556595      -0.80023659       0.00696773      -0.01820120      -0.00142172
44
Properties=species:S:1:pos:R:3:forces:R:3 reactant=T mapped=T (centered)=T charge=0 spin=1 energy=-34182.156111181626 free_energy=-34182.156111181626 stress="-4.384209579627422 2.793696300717045 0.6400238288200036 2.793696300717045 -1.5185758027159941 -0.3001383780529925 0.6400238288200036 -0.3001383780529925 -0.09721619098531237" pbc="F F F"
O       -3.46071991       0.39002186      -1.48490919      -0.08356132       0.03729370       0.00663882
O       -3.01218651       0.54975349       2.11904292      -0.02305761       0.00292592      -0.00411352
O       -1.83725044      -1.80022632      -1.05482661      -0.00500889       0.07868129      -0.04961184
O       -5.04541736       2.42063398       1.94729562      -0.01924654       0.01777758       0.02685368
O       -0.55765290       0.59956693      -1.79891428      -0.08393209       0.13975801       0.00703227
O        1.07703427       1.59406586       0.41899505      -0.02945823       0.01020626      -0.00399984
C       -3.21853294      -0.08098120      -0.16469141      -0.06156912       0.01953491      -0.00429931
C       -3.40542296       1.03524050       0.84938484      -0.04309432       0.01099560       0.00558542
C       -1.81944846      -0.68527504      -0.19457336      -0.04327885       0.06768329      -0.03718369
C       -4.84919096       1.49443671       0.88782436      -0.03762362       0.01669893       0.02477949
C       -0.78673478       0.37813318      -0.63130179      -0.14530049       0.18535572      -0.06311020
C       -0.32048251       1.33693393       0.46051082      -0.04132292       0.07147621       0.03208673
H       -3.89466582      -0.90429886       0.09221246      -0.04460265       0.00791767      -0.00323319
H       -2.78655683       1.89245012       0.55474857      -0.04193300       0.00939873       0.00024271
H       -1.57214955      -1.05132766       0.80111575       0.00917483       0.06563170      -0.04720275
H       -5.13566498       1.92819446      -0.07454214      -0.04319157       0.01433482       0.02615829
H       -5.49466268       0.64068265       1.10130284      -0.03659666       0.01800193       0.03272942
H       -4.40145959       0.53047874      -1.61413159      -0.06990886      -0.08504613      -0.03487865
H       -3.45265302       1.10179386       2.77879456      -0.00405973       0.00482999       0.00659246
H       -0.85775999       2.26509324       0.24711137      -0.01933388       0.11709494       0.13330330
H       -0.61590460       0.96081958       1.43996486      -0.00479437      -0.00074774       0.01995270
H       -2.17793203      -1.49738268      -1.90648369       0.04162794       0.08759999      -0.05551989
H        1.32044056       1.99603280       1.26215841      -0.02073999      -0.05437556      -0.16289167
H       -4.67053169       3.26868025       1.68774463      -0.02510914       0.01753982       0.01820493
O        3.57900230      -2.58161044      -2.05569308       0.09137797      -0.03916961      -0.02569746
O        2.08184839      -3.69486954      -0.81899180       0.10737699      -0.06636700      -0.02915862
O        4.92798110      -2.32139597       0.95574120       0.03877474      -0.00335304       0.01494748
N        0.76275863      -1.31253992      -0.47270846       0.06374051      -0.08514319      -0.07339507
N        5.04078171      -0.21127266       0.14708757       0.01472471       0.00009453       0.02169427
C        2.20761955      -1.31544861      -0.55937936       0.06664390      -0.06858075      -0.02735819
C        2.87806049      -1.09953990       0.80057515       0.02243716      -0.03629577      -0.00957991
C        2.61275129      -2.66200106      -1.13224139       0.09668894      -0.05804554      -0.02307501
C        4.37966408      -1.27398353       0.66435944       0.02685701      -0.01060580       0.01346902
H        2.51225393      -0.51992324      -1.24169773       0.05742194      -0.05997379      -0.02052675
H        2.61892183      -0.10142453       1.14880170      -0.00307628      -0.03565569      -0.02278660
H        2.51384621      -1.84056649       1.51098962       0.02490646      -0.03458532      -0.00665589
H        0.44230127      -2.20938979      -0.11827866       0.10730365      -0.06890049       0.07374068
H        0.40450277      -1.26294303      -1.42621782       0.06855614      -0.23217051       0.28740591
H        4.56071404       0.61339659      -0.18989262       0.00555267      -0.00745539       0.01863060
H        6.00114785      -0.35721678      -0.11311516       0.01814991       0.01490765       0.02860418
H        3.76591904      -3.49170604      -2.33034928       0.09435905      -0.03425986      -0.03888974
O        3.49060441       2.14364642      -0.84086961      -0.00556527      -0.00802603       0.01002718
H        2.53913845       2.05655333      -0.66526877      -0.01309584      -0.00630039      -0.02947037
H        3.65568833       3.07871483      -0.98668495      -0.00721343      -0.02068146      -0.03604103
44
Properties=species:S:1:pos:R:3:forces:R:3 reactant=T mapped=T (centered)=T charge=0 spin=1 energy=-34182.56146528821 free_energy=-34182.56146528821 stress="2.8863579441110248 -2.283508172610039 -0.7589642865783561 -2.283508172610039 1.937586266718382 0.8927839036068991 -0.7589642865783561 0.8927839036068991 -0.5917061177773341" pbc="F F F"
O       -3.31610721       0.43808248      -1.49918145       0.07503654       0.02960989      -0.00436982
O       -2.97914457       0.54941364       2.12048919       0.02501326       0.00642862       0.00330120
O       -1.87193700      -1.89061457      -1.03581662      -0.02655474      -0.04444303       0.00114382
O       -5.03156798       2.38652438       1.94260034       0.01068795      -0.01454095       0.00139843
O       -0.23217392       0.18999423      -1.80247148       0.17438696      -0.21311207       0.00282858
O        1.10298856       1.64872880       0.42637964       0.02822859       0.00724814      -0.00370479
C       -3.09825309      -0.05421091      -0.17984642       0.06581227       0.01735650      -0.00510192
C       -3.34676582       1.04619889       0.84737820       0.03462500       0.01002626       0.00150123
C       -1.74880707      -0.79877825      -0.13998730       0.03673716      -0.06370116       0.02895679
C       -4.80923814       1.47407355       0.87285782       0.02386199      -0.00944718      -0.00262375
C       -0.36717526      -0.11817044      -0.42391621       0.22853126      -0.27485406       0.11536657
C       -0.24246301       1.17863714       0.37524340       0.05152916      -0.10153514      -0.03419548
H       -3.81576239      -0.85710994       0.04084581       0.04233075       0.03017914      -0.02347822
H       -2.75065384       1.92815784       0.58561052       0.01972323       0.02453992       0.01712224
H       -1.66509456      -1.21131835       0.86498361      -0.05410889      -0.09724246       0.03077608
H       -5.10704920       1.91438512      -0.08309731       0.01463981      -0.00965172       0.00024054
H       -5.44593969       0.61154960       1.08025275       0.03098514      -0.01493415      -0.00154784
H       -4.26315462       0.49331841      -1.66099936       0.07232443      -0.05670854      -0.03362315
H       -3.44359864       1.08821924       2.77508134       0.01270090      -0.00047605       0.00081408
H       -0.84418808       1.96555189      -0.08424043       0.00138414      -0.18058550      -0.14833841
H       -0.61906251       0.99604699       1.38341740       0.03097743      -0.01190633      -0.01388167
H       -2.15129273      -1.51207220      -1.88081400       0.01008646       0.00663468       0.00797606
H        1.36665981       1.74159819       1.34425492       0.01065450      -0.03017987       0.02242948
H       -4.68218509       3.24883290       1.69440304      -0.01132369      -0.00515236       0.00222808
O        3.39339585      -2.44617182      -1.93772831      -0.08481292       0.08549561       0.07092851
O        1.82358513      -3.56352167      -0.79672815      -0.14331557       0.07169829      -0.01930611
O        4.93741218      -2.31814497       0.87092847      -0.00399382      -0.00313884      -0.03691182
N        0.61357089      -1.13799540      -0.02823137      -0.08508833       0.07965398       0.23352516
N        5.05914834      -0.19970546       0.08561670       0.00836792       0.00500879      -0.01097148
C        2.02401060      -1.17534664      -0.43814996      -0.10376947       0.07134540       0.06414570
C        2.90850791      -1.05115679       0.82387181       0.00764496       0.02087547       0.01428620
C        2.36747688      -2.52812712      -1.07121308      -0.13073836       0.07501141       0.02315036
C        4.39584735      -1.26123127       0.59813207       0.00134771       0.00328894      -0.02558370
H        2.28599291      -0.39556559      -1.15579357      -0.13086109       0.06857119       0.04989066
H        2.72049072      -0.06380896       1.23848359       0.03948426       0.01351106       0.05093021
H        2.57349899      -1.80643524       1.53249215       0.02155279       0.01040769       0.00942294
H        0.23253231      -2.07489227      -0.09533580      -0.11879910       0.05959540      -0.01171535
H        0.10048059      -0.65001113      -2.15218253      -0.17632972       0.34220758      -0.40689737
H        4.57744391       0.63211088      -0.23144141       0.01150112       0.00919255      -0.00456678
H        6.01930250      -0.34323260      -0.17604827       0.01076710       0.00661544      -0.00264332
H        3.63447811      -3.35350754      -2.18782913      -0.04903118       0.08991525       0.08039316
O        3.48025167       2.13678381      -0.87852982       0.00489170      -0.00614210      -0.02382581
H        2.54410108       2.06658038      -0.62371327       0.00941702      -0.00189293       0.00471034
H        3.67043814       3.07634074      -0.94002849       0.00349556      -0.00477265      -0.02417957
44
Properties=species:S:1:pos:R:3:forces:R:3 reactant=T mapped=T (centered)=T charge=0 spin=1 energy=-34182.874063344876 free_energy=-34182.874063344876 stress="0.12589323821719497 -0.11464417746147845 -0.0956823451064767 -0.11464417746147845 0.18931426262298134 0.09149948342283191 -0.0956823451064767 0.09149948342283191 -0.01675222592539503" pbc="F F F"
O       -3.10447690       0.50433933      -1.55903417       0.00907906       0.00016755      -0.00203278
O       -2.96605186       0.49398243       2.07512510       0.00122465       0.00009846      -0.00147050
O       -1.79199601      -1.89897050      -1.05783257       0.00378704      -0.00138970       0.00157113
O       -5.03834808       2.31288166       1.89644883      -0.00131872      -0.00296303      -0.00359752
O       -0.07006373       0.07552026      -1.70508265       0.00723740      -0.00673051       0.00533839
O        1.05138045       1.68827998       0.56433591      -0.00244354       0.00392207       0.00437156
C       -3.02625962      -0.04185867      -0.24343322       0.00355513      -0.00025324      -0.00132799
C       -3.30786397       1.02689498       0.80963643       0.00200747      -0.00020687      -0.00175288
C       -1.71402441      -0.82539101      -0.12816299       0.00190534      -0.00170328       0.00260368
C       -4.77453296       1.43074975       0.81211060       0.00156614      -0.00233402      -0.00331389
C       -0.33499867      -0.13102422      -0.33147941       0.00164336      -0.00111801       0.00544148
C       -0.27853253       1.24197047       0.33029189      -0.00148487       0.00313239      -0.00245051
H       -3.79092196      -0.81971528      -0.11870968       0.00159126       0.00099062      -0.00418680
H       -2.71314550       1.92101228       0.58826446       0.00148602       0.00025605      -0.00118657
H       -1.70413238      -1.26343773       0.87055905      -0.00121804      -0.00237645       0.00255800
H       -5.05865630       1.88306025      -0.14270092       0.00202486      -0.00308569      -0.00372200
H       -5.39499341       0.54975615       0.98666114       0.00317443      -0.00356580      -0.00406731
H       -4.02587635       0.55283847      -1.82929321       0.01044612      -0.00481919      -0.00814687
H       -3.43501188       1.02009181       2.73665269       0.00050786       0.00002401      -0.00195998
H       -0.74312052       1.97689066      -0.32417217       0.00389938      -0.00051290      -0.01233614
H       -0.80832037       1.19359661       1.28255543      -0.00785216       0.01029160      -0.00447294
H       -2.17612774      -1.52900028      -1.86447563      -0.00354271      -0.00261669       0.00409079
H        1.40731603       1.12337054       1.25979930       0.00327695      -0.02548945      -0.00272053
H       -4.70569334       3.18926425       1.67674284      -0.00384675      -0.00203916      -0.00334938
O        3.17831939      -2.35373306      -1.87256997      -0.00844425       0.01387490       0.00050572
O        1.52486499      -3.39822981      -0.77904077      -0.01674813       0.01380282      -0.01185967
O        5.03225521      -2.32691399       0.64666196       0.00234143      -0.00519176      -0.01096950
N        0.63960389      -1.01845758       0.31168070       0.00133354       0.00575999       0.01795315
N        5.05930474      -0.19571225      -0.11849671       0.00278541      -0.00210122      -0.00247053
C        1.98957830      -1.09279158      -0.24046261      -0.00174229       0.00626925       0.01063331
C        3.02723590      -1.04532764       0.90226246       0.00525481      -0.00206297       0.00550242
C        2.17585905      -2.40809896      -0.98444295      -0.00959844       0.01165422      -0.00120656
C        4.46824325      -1.26326692       0.46376159       0.00327489      -0.00334429      -0.00387215
H        2.16721027      -0.27985906      -0.94266031      -0.00616644       0.01091433       0.01488707
H        2.94950674      -0.07560928       1.39615221       0.01116190      -0.00424368       0.01222034
H        2.78426544      -1.82113699       1.62624338       0.00820987      -0.00474755       0.00396443
H        0.27723073      -1.96665149       0.34889033       0.00302507       0.00471676       0.02048382
H       -0.14011508      -0.78487573      -2.13893139      -0.01700149      -0.00761800       0.00050153
H        4.53787970       0.63676054      -0.36817751       0.00182512      -0.00171240      -0.00006268
H        5.97367162      -0.33869599      -0.51193274       0.00063062      -0.00295525      -0.00849266
H        3.33473840      -3.25720243      -2.18785072      -0.01299192       0.01558841      -0.00717722
O        3.38680340       2.15175494      -0.87000837      -0.00215056      -0.00411356      -0.00061564
H        2.48043169       2.09688850      -0.51584809      -0.00112587       0.00044556       0.00390419
H        3.65756438       3.06605658      -0.75003854      -0.00057915      -0.00261437      -0.00770977
44
Properties=species:S:1:pos:R:3:forces:R:3 reactant=T mapped=T (centered)=T charge=0 spin=1 energy=-34182.82975542262 free_energy=-34182.82975542262 stress="0.6517241862835895 -0.40579980695401463 -0.09799990478257521 -0.40579980695401463 0.11450836387648868 0.17647986476690308 -0.09799990478257521 0.17647986476690308 0.014561864472009821" pbc="F F F"
O       -3.28678188       0.38347143      -1.53153860       0.02514401      -0.00791745      -0.00903852
O       -2.80959493       0.68118146       2.05805823      -0.00584022      -0.01457038      -0.00446190
O       -1.90651824      -1.92851723      -1.06717472       0.01937858      -0.01566213       0.02473952
O       -4.92690944       2.43355690       1.92872410      -0.00291953      -0.00672177      -0.01220051
O       -0.14021702      -0.06729459      -1.81527299       0.00565606       0.00415465       0.01094276
O        1.04974337       1.56972760       0.54771210       0.00121629       0.01575234      -0.00492100
C       -3.07339064      -0.06576309      -0.19203806       0.00781990      -0.00561595      -0.00600058
C       -3.27924811       1.08826278       0.78630728       0.00042060      -0.00799933      -0.00474365
C       -1.75243031      -0.85629022      -0.14707101       0.00736786      -0.00216825       0.01110887
C       -4.74960536       1.46549135       0.90027184       0.00041107      -0.00696340      -0.01108165
C       -0.36579472      -0.19291353      -0.42357334       0.00353725       0.00184290       0.01086307
C       -0.27359867       1.21278647       0.17133756       0.00061449       0.00265186       0.00804427
H       -3.81768345      -0.83168981       0.05951737       0.00606660      -0.00645637      -0.01385521
H       -2.73067169       1.96724093       0.42496410       0.00299830      -0.00682649       0.00171954
H       -1.69490889      -1.29222127       0.85099444       0.00417525       0.00974661       0.01632127
H       -5.13916142       1.82637889      -0.05512960       0.00465569      -0.00594772      -0.01257855
H       -5.32287537       0.59047149       1.21250540      -0.00307807      -0.00566940      -0.01418015
H       -4.21312529       0.26592448      -1.76008869       0.02085773       0.02503091      -0.00866990
H       -3.20767394       1.27941818       2.70513643      -0.00584114      -0.01739966      -0.00220689
H       -0.60669641       1.93967781      -0.56734422      -0.00844175      -0.00379400       0.00627926
H       -0.89719748       1.26044025       1.06069475       0.00536838       0.00025037       0.01195819
H       -2.30766030      -1.53592115      -1.85632481       0.00658381      -0.03390717       0.02192472
H        1.30263165       0.92314556       1.21911909       0.01497942       0.03109816       0.00446877
H       -4.71416468       3.30633869       1.58359929       0.01536904      -0.00935906      -0.00780950
O        3.24323321      -2.27530765      -1.92495051      -0.01864950       0.00858933      -0.00232849
O        1.61989761      -3.40841897      -0.87048098      -0.03748389       0.02378036      -0.01868424
O        4.98323054      -2.34688622       0.56007887      -0.00062186      -0.00583162       0.00421957
N        0.61841555      -1.06019464       0.23400460       0.00284687       0.00900762       0.01665317
N        5.09714475      -0.15480271       0.00355926      -0.00495352      -0.00880361      -0.00784069
C        1.98302400      -1.09345028      -0.29681114      -0.00291842       0.00760449       0.00768074
C        3.00349595      -1.03644755       0.86525607      -0.00025792      -0.00545405       0.00387467
C        2.22999570      -2.38863533      -1.05523104      -0.02128338       0.01314245      -0.00495639
C        4.45526299      -1.25401244       0.45744423      -0.00233265      -0.00722082       0.00015132
H        2.15026417      -0.26517037      -0.98287442      -0.00539743       0.01172008       0.01203650
H        2.91983044      -0.06740796       1.35845504       0.00334009      -0.00883180       0.01130771
H        2.75094777      -1.81479266       1.58356317      -0.00296233      -0.00746038       0.00059697
H        0.27821013      -2.01728127       0.26552813       0.00410542       0.00913547       0.01959037
H       -0.23355217      -0.95276538      -2.19225326      -0.01245843       0.01197569      -0.00317698
H        4.60634044       0.71146092      -0.18771801      -0.00441089      -0.00821535      -0.00533258
H        6.02759809      -0.28400209      -0.35577595      -0.00770759      -0.00991418      -0.01432847
H        3.47228452      -3.16783673      -2.22623146      -0.03552165       0.00975050      -0.01750253
O        3.45445652       2.22701279      -0.61913112       0.00543372       0.00519529      -0.00370606
H        2.53550249       2.09086098      -0.32096262       0.00289206       0.01379300      -0.00800285
H        3.66795050       3.13517417      -0.38885579       0.01184144       0.00448807      -0.00687390
