44
Properties=species:S:1:pos:R:3 reactant=T mapped=T (centered)=T charge=0 spin=1 pbc="F F F"
O       -3.46071991       0.39002186      -1.48490919
O       -3.01218651       0.54975349       2.11904292
O       -1.83725044      -1.80022632      -1.05482661
O       -5.04541736       2.42063398       1.94729562
O       -0.55765290       0.59956693      -1.79891428
O        1.07703427       1.59406586       0.41899505
C       -3.21853294      -0.08098120      -0.16469141
C       -3.40542296       1.03524050       0.84938484
C       -1.81944846      -0.68527504      -0.19457336
C       -4.84919096       1.49443671       0.88782436
C       -0.78673478       0.37813318      -0.63130179
C       -0.32048251       1.33693393       0.46051082
H       -3.89466582      -0.90429886       0.09221246
H       -2.78655683       1.89245012       0.55474857
H       -1.57214955      -1.05132766       0.80111575
H       -5.13566498       1.92819446      -0.07454214
H       -5.49466268       0.64068265       1.10130284
H       -4.40145959       0.53047874      -1.61413159
H       -3.45265302       1.10179386       2.77879456
H       -0.85775999       2.26509324       0.24711137
H       -0.61590460       0.96081958       1.43996486
H       -2.17793203      -1.49738268      -1.90648369
H        1.32044056       1.99603280       1.26215841
H       -4.67053169       3.26868025       1.68774463
O        3.57900230      -2.58161044      -2.05569308
O        2.08184839      -3.69486954      -0.81899180
O        4.92798110      -2.32139597       0.95574120
N        0.76275863      -1.31253992      -0.47270846
N        5.04078171      -0.21127266       0.14708757
C        2.20761955      -1.31544861      -0.55937936
C        2.87806049      -1.09953990       0.80057515
C        2.61275129      -2.66200106      -1.13224139
C        4.37966408      -1.27398353       0.66435944
H        2.51225393      -0.51992324      -1.24169773
H        2.61892183      -0.10142453       1.14880170
H        2.51384621      -1.84056649       1.51098962
H        0.44230127      -2.20938979      -0.11827866
H        0.40450277      -1.26294303      -1.42621782
H        4.56071404       0.61339659      -0.18989262
H        6.00114785      -0.35721678      -0.11311516
H        3.76591904      -3.49170604      -2.33034928
O        3.49060441       2.14364642      -0.84086961
H        2.53913845       2.05655333      -0.66526877
H        3.65568833       3.07871483      -0.98668495
