44
Properties=species:S:1:pos:R:3 reactant=T mapped=T (centered)=T charge=0 spin=1 pbc="F F F"
O       -3.15211495       1.11521316      -1.58332096
O       -3.25594068       0.58244203       1.95586933
O       -1.63367160      -1.17537915      -1.47504929
O       -5.18317732       2.53659166       1.82015873
O        0.07501831       0.77833804      -1.13232011
O        0.82908213       1.94232408       1.13034250
C       -3.11555873       0.33903964      -0.40464808
C       -3.43428084       1.28369093       0.73743076
C       -1.77823751      -0.41685283      -0.28832103
C       -4.85973290       1.80115617       0.64263103
C       -0.56871027       0.49470980      -0.14793480
C       -0.18277425       0.95736731       1.23071670
H       -3.88547075      -0.44329615      -0.43023342
H       -2.74887330       2.14408485       0.67981058
H       -1.81936490      -1.08313164       0.57485981
H       -4.99349038       2.39361167      -0.26313011
H       -5.54754538       0.95425619       0.61593091
H       -2.94555847       0.52365476      -2.31705624
H       -3.79582665       1.04038161       2.61493956
H       -1.05978286       1.31498977       1.77271200
H        0.17176274       0.05039816       1.73481269
H       -0.92560897      -0.73894166      -1.97722707
H        1.15774133       2.14327442       2.01137234
H       -4.84535874       3.43311067       1.73054411
O        3.49317285      -3.03627400      -1.90449744
O        2.66563685      -4.15137557      -0.14037845
O        5.15699102      -1.79346764       0.22037093
N        0.77513916      -2.08905087       0.23581944
N        4.69250216       0.22738427      -0.68863117
C        2.03874593      -1.84566957      -0.44737832
C        2.92728088      -0.98259611       0.46356631
C        2.75530087      -3.14415807      -0.78881317
C        4.37007723      -0.89030849      -0.00731275
H        1.84845146      -1.30160129      -1.37467064
H        2.46396300       0.00068495       0.54214831
H        2.95085677      -1.45067527       1.44913978
H        0.94021826      -2.78670035       0.95620845
H        0.10516023      -2.49830966      -0.40824540
H        4.02046010       0.96812304      -0.86442201
H        5.63336210       0.30225140      -1.03606818
H        4.03045616      -3.83985855      -1.97265695
O        2.60129246       2.21721965      -1.15369018
H        2.05833195       1.93461812      -1.89733375
H        1.97007551       2.18873051      -0.41604477
44
Properties=species:S:1:pos:R:3 reactant=T mapped=T (centered)=T charge=0 spin=1 pbc="F F F"
O       -3.11313292       1.10863120      -1.56241815
O       -3.27363004       0.56022201       1.96364465
O       -1.70034467      -1.25992764      -1.43954981
O       -5.22700619       2.49320711       1.80876922
O        0.04774760       0.63043971      -1.19619642
O        0.80173502       1.93307805       1.06460143
C       -3.11204798       0.31413925      -0.39426972
C       -3.45257465       1.25040929       0.74577165
C       -1.79100378      -0.45558297      -0.26685767
C       -4.88382933       1.75314412       0.63936337
C       -0.54119362       0.40249629      -0.16807547
C       -0.20239937       0.99514943       1.14031187
H       -3.89215622      -0.45673414      -0.44348521
H       -2.78069887       2.11840430       0.69080657
H       -1.84218652      -1.09106997       0.61849585
H       -5.01946252       2.33817328      -0.27125476
H       -5.56188078       0.89821873       0.61323254
H       -2.87059353       0.54384328      -2.29818388
H       -3.82503617       1.01276619       2.61987251
H       -1.02103386       1.42769461       1.67228054
H        0.03461965       0.14014346       1.78068942
H       -0.96240475      -0.90233934      -1.98341816
H        1.21323270       2.12683493       1.88756712
H       -4.89514826       3.39158802       1.71761484
O        3.36920907      -3.00454509      -1.94842612
O        2.43039186      -4.10037318      -0.24243201
O        5.22228339      -1.86379415       0.15142357
N        0.81040208      -1.87323178       0.29735072
N        4.78348612       0.21020292      -0.66317598
C        2.06429039      -1.72673806      -0.41611746
C        3.02691673      -0.98116505       0.50350353
C        2.63785386      -3.07258668      -0.82843505
C        4.45535662      -0.92336531      -0.01034007
H        1.93228985      -1.16616287      -1.32747806
H        2.61608856       0.00980437       0.64362215
H        3.06680546      -1.50795564       1.45750063
H        0.89666480      -2.59632084       0.99880363
H        0.12171477      -2.34238686      -0.45556809
H        4.12238592       0.97310370      -0.78021937
H        5.71673844       0.27427907      -1.03590417
H        3.82185872      -3.85898753      -2.05983879
O        2.64227902       2.15033985      -1.09765207
H        2.04941776       1.81587419      -1.75976066
H        2.08399563       2.31107975      -0.36616868
44
Properties=species:S:1:pos:R:3 reactant=T mapped=T (centered)=T charge=0 spin=1 pbc="F F F"
O       -3.06679877       1.08303175      -1.54517745
O       -3.29005379       0.54505748       1.97127447
O       -1.75000612      -1.34602307      -1.38491911
O       -5.26324764       2.45948771       1.77868686
O        0.02362261       0.48168043      -1.24027464
O        0.78724167       1.91904262       1.01509209
C       -3.10038583       0.28268734      -0.38095314
C       -3.46363386       1.21948809       0.74962912
C       -1.79272039      -0.49649316      -0.23483669
C       -4.89881272       1.70693975       0.62409841
C       -0.51057886       0.31767984      -0.17225520
C       -0.21889685       1.02520955       1.05483551
H       -3.88837949      -0.47868692      -0.44882236
H       -2.80404642       2.09385912       0.69546560
H       -1.85162837      -1.09687261       0.67161695
H       -5.03223914       2.27820245      -0.29569089
H       -5.56810350       0.84495673       0.60306765
H       -2.78750912       0.53245766      -2.27306092
H       -3.85365678       0.99727219       2.62015773
H       -0.98306771       1.52842224       1.55397763
H       -0.10410037       0.25454743       1.79701607
H       -0.99157394      -1.07106905      -1.95677846
H        1.26395159       2.08784715       1.78064282
H       -4.93458224       3.35825589       1.68154288
O        3.23239513      -2.94932883      -1.99052763
O        2.21125429      -4.00158534      -0.31895866
O        5.26758174      -1.92677162       0.05883129
N        0.84822500      -1.66648723       0.35071166
N        4.85693017       0.19040491      -0.64735877
C        2.08580585      -1.61694241      -0.38705227
C        3.11272803      -0.99797049       0.52646545
C        2.52231401      -2.98318558      -0.85928442
C        4.52255395      -0.96150961      -0.03240451
H        2.00098944      -1.04463376      -1.27894999
H        2.76126000      -0.00709997       0.73666920
H        3.16190341      -1.59278012       1.43416224
H        0.86894880      -2.40405435       1.03784047
H        0.12758792      -2.20425640      -0.49166282
H        4.20934915       0.96902027      -0.70058428
H        5.78085219       0.25185426      -1.04371859
H        3.58810292      -3.83218046      -2.14928169
O        2.67577661       2.10109765      -1.00051042
H        2.04710112       1.73075196      -1.58414974
H        2.19754628       2.41867650      -0.32457145
44
Properties=species:S:1:pos:R:3 reactant=T mapped=T (centered)=T charge=0 spin=1 pbc="F F F"
O       -3.02059955       1.05688390      -1.52838896
O       -3.30674209       0.53110569       1.97880785
O       -1.80077332      -1.43308656      -1.32798750
O       -5.30029320       2.42636357       1.74726225
O       -0.00083414       0.33348290      -1.28394731
O        0.77310631       1.90403477       0.96718844
C       -3.08897139       0.25148291      -0.36770956
C       -3.47520492       1.18945241       0.75306470
C       -1.79482316      -0.53695596      -0.20186833
C       -4.91449992       1.66116803       0.60789640
C       -0.48056119       0.23396354      -0.17566789
C       -0.23567573       1.05512199       0.96958126
H       -3.88497602      -0.50047372      -0.45379859
H       -2.82791963       2.07009768       0.69955997
H       -1.86176578      -1.10183455       0.72551570
H       -5.04537725       2.21806566      -0.32129314
H       -5.57469918       0.79180502       0.59231165
H       -2.70321294       0.52051872      -2.24737063
H       -3.88289999       0.98330242       2.61992196
H       -0.94545988       1.62964599       1.43352576
H       -0.24412485       0.36939108       1.81201748
H       -1.02229207      -1.24136529      -1.92773902
H        1.31476939       2.04657348       1.67523160
H       -4.97490945       3.32553860       1.64379154
O        3.09528761      -2.89438036      -2.03289194
O        1.99709590      -3.90391175      -0.39369676
O        5.31360364      -1.98937415      -0.03622512
N        0.88622228      -1.45990192       0.40448122
N        4.92964345       0.17054623      -0.63367702
C        2.10742158      -1.50785932      -0.35810095
C        3.19888413      -1.01553934       0.54824867
C        2.40714302      -2.89414469      -0.89027214
C        4.58958758      -0.99951762      -0.05703076
H        2.06899986      -0.92324083      -1.23026170
H        2.90723683      -0.02579688       0.82994073
H        3.25788739      -1.67943584       1.40781665
H        0.84223895      -2.21231682       1.07654879
H        0.13362733      -2.06630687      -0.52725895
H        4.29609608       0.96478490      -0.62180522
H        5.84404497       0.22985681      -1.05413472
H        3.35602204      -3.80482625      -2.23784130
O        2.70909639       2.05191110      -0.90007347
H        2.04429129       1.64793056      -1.40396185
H        2.31430961       2.52724077      -0.27970983
44
Properties=species:S:1:pos:R:3 reactant=T mapped=T (centered)=T charge=0 spin=1 pbc="F F F"
O       -2.97168678       1.01428824      -1.51375583
O       -3.32025659       0.52517106       1.98777652
O       -1.83499866      -1.52045990      -1.24729941
O       -5.33245266       2.39880894       1.70226995
O       -0.02247253       0.18636960      -1.30917826
O        0.76625244       1.89099697       0.93314411
C       -3.07116906       0.21544755      -0.34979442
C       -3.48161147       1.16217615       0.75390876
C       -1.78701106      -0.57564452      -0.15685271
C       -4.92463665       1.61421796       0.58407483
C       -0.44747979       0.16124148      -0.16605658
C       -0.25001745       1.08317422       0.88499684
H       -3.87173793      -0.53086329      -0.44865740
H       -2.84651269       2.04913490       0.69810792
H       -1.85669098      -1.09888633       0.79193326
H       -5.05065300       2.14988021      -0.35784458
H       -5.57432834       0.73713632       0.58005183
H       -2.61301984       0.48329807      -2.21513786
H       -3.91010659       0.98080588       2.61721241
H       -0.90700844       1.72127628       1.29113060
H       -0.38269644       0.51242080       1.78907904
H       -1.04589694      -1.41346629      -1.86197486
H        1.36050705       1.99085054       1.58046949
H       -5.00960080       3.29723548       1.58708229
O        2.95354321      -2.81697822      -2.07424132
O        1.81083727      -3.77758561      -0.44692524
O        5.33917300      -2.04323994      -0.14752803
N        0.92613351      -1.25695148       0.44384087
N        4.98663171       0.14849175      -0.62042392
C        2.12424529      -1.40750561      -0.33460449
C        3.26759732      -1.05297036       0.55370343
C        2.29588810      -2.79261180      -0.91794706
C        4.63680804      -1.04181137      -0.09438407
H        2.12612814      -0.81145132      -1.18314384
H        3.04367488      -0.07751338       0.91259073
H        3.32091680      -1.79295828       1.34451906
H        0.82613157      -2.01987862       1.10500461
H        0.12889369      -1.94101835      -0.56291180
H        4.37127706       0.94971929      -0.53769010
H        5.89274705       0.21319986      -1.05879964
H        3.11578271      -3.73136664      -2.32507332
O        2.73778040       2.01442334      -0.76320583
H        2.04999900       1.58591800      -1.19591124
H        2.43109648       2.61747841      -0.25155477
44
Properties=species:S:1:pos:R:3 reactant=T mapped=T (centered)=T charge=0 spin=1 pbc="F F F"
O       -3.01562321       0.94200376      -1.50112578
O       -3.29745253       0.54639489       2.01512549
O       -1.89150759      -1.60613080      -1.14180098
O       -5.34620521       2.38216199       1.71560362
O       -0.06331241       0.16242154      -1.36343422
O        0.76804231       1.91003507       0.85958547
C       -3.08443316       0.17703582      -0.31383359
C       -3.49139419       1.14745293       0.76838811
C       -1.78543202      -0.59572486      -0.12593908
C       -4.94628278       1.56809076       0.61586726
C       -0.44130122       0.14130146      -0.19523153
C       -0.25883550       1.13742996       0.76896831
H       -3.88297174      -0.57885326      -0.37753520
H       -2.87519685       2.04208451       0.67727404
H       -1.82331824      -1.08106868       0.84098234
H       -5.10219372       2.06943219      -0.34019486
H       -5.58081830       0.68038344       0.65464006
H       -2.65558649       0.39632898      -2.19032966
H       -3.88034381       1.01460133       2.64458700
H       -0.87912418       1.82784069       1.11581928
H       -0.45392721       0.65506802       1.71003997
H       -1.14522581      -1.60804446      -1.77155441
H        1.38027938       1.98430373       1.49476200
H       -5.03966026       3.28099846       1.56590959
O        2.92806199      -2.77390749      -2.09919576
O        1.68337198      -3.69777373      -0.52717031
O        5.34258160      -2.10605187      -0.12923882
N        0.93119994      -1.14402785       0.40120383
N        5.04640384       0.10698405      -0.53498450
C        2.13973420      -1.34960225      -0.34143404
C        3.28218420      -1.08816379       0.57512415
C        2.24557902      -2.73518921      -0.95591376
C        4.66203161      -1.09088678      -0.05254795
H        2.19575640      -0.73641046      -1.17524424
H        3.09379444      -0.12316549       0.98107748
H        3.29840495      -1.87442902       1.32247970
H        0.78340068      -1.92308689       1.02951473
H        0.22203016      -1.67870789      -0.88681810
H        4.44817608       0.91852459      -0.42985576
H        5.96274834       0.16596099      -0.95326192
H        3.04367996      -3.69058594      -2.36924662
O        2.81709346       1.99475560      -0.65856959
H        2.11977131       1.55921999      -1.08065320
H        2.54582055       2.67099598      -0.24183854
44
Properties=species:S:1:pos:R:3 reactant=T mapped=T (centered)=T charge=0 spin=1 pbc="F F F"
O       -3.04768665       0.84910903      -1.49056778
O       -3.27182231       0.57729281       2.03975669
O       -1.90733698      -1.69236838      -1.01343492
O       -5.35978065       2.36609033       1.70643123
O       -0.10258923       0.15734486      -1.41199564
O        0.77004530       1.93268074       0.79990318
C       -3.08454659       0.13028522      -0.27478947
C       -3.49489069       1.13197642       0.77627409
C       -1.76923182      -0.61699539      -0.08315013
C       -4.96099942       1.51556623       0.63432607
C       -0.42870051       0.12705007      -0.21484507
C       -0.26648604       1.19489425       0.65820123
H       -3.87561322      -0.63869501      -0.29924940
H       -2.89974955       2.03384545       0.64596740
H       -1.77851341      -1.05468471       0.90496217
H       -5.14395209       1.97379225      -0.33813100
H       -5.57670976       0.61763022       0.72058101
H       -2.68384496       0.28049371      -2.16113426
H       -3.85107118       1.06141796       2.66269090
H       -0.85429980       1.92938347       0.93308763
H       -0.52520454       0.80706937       1.62629335
H       -1.18438568      -1.80753783      -1.61119268
H        1.39819431       1.97372088       1.42491590
H       -5.07146710       3.26328396       1.51690064
O        2.87747271      -2.71660149      -2.13900104
O        1.55244635      -3.60458575      -0.61500297
O        5.33046475      -2.17358694      -0.13580290
N        0.93466332      -1.03325423       0.35883647
N        5.09279164       0.05922914      -0.45621510
C        2.14213828      -1.29023925      -0.35387311
C        3.28501508      -1.12976360       0.58603557
C        2.17550276      -2.66515970      -1.00713492
C        4.67204310      -1.14629641      -0.02687488
H        2.25456960      -0.65721024      -1.16498068
H        3.13272203      -0.18194777       1.04647650
H        3.26510873      -1.96311227       1.28126237
H        0.74966230      -1.82316381       0.96538780
H        0.29249065      -1.38800483      -1.18990200
H        4.51436534       0.87999781      -0.31742158
H        6.01714392       0.11196196      -0.85850808
H        2.94437402      -3.63147910      -2.43392375
O        2.88994121       1.97944971      -0.52809881
H        2.18596942       1.54256522      -0.94920659
H        2.66175737       2.71855565      -0.21385339
44
Properties=species:S:1:pos:R:3 reactant=T mapped=T (centered)=T charge=0 spin=1 pbc="F F F"
O       -3.06602821       0.74902044      -1.47973695
O       -3.24570545       0.61402329       2.05963821
O       -1.88830315      -1.76538617      -0.88679875
O       -5.37553644       2.34599029       1.68042100
O       -0.13843420       0.16121599      -1.45157496
O        0.77027869       1.95720155       0.75184422
C       -3.07220701       0.08141828      -0.23567685
C       -3.49367931       1.11627074       0.77824173
C       -1.74152384      -0.63670252      -0.03337917
C       -4.97030686       1.45729183       0.64238070
C       -0.40931516       0.11330737      -0.22379608
C       -0.27333758       1.25252339       0.55241153
H       -3.85081773      -0.70280742      -0.22163832
H       -2.92142704       2.02503274       0.60865014
H       -1.72822725      -1.02049176       0.97621749
H       -5.17780200       1.86703022      -0.34624174
H       -5.56355202       0.54985028       0.77732134
H       -2.69589634       0.15555016      -2.12794752
H       -3.82433345       1.11490449       2.67106641
H       -0.83116232       2.02197547       0.74514214
H       -0.59884732       0.96480451       1.53468065
H       -1.15054093      -1.97396492      -1.40736649
H        1.41229513       1.95971265       1.36724045
H       -5.10785043       3.23963306       1.44894316
O        2.80601264      -2.64884484      -2.18588345
O        1.42906269      -3.50626256      -0.69252379
O        5.30783908      -2.24128314      -0.16763923
N        0.93911453      -0.92477250       0.32702711
N        5.12567296       0.00651917      -0.39076296
C        2.13363070      -1.23210399      -0.36682296
C        3.28039564      -1.17625008       0.58719803
C        2.09182409      -2.58559543      -1.06190371
C        4.66984768      -1.20513846      -0.01992213
H        2.29788168      -0.58156979      -1.14989439
H        3.16343438      -0.25245256       1.10613746
H        3.23077473      -2.05353524       1.22643766
H        0.72630459      -1.72063324       0.92492726
H        0.32754081      -1.09736195      -1.45558740
H        4.56768379       0.83289887      -0.20962181
H        6.05594123       0.05368857      -0.78126372
H        2.82064110      -3.55676744      -2.51056008
O        2.95035362       1.96183984      -0.37654395
H        2.24479580       1.52556065      -0.80504755
H        2.77350849       2.75466019      -0.17779277
44
Properties=species:S:1:pos:R:3 reactant=T mapped=T (centered)=T charge=0 spin=1 pbc="F F F"
O       -3.06902949       0.65246434      -1.46843620
O       -3.21952812       0.65121779       2.07335449
O       -1.84491415      -1.82638172      -0.76753971
O       -5.39056185       2.32152537       1.64398660
O       -0.16815828       0.15968451      -1.48453027
O        0.76686584       1.98071601       0.71291069
C       -3.04895921       0.03517115      -0.19934459
C       -3.48736628       1.10086017       0.77556274
C       -1.70559179      -0.65436057       0.01963691
C       -4.97296557       1.39725867       0.64272460
C       -0.38351216       0.09877390      -0.22602055
C       -0.27919999       1.30484086       0.45250208
H       -3.81272150      -0.76396650      -0.15104800
H       -2.93828831       2.01563848       0.56949237
H       -1.67624345      -0.98248277       1.04803165
H       -5.20095974       1.75761751      -0.36006675
H       -5.54217521       0.48206542       0.82375686
H       -2.68709048       0.03852231      -2.09304372
H       -3.80010436       1.16806163       2.67051934
H       -0.80679299       2.09956686       0.55822882
H       -0.67480700       1.11919956       1.43340837
H       -1.07626440      -2.09120793      -1.20235457
H        1.42075212       1.94347553       1.31829186
H       -5.14393184       3.20984873       1.37220283
O        2.71778332      -2.57339799      -2.23311558
O        1.31571049      -3.41000431      -0.75150085
O        5.27966353      -2.30156341      -0.22067246
N        0.94523298      -0.82270128       0.31454829
N        5.14518101      -0.04512523      -0.34024418
C        2.12012065      -1.17722993      -0.37384498
C        3.27227637      -1.22452001       0.58309742
C        2.00337829      -2.50269106      -1.10961782
C        4.65886057      -1.26102215      -0.02913183
H        2.32724366      -0.51265534      -1.12971964
H        3.18868226      -0.33065468       1.16060572
H        3.19946484      -2.14196374       1.16351208
H        0.70962148      -1.62221602       0.90864050
H        0.33977042      -0.81983913      -1.66440776
H        4.60565970       0.78154271      -0.11217755
H        6.07924200      -0.00113416      -0.72354061
H        2.67924643      -3.46938514      -2.58955675
O        2.99152294       1.93988724      -0.21379580
H        2.28837540       1.50103480      -0.65441066
H        2.87451188       2.77552951      -0.14689339
44
Properties=species:S:1:pos:R:3 reactant=T mapped=T (centered)=T charge=0 spin=1 pbc="F F F"
O       -3.08009714       0.54776286      -1.45019311
O       -3.18393773       0.69558980       2.08981252
O       -1.79641034      -1.88284101      -0.63889673
O       -5.40597074       2.28978280       1.61678503
O       -0.21679256       0.10353686      -1.50579835
O        0.75145269       2.03068230       0.60333584
C       -3.02629693      -0.01318108      -0.15619919
C       -3.48204082       1.08496806       0.77462520
C       -1.66694532      -0.66968338       0.07989933
C       -4.97687659       1.32815572       0.65636047
C       -0.35598004       0.08418354      -0.23361786
C       -0.28826425       1.36249055       0.31351768
H       -3.76957109      -0.82802994      -0.06421991
H       -2.96277216       2.00623884       0.51953765
H       -1.61270140      -0.93070837       1.12623872
H       -5.23279610       1.63125928      -0.35836388
H       -5.51700289       0.40652059       0.89239999
H       -2.68741529      -0.08292947      -2.05161532
H       -3.76364088       1.23039091       2.67078281
H       -0.77457344       2.17906306       0.31723325
H       -0.77349804       1.31539104       1.25911685
H       -1.00939876      -2.15989694      -1.04222994
H        1.39730077       1.94759290       1.24272384
H       -5.18733062       3.16991589       1.29819761
O        2.62957407      -2.48064456      -2.29125042
O        1.21633236      -3.30909202      -0.81641984
O        5.24601890      -2.36767939      -0.27606284
N        0.95528188      -0.71867541       0.31644992
N        5.16401280      -0.10890377      -0.28861272
C        2.10937215      -1.11947662      -0.38188390
C        3.26041178      -1.27701888       0.57768829
C        1.92158209      -2.40941543      -1.16445314
C        4.64622515      -1.32444716      -0.03600813
H        2.35447975      -0.43864221      -1.11389054
H        3.20568152      -0.42136213       1.22101760
H        3.16011012      -2.23205851       1.09356060
H        0.69689122      -1.51994904       0.90367757
H        0.36850908      -0.54814579      -1.82790835
H        4.64650558       0.71538313      -0.01161268
H        6.10091063      -0.07047263      -0.66752022
H        2.54500980      -3.35849621      -2.68124677
O        3.03927668       1.91147876      -0.00026338
H        2.35162936       1.45328959      -0.45283318
H        3.00374477       2.77807349      -0.06186034
44
Properties=species:S:1:pos:R:3 reactant=T mapped=T (centered)=T charge=0 spin=1 pbc="F F F"
O       -3.07488001       0.43915995      -1.43142874
O       -3.14423103       0.75043850       2.09883547
O       -1.74038161      -1.93748029      -0.49735863
O       -5.41027457       2.26990891       1.57560641
O       -0.25122719       0.01342094      -1.52311457
O        0.73578733       2.06870224       0.49926097
C       -2.99476694      -0.05893977      -0.11327191
C       -3.46842542       1.07369637       0.76729950
C       -1.62351634      -0.68487632       0.14726889
C       -4.96918789       1.26905032       0.66175911
C       -0.32578656       0.06385742      -0.23715961
C       -0.29541386       1.40237126       0.17959107
H       -3.71934810      -0.88421804       0.02340344
H       -2.97695038       1.99652860       0.46012399
H       -1.54863822      -0.87385845       1.20791291
H       -5.24761056       1.51101134      -0.36329148
H       -5.48245910       0.34718743       0.95447638
H       -2.66858849      -0.20930484      -2.00564735
H       -3.72317021       1.30643209       2.65896339
H       -0.73507829       2.22835268       0.07886252
H       -0.87246466       1.48543737       1.05966946
H       -0.93505847      -2.22685173      -0.86697948
H        1.36504671       1.94491889       1.17868306
H       -5.21646852       3.13709027       1.20880052
O        2.53178978      -2.37450743      -2.35079812
O        1.12548912      -3.21228654      -0.87380549
O        5.21279991      -2.41206490      -0.35624444
N        0.96449316      -0.62845353       0.33174226
N        5.16720250      -0.15804240      -0.24990589
C        2.09703600      -1.06639842      -0.38545000
C        3.24724787      -1.33114069       0.56506665
C        1.83920371      -2.31367120      -1.21511968
C        4.62768740      -1.37474872      -0.05987323
H        2.37313744      -0.36562327      -1.09270740
H        3.21835973      -0.52345815       1.27618043
H        3.12608001      -2.32057522       1.01015086
H        0.68785777      -1.43161681       0.91096299
H        0.38367875      -0.25702002      -1.95330308
H        4.66629514       0.65502519       0.08123411
H        6.10429190      -0.11641003      -0.62950055
H        2.40379589      -3.23091181      -2.77498547
O        3.05293083       1.87555686       0.23143679
H        2.38447150       1.39360005      -0.23199186
H        3.10924394       2.76071189       0.04464583
44
Properties=species:S:1:pos:R:3 reactant=T mapped=T (centered)=T charge=0 spin=1 pbc="F F F"
O       -3.08646438       0.35193951      -1.41445679
O       -3.10514497       0.80837277       2.10362832
O       -1.70359855      -1.96727685      -0.38758977
O       -5.42386253       2.24309986       1.56038269
O       -0.26410945      -0.08200034      -1.54299744
O        0.73313109       2.15797325       0.11920378
C       -2.97988887      -0.09242207      -0.07922096
C       -3.46599075       1.06461862       0.76372293
C       -1.59357702      -0.68318234       0.19551187
C       -4.97285583       1.21565584       0.68116159
C       -0.30897759       0.06180187      -0.24716766
C       -0.30914161       1.43193495       0.05660368
H       -3.68415270      -0.92566363       0.10118148
H       -3.00842512       1.98701694       0.40458324
H       -1.49712643      -0.81004113       1.26555059
H       -5.27665652       1.40532900      -0.34817871
H       -5.45618029       0.29471073       1.02449451
H       -2.66943902      -0.30730925      -1.96842707
H       -3.68706612       1.37234569       2.65020553
H       -0.74205015       2.26621669      -0.03319931
H       -0.94140913       1.59082815       0.86802137
H       -0.89115803      -2.26165836      -0.74342634
H        1.30211048       2.14990683       0.85769207
H       -5.25988360       3.09831317       1.15295375
O        2.46966514      -2.30010251      -2.39816987
O        1.07917108      -3.15168828      -0.91268875
O        5.18703874      -2.45418850      -0.43054882
N        0.97282966      -0.56023344       0.34201722
N        5.17303200      -0.20554728      -0.25110975
C        2.09118466      -1.02641534      -0.39461233
C        3.23980309      -1.37773776       0.53896403
C        1.79265146      -2.24725421      -1.25342475
C        4.61742924      -1.42012336      -0.09573934
H        2.38804334      -0.30154336      -1.07279057
H        3.22803739      -0.62084871       1.30461933
H        3.10382590      -2.38670946       0.93979700
H        0.69121150      -1.35987839       0.92198805
H        0.38334792      -0.07392429      -2.00311881
H        4.69053773       0.59892893       0.11077157
H        6.11178388      -0.16904463      -0.63509799
H        2.31049380      -3.13973021      -2.84435627
O        3.08225236       1.81133593       0.53894854
H        2.43370937       1.30479041       0.13571014
H        3.24586886       2.70940457       0.41860805
44
Properties=species:S:1:pos:R:3 reactant=T mapped=T (centered)=T charge=0 spin=1 pbc="F F F"
O       -3.09491457       0.29309327      -1.39972903
O       -3.05024452       0.87078987       2.10246235
O       -1.68693465      -1.99097963      -0.31719134
O       -5.39628852       2.26330670       1.55670549
O       -0.27029283      -0.16395309      -1.56809276
O        0.75421224       2.15507065      -0.24212779
C       -2.96600737      -0.10745698      -0.05312038
C       -3.44330629       1.07445357       0.76148012
C       -1.57576416      -0.68676275       0.22334297
C       -4.95321345       1.21064699       0.70365397
C       -0.30230935       0.04356208      -0.26471457
C       -0.30758811       1.43228839      -0.02689097
H       -3.66308993      -0.93774746       0.16462085
H       -3.00149117       1.98781798       0.36199698
H       -1.46308738      -0.77006999       1.29754074
H       -5.27766022       1.36322723      -0.32577846
H       -5.42231674       0.29845525       1.08748226
H       -2.67986234      -0.37979109      -1.93926621
H       -3.63206268       1.44102077       2.64243560
H       -0.73249574       2.27184690      -0.12079412
H       -0.95255926       1.63786017       0.74801212
H       -0.87235608      -2.29656563      -0.66869737
H        1.31320041       2.28618247       0.44067577
H       -5.24681828       3.10553280       1.11794461
O        2.44408348      -2.26543574      -2.42749448
O        1.05955810      -3.13428301      -0.93948238
O        5.19593774      -2.41545683      -0.50472012
N        0.96924544      -0.54921898       0.34494685
N        5.14453788      -0.17244364      -0.25295829
C        2.08667141      -1.01652568      -0.40680258
C        3.23813681      -1.41185271       0.51216311
C        1.77352611      -2.22573417      -1.27848223
C        4.61333565      -1.40372223      -0.13158409
H        2.39114557      -0.26400111      -1.06079992
H        3.22485856      -0.70721181       1.32470212
H        3.11007840      -2.43630723       0.87621750
H        0.68988885      -1.34584030       0.92589267
H        0.36783484      -0.02143421      -2.03893788
H        4.65288462       0.61434871       0.12771015
H        6.07482037      -0.10164661      -0.64925899
H        2.27278032      -3.09885427      -2.88409867
O        3.02387507       1.74018406       0.76503093
H        2.37213656       1.19770049       0.49260294
H        3.21791524       2.61590677       0.92340252
44
Properties=species:S:1:pos:R:3 reactant=T mapped=T (centered)=T charge=0 spin=1 pbc="F F F"
O       -3.09438926       0.25158086      -1.38094393
O       -2.95912206       0.94560202       2.09984571
O       -1.68107009      -2.02221150      -0.25829137
O       -5.31328212       2.33379442       1.56527419
O       -0.27964214      -0.27595024      -1.60542215
O        0.79638356       2.07268380      -0.57197580
C       -2.94242590      -0.10848320      -0.02591183
C       -3.38725936       1.10497397       0.76252513
C       -1.55941127      -0.70137082       0.24447158
C       -4.89825370       1.25121818       0.73621644
C       -0.29885688      -0.00090456      -0.29668713
C       -0.28146300       1.41095519      -0.11632550
H       -3.64390267      -0.92487889       0.22997611
H       -2.94741184       2.00153646       0.32421784
H       -1.43067817      -0.74669630       1.32068874
H       -5.24467493       1.37412814      -0.29007993
H       -5.36546507       0.35609357       1.15997220
H       -2.69464866      -0.44324222      -1.90680766
H       -3.53288699       1.52653268       2.63776462
H       -0.66774906       2.26103764      -0.19610650
H       -0.93328241       1.66202845       0.62401884
H       -0.86228598      -2.35026233      -0.60306630
H        1.47518443       2.24935542      -0.10514853
H       -5.16702787       3.16028260       1.09684797
O        2.43821026      -2.25429548      -2.44934826
O        1.04728582      -3.14193718      -0.96340241
O        5.23551630      -2.27273649      -0.59247567
N        0.95400917      -0.58409096       0.33900154
N        5.07336556      -0.04784959      -0.22465307
C        2.08041318      -1.03017921      -0.42463736
C        3.24223277      -1.43341969       0.48144173
C        1.76552796      -2.23416106      -1.30035960
C        4.61081043      -1.31433626      -0.16660862
H        2.38504749      -0.25117622      -1.06155265
H        3.20827384      -0.78839122       1.33966124
H        3.14685096      -2.47581250       0.79944675
H        0.67972209      -1.37936506       0.92049329
H        0.33509309      -0.02025164      -2.09403849
H        4.54456123       0.70375964       0.18383616
H        5.97393205       0.11119073      -0.64749175
H        2.26384768      -3.08746752      -2.91046440
O        2.87397144       1.70017476       0.89621437
H        2.17896457       1.06570768       0.86368980
H        2.87598560       2.34683393       1.56619463
44
Properties=species:S:1:pos:R:3 reactant=T mapped=T (centered)=T charge=0 spin=1 pbc="F F F"
O       -3.09074253       0.22621131      -1.37396078
O       -2.91797659       0.98105249       2.09421063
O       -1.66474275      -2.03126267      -0.21892896
O       -5.29568020       2.33692027       1.57176237
O       -0.26954560      -0.32508734      -1.62894372
O        0.84174063       2.03589726      -0.70715881
C       -2.92873487      -0.11411670      -0.01519049
C       -3.37088299       1.11010122       0.76121234
C       -1.54276382      -0.69982730       0.25745326
C       -4.88282178       1.24475736       0.75385196
C       -0.28922733      -0.01131704      -0.31303727
C       -0.26046763       1.41446339      -0.18337806
H       -3.62419238      -0.92831769       0.25912249
H       -2.94439794       2.00535851       0.30466995
H       -1.40649795      -0.71661379       1.33533306
H       -5.24311140       1.34833092      -0.27025343
H       -5.33849130       0.35365490       1.19919978
H       -2.68721244      -0.47338820      -1.89227274
H       -3.48915280       1.56455406       2.63028353
H       -0.55050036       2.31007910      -0.05332702
H       -1.03383449       1.69471632       0.34646376
H       -0.84098626      -2.36798936      -0.55172797
H        1.53339232       2.19913012      -0.20555860
H       -5.16320978       3.15686612       1.08804216
O        2.41905116      -2.23804111      -2.46012062
O        1.02595690      -3.12686736      -0.97104072
O        5.23733038      -2.23523937      -0.62004517
N        0.94974579      -0.57688762       0.34490988
N        5.04845005      -0.01932131      -0.20786015
C        2.07652649      -1.02619590      -0.43025107
C        3.23953386      -1.44686184       0.47633860
C        1.74913128      -2.22341109      -1.30952879
C        4.60393686      -1.29472288      -0.17283001
H        2.38748719      -0.23700223      -1.06531308
H        3.19908565      -0.82407727       1.35514617
H        3.14695491      -2.49470211       0.76941303
H        0.67344536      -1.36816953       0.92680548
H        0.31544775       0.04420085      -2.12308934
H        4.51236999       0.71889515       0.21614540
H        5.94038935       0.16380844      -0.63754190
H        2.23437975      -3.06691893      -2.92449796
O        2.80501331       1.65805732       0.98801017
H        2.11016090       1.00633152       0.96368788
H        2.78564329       2.27295204       1.69379474
44
Properties=species:S:1:pos:R:3 reactant=T mapped=T (centered)=T charge=0 spin=1 pbc="F F F"
O       -3.10849261       0.16032769      -1.37281675
O       -2.83211306       1.04652303       2.06929070
O       -1.64891064      -2.05134545      -0.17128745
O       -5.22556669       2.38173873       1.57387672
O       -0.25847981      -0.38707016      -1.66508403
O        0.83508414       2.01935532      -0.79408283
C       -2.91348779      -0.12486451      -0.00386607
C       -3.32628407       1.12600676       0.74951664
C       -1.52820445      -0.70468506       0.27025857
C       -4.83923677       1.26298009       0.77903609
C       -0.28652838      -0.03637116      -0.33527883
C       -0.26609632       1.41813472      -0.23261151
H       -3.60273573      -0.92781713       0.31092618
H       -2.91549627       2.00717092       0.25845959
H       -1.38292490      -0.68398607       1.34791301
H       -5.23074601       1.33083123      -0.23689650
H       -5.27744648       0.38866364       1.26825920
H       -2.69508109      -0.54616395      -1.87732284
H       -3.38606732       1.64189755       2.60391419
H       -0.44908055       2.04314236       0.52090829
H       -1.13943247       1.82985945      -0.44291745
H       -0.81978082      -2.39685006      -0.49880259
H        1.54496987       2.14718128      -0.25666515
H       -5.10570168       3.18476265       1.05911567
O        2.40278397      -2.21140728      -2.47489755
O        1.00988850      -3.11360763      -0.98540127
O        5.24300441      -2.16539347      -0.65582235
N        0.93772683      -0.58292243       0.35141250
N        5.00638832       0.03692904      -0.18893179
C        2.06840673      -1.01965768      -0.43770897
C        3.23515552      -1.45276281       0.46650502
C        1.73447062      -2.20910538      -1.32302826
C        4.59353870      -1.25180541      -0.18198393
H        2.37886621      -0.21183783      -1.06624396
H        3.18506263      -0.86121442       1.36991982
H        3.15436862      -2.50829777       0.72944347
H        0.66268694      -1.37271098       0.93164493
H        0.29106044       0.10446057      -2.15576470
H        4.45671956       0.75436056       0.25419561
H        5.88843036       0.25392723      -0.62181623
H        2.21398920      -3.03852177      -2.94289862
O        2.70764094       1.61159773       1.09089335
H        2.02310185       0.93216719       1.07055428
H        2.66454950       2.17638066       1.84608582
44
Properties=species:S:1:pos:R:3 product=T mapped+aligned=T onto=T reactant=T charge=0 spin=1 pbc="F F F"
O       -3.09737135       0.11683514      -1.36675771
O       -2.69513111       1.09434243       2.06294797
O       -1.63143427      -2.09798850      -0.12703630
O       -5.06256197       2.47888028       1.58777989
O       -0.23958825      -0.50078426      -1.73503472
O        0.84270621       1.93708841      -1.01982390
C       -2.88187063      -0.13868120       0.00949626
C       -3.23109666       1.14746540       0.75090580
C       -1.50779732      -0.74622236       0.29044172
C       -4.73717935       1.32390794       0.81768247
C       -0.28339420      -0.09863585      -0.37764230
C       -0.29862058       1.42680285      -0.34885487
H       -3.57584065      -0.91514248       0.36115250
H       -2.81593255       2.00526763       0.20836282
H       -1.35116101      -0.69145996       1.37377751
H       -5.15914712       1.36892425      -0.18840461
H       -5.17470149       0.47724936       1.34862749
H       -2.69269834      -0.60982195      -1.85825023
H       -3.20679813       1.72272060       2.58942897
H       -0.37207256       1.78641893       0.68096912
H       -1.16441363       1.76292586      -0.91469703
H       -0.78127811      -2.45851643      -0.42631916
H        1.55686721       2.03504400      -0.37112480
H       -4.93325958       3.26069096       1.04177385
O        2.38159197      -2.17022232      -2.49269961
O        0.98203414      -3.09535447      -1.00747056
O        5.25344578      -2.00517102      -0.69642242
N        0.91095857      -0.60427529       0.36649267
N        4.90984125       0.16427380      -0.13413342
C        2.04978055      -1.01152022      -0.44933612
C        3.22186988      -1.44805803       0.46031566
C        1.71242131      -2.19359766      -1.34147640
C        4.56755535      -1.14873288      -0.17892883
H        2.35628913      -0.17257388      -1.07239457
H        3.14780756      -0.90800487       1.40342705
H        3.17074122      -2.51569904       0.66765167
H        0.63971226      -1.39820998       0.93935654
H        0.22133372       0.19889214      -2.22007647
H        4.32376034       0.84046275       0.33164415
H        5.76912067       0.45039333      -0.56971062
H        2.19093067      -2.99491875      -2.96560271
O        2.47978038       1.53300654       1.24774376
H        1.82983935       0.78899056       1.24226542
H        2.37496137       2.00300825       2.07995405
