44
Properties=species:S:1:pos:R:3:forces:R:3 reactant=T mapped=T (centered)=T charge=0 spin=1 energy=-34182.82975545973 stress="0.6527050613733468 -0.4029528507758596 -0.1096469464337558 -0.4029528507758596 0.10137709006476102 0.17756111130145374 -0.1096469464337558 0.17756111130145374 0.026646955643131895" free_energy=-34182.82975545973 pbc="F F F"
O       -3.27847865       0.44109168      -1.53381928       0.02518702      -0.00758084      -0.00918967
O       -2.82060594       0.60460876       2.06689725      -0.00581304      -0.01439740      -0.00503916
O       -1.90081123      -1.88693009      -1.14858994       0.01924411      -0.01658102       0.02424305
O       -4.93713523       2.36108458       1.99162797      -0.00285879      -0.00626834      -0.01245521
O       -0.13044938       0.00048588      -1.81724667       0.00559968       0.00374351       0.01112478
O        1.04683332       1.54796407       0.61151018       0.00124561       0.01592289      -0.00432105
C       -3.07231449      -0.05783661      -0.21087709       0.00784921      -0.00539059      -0.00616755
C       -3.28339519       1.05894704       0.80870705       0.00044348      -0.00781527      -0.00503788
C       -1.75164162      -0.84979954      -0.18832264       0.00730919      -0.00257947       0.01105672
C       -4.75433185       1.43200700       0.92875479       0.00049259      -0.00653900      -0.01133251
C       -0.36351648      -0.17689628      -0.43243309       0.00347503       0.00143650       0.01094335
C       -0.27447625       1.20561706       0.21497723       0.00056965       0.00235239       0.00814277
H       -3.81797574      -0.83243802       0.00793211       0.00614045      -0.00593744      -0.01405286
H       -2.73285295       1.95066150       0.48335194       0.00298770      -0.00688593       0.00148076
H       -1.69950627      -1.32266264       0.79308536       0.00408810       0.00912745       0.01669863
H       -5.13872887       1.82836640      -0.01460291       0.00471887      -0.00547428      -0.01276914
H       -5.32930283       0.54608534       1.20505003      -0.00301164      -0.00514189      -0.01439383
H       -4.20358318       0.33236931      -1.77157077       0.02091046       0.02533217      -0.00761617
H       -3.22214089       1.17838950       2.73368766      -0.00583413      -0.01729828      -0.00288074
H       -0.60357088       1.95962955      -0.49786064      -0.00847517      -0.00402385       0.00608784
H       -0.90284957       1.22021493       1.10212792       0.00530440      -0.00019670       0.01198890
H       -2.29768939      -1.46508339      -1.92469405       0.00646430      -0.03470029       0.02067902
H        1.29608425       0.87673369       1.25968597       0.01495379       0.03090775       0.00570321
H       -4.72250643       3.24608072       1.68044326       0.01541148      -0.00906032      -0.00807334
O        3.25346733      -2.20269224      -1.99100734      -0.01863665       0.00867515      -0.00210572
O        1.62444212      -3.37396076      -0.98827495      -0.03738141       0.02446849      -0.01798446
O        4.98006621      -2.36730797       0.49894214      -0.00065174      -0.00597662       0.00399491
N        0.61711228      -1.06832833       0.19762326       0.00276062       0.00839022       0.01698962
N        5.09704625      -0.15602089       0.02518467      -0.00491786      -0.00850965      -0.00818743
C        1.98455585      -1.08208358      -0.32672024      -0.00296113       0.00731004       0.00794538
C        2.99876203      -1.06869925       0.84213336      -0.00028834      -0.00559383       0.00367036
C        2.23556070      -2.34813970      -1.13157939      -0.02125526       0.01332262      -0.00458057
C        4.45269512      -1.27124333       0.43430130      -0.00231017      -0.00722097      -0.00013552
H        2.15551292      -0.22883219      -0.98050566      -0.00546007       0.01126768       0.01243433
H        2.91247634      -0.11870829       1.37067355       0.00328065      -0.00924809       0.01098931
H        2.74232623      -1.87323306       1.52954357      -0.00296606      -0.00747667       0.00030254
H        0.27671037      -2.02584514       0.19160015       0.00399631       0.00838817       0.01993947
H       -0.22178544      -0.87028738      -2.22748527      -0.01244058       0.01208308      -0.00279887
H        4.60730733       0.71688854      -0.13628739      -0.00438257      -0.00800992      -0.00565940
H        6.02941503      -0.27194679      -0.33371264      -0.00763106      -0.00937239      -0.01472862
H        3.48410526      -3.08341772      -2.32413145      -0.03542482       0.01040276      -0.01731923
O        3.45781263       2.24774591      -0.51706289       0.00545742       0.00532557      -0.00348281
H        2.53726276       2.10078427      -0.22912449       0.00293169       0.01408134      -0.00746602
H        3.67009494       3.14663736      -0.25193320       0.01187871       0.00474146      -0.00663690
