44
Properties=species:S:1:pos:R:3:forces:R:3 reactant=T mapped=T (centered)=T charge=0 spin=1 energy=-34183.13667773158 free_energy=-34183.13667773158 stress="-0.4920049596591848 0.0956767245677301 0.0015032613201378525 0.0956767245677301 -0.3524775393004229 0.001887410237328115 0.0015032613201378525 0.001887410237328115 -0.06433593907076507" pbc="F F F"
O       -3.15211495       1.11521316      -1.58332098      -0.00611641      -0.00800757       0.00508529
O       -3.25594068       0.58244203       1.95586931      -0.00789741       0.00702094      -0.00349004
O       -1.63367160      -1.17537915      -1.47504931      -0.00155345       0.00699754       0.00265424
O       -5.18317732       2.53659166       1.82015871       0.00032399       0.00027138      -0.00643664
O        0.07501831       0.77833804      -1.13232013      -0.00545274      -0.00031238      -0.03666987
O        0.82908213       1.94232408       1.13034248      -0.00940759       0.00306509       0.00681037
C       -3.11555873       0.33903964      -0.40464810      -0.00730013      -0.00269733       0.00392321
C       -3.43428084       1.28369093       0.73743074      -0.00782140       0.00098980      -0.00106701
C       -1.77823751      -0.41685283      -0.28832106      -0.00867811       0.00048461       0.00117565
C       -4.85973290       1.80115617       0.64263101      -0.00045041      -0.00060528       0.00298200
C       -0.56871027       0.49470980      -0.14793482      -0.02109725      -0.00569538       0.01331097
C       -0.18277425       0.95736731       1.23071667      -0.00363693       0.00179070      -0.01147572
H       -3.88547075      -0.44329615      -0.43023345      -0.00736303       0.00250211      -0.00655255
H       -2.74887330       2.14408485       0.67981056      -0.00116035      -0.00742628       0.00745255
H       -1.81936490      -1.08313164       0.57485979      -0.01570287      -0.00447713      -0.00374665
H       -4.99349038       2.39361167      -0.26313013       0.00215112      -0.00223487       0.01091343
H       -5.54754538       0.95425619       0.61593089      -0.00342136       0.00538446      -0.00332624
H       -2.94555847       0.52365476      -2.31705626      -0.00034747       0.00476229      -0.00250847
H       -3.79582665       1.04038161       2.61493954       0.00190890       0.00506647       0.00420026
H       -1.05978286       1.31498977       1.77271197       0.00390580      -0.00001627      -0.00599102
H        0.17176274       0.05039816       1.73481267       0.00060123       0.01405332      -0.00551170
H       -0.92560897      -0.73894166      -1.97722709      -0.00207358       0.01255101       0.00718466
H        1.15774133       2.14327442       2.01137232      -0.00808433       0.00153880       0.00347905
H       -4.84535874       3.43311067       1.73054409      -0.00495056       0.00138777       0.00286917
O        3.49317285      -3.03627400      -1.90449746      -0.00936506      -0.01424516      -0.00235172
O        2.66563685      -4.15137557      -0.14037847       0.01159744      -0.02764988      -0.00235864
O        5.15699102      -1.79346764       0.22037091       0.03296276      -0.00677674       0.01164697
N        0.77513916      -2.08905087       0.23581941       0.00967652      -0.01057422       0.00443688
N        4.69250216       0.22738427      -0.68863120       0.00701351      -0.00004345       0.00883983
C        2.03874593      -1.84566957      -0.44737835       0.00795964      -0.00901141       0.00656927
C        2.92728088      -0.98259611       0.46356629       0.01293999      -0.00738965       0.00501469
C        2.75530087      -3.14415807      -0.78881319      -0.00261775       0.01352363      -0.01431088
C        4.37007723      -0.89030849      -0.00731277      -0.00555753       0.01794836       0.00245951
H        1.84845146      -1.30160129      -1.37467066       0.00054233      -0.01268321       0.00548606
H        2.46396300       0.00068495       0.54214828       0.01367853      -0.00351633       0.00783132
H        2.95085677      -1.45067527       1.44913976       0.00624765      -0.00227441       0.00856966
H        0.94021826      -2.78670035       0.95620843       0.00021826      -0.01636965       0.00115350
H        0.10516023      -2.49830966      -0.40824542       0.00532238       0.00173155       0.00269799
H        4.02046010       0.96812304      -0.86442204      -0.00129660      -0.00584144      -0.00668210
H        5.63336210       0.30225140      -1.03606821      -0.00426396       0.00518243      -0.00012138
H        4.03045616      -3.83985855      -1.97265697      -0.00727945      -0.01007800      -0.00819614
O        2.60129246       2.21721965      -1.15369021       0.00207525       0.04326752      -0.01224258
H        2.05833195       1.93461812      -1.89733377       0.01255804       0.00537341      -0.00504893
H        1.97007551       2.18873051      -0.41604479       0.02121226       0.00303287       0.00134139
44
Properties=species:S:1:pos:R:3:forces:R:3 reactant=T mapped=T (centered)=T charge=0 spin=1 energy=-34183.13396974233 free_energy=-34183.13396974233 stress="0.1383816284379067 0.003279657594797345 -0.002983417630096506 0.003279657594797345 -0.05874882838078772 -0.015406427143554063 -0.002983417630096506 -0.015406427143554063 -0.009061175128507919" pbc="F F F"
O       -3.16162576       1.14080197      -1.60679219       0.00045836      -0.00050349       0.00026978
O       -3.29549113       0.60112671       1.92788002       0.00082566       0.00038725       0.00060640
O       -1.55255407      -1.11611475      -1.43010492       0.00023797      -0.00056877       0.00045973
O       -5.41482330       2.35032966       1.76652609       0.00180438       0.00148175       0.00051358
O        0.09048901       0.87825475      -1.11164184      -0.00050335       0.00078662      -0.00148409
O        0.86681890       2.02250732       1.16078435       0.00041600       0.00187973      -0.00157278
C       -3.12382679       0.35673789      -0.43304190       0.00078742      -0.00008807       0.00063518
C       -3.54025726       1.27060424       0.70365780       0.00137982       0.00044923       0.00051985
C       -1.75620763      -0.33025227      -0.27037153       0.00077867      -0.00018518       0.00035508
C       -5.01090449       1.63904598       0.59965001       0.00157189       0.00144519       0.00039247
C       -0.57571972       0.62541923      -0.13367682       0.00082532       0.00001463      -0.00071259
C       -0.24684079       1.15349046       1.23478696       0.00219780      -0.00120614      -0.00048048
H       -3.84577778      -0.46824769      -0.49623578       0.00056870      -0.00003801       0.00126856
H       -2.94497696       2.19462253       0.64089255       0.00210700       0.00009117       0.00045822
H       -1.79249093      -0.97435217       0.60989151       0.00114043       0.00009618       0.00058679
H       -5.20006263       2.20457187      -0.31344319       0.00210325       0.00182026       0.00049695
H       -5.60816650       0.72582253       0.57920865       0.00096600       0.00180048       0.00003438
H       -2.92536367       0.56456477      -2.34348431       0.00018087      -0.00077840       0.00038683
H       -3.87099513       1.01568939       2.58536848       0.00067377       0.00056921       0.00044461
H       -1.12383303       1.64416035       1.66258449       0.00113212      -0.00416034       0.00244304
H       -0.03401505       0.26660596       1.84086433       0.00617078      -0.00241917      -0.00213410
H       -0.85259187      -0.66364966      -1.93014301      -0.00032722      -0.00034260      -0.00025355
H        1.11190109       2.28118516       2.05384693      -0.00315073       0.00926386      -0.00098326
H       -5.19407367       3.28050192       1.65926737       0.00228522       0.00137909       0.00074628
O        3.26180826      -2.99198439      -2.02837591       0.00061301      -0.00191791      -0.00022407
O        2.48495730      -4.15255290      -0.27257978       0.00296768      -0.00105005       0.00135432
O        5.32732303      -1.99035606       0.00878212      -0.00215038       0.00096136      -0.00051141
N        0.88191791      -1.92162258       0.42656613      -0.00143099      -0.00261725      -0.00194315
N        4.81521071       0.05347427      -0.82015517      -0.00049206       0.00281785       0.00268023
C        2.11090924      -1.77027897      -0.34142455      -0.00092552      -0.00168313      -0.00116402
C        3.17466506      -1.10499587       0.54552231      -0.00240423       0.00039805      -0.00065923
C        2.62918338      -3.10875267      -0.85000607       0.00118526      -0.00154911       0.00015841
C        4.54844361      -1.05946871      -0.10619674      -0.00171704       0.00143214       0.00053318
H        1.91583137      -1.12815487      -1.20261066      -0.00108534      -0.00257574      -0.00176764
H        2.81479182      -0.10654316       0.79674041      -0.00396888       0.00013630      -0.00154371
H        3.27848129      -1.69173296       1.45939999      -0.00260052       0.00121812      -0.00009423
H        1.04262986      -2.62602789       1.14132064      -0.00163878      -0.00297286      -0.00211130
H        0.15411888      -2.29701515      -0.17515360      -0.00109001      -0.00241067      -0.00262161
H        4.14590628       0.81056390      -0.91563078       0.00022169       0.00367643       0.00415544
H        5.69466698       0.09254262      -1.30622202       0.00057093       0.00403643       0.00435762
H        3.66492987      -3.85133948      -2.22403724       0.00215359      -0.00151457       0.00070411
O        2.75115675       2.13148061      -1.07021594      -0.00039962       0.00328705       0.00317358
H        2.11408960       1.86161646      -1.74117926       0.00455724       0.00284970      -0.01725705
H        2.19036798       2.18772165      -0.28081890      -0.01699615      -0.01369665       0.00978339
44
Properties=species:S:1:pos:R:3:forces:R:3 reactant=T mapped=T (centered)=T charge=0 spin=1 energy=-34183.09274613621 free_energy=-34183.09274613621 stress="0.4258352674943224 -0.045585074050706074 -0.020829368080683974 -0.045585074050706074 -0.10894730170863924 -0.014053849247273728 -0.020829368080683974 -0.014053849247273728 0.031955370251564905" pbc="F F F"
O       -3.08558362       1.25254695      -1.62413175       0.00235588      -0.00110703       0.00101924
O       -3.33960919       0.53551025       1.86801589       0.00173875       0.00009128       0.00090938
O       -1.48339171      -1.04001829      -1.46054051       0.00322232      -0.00069829       0.00190866
O       -5.56655223       2.16410269       1.71632426       0.00305960       0.00096061      -0.00076015
O        0.18342412       0.88685809      -1.00069878       0.00054164       0.00278743      -0.00083329
O        0.89047676       1.93341146       1.31983492      -0.00249536       0.01118608      -0.00124779
C       -3.10436292       0.39935699      -0.49882258       0.00302049      -0.00043119       0.00131092
C       -3.60569230       1.23463360       0.66516906       0.00304959       0.00009864       0.00062919
C       -1.74050255      -0.28144665      -0.29472698       0.00322604      -0.00001370       0.00146755
C       -5.09547848       1.50746680       0.54298090       0.00345855       0.00128609      -0.00057612
C       -0.56534613       0.66488180      -0.07406216       0.00264242       0.00091053       0.00008999
C       -0.34106582       1.24602949       1.29504727       0.00381642      -0.00069884       0.00042532
H       -3.80435938      -0.43173198      -0.65780827       0.00330295      -0.00047599       0.00204153
H       -3.07473783       2.19820464       0.65067995       0.00372599      -0.00046413       0.00089644
H       -1.81594528      -0.94484586       0.56916172       0.00374763       0.00052119       0.00180841
H       -5.30651118       2.07955659      -0.36179799       0.00462647       0.00182546      -0.00045877
H       -5.63009803       0.55734117       0.49271135       0.00283621       0.00181273      -0.00148103
H       -2.81207145       0.72256968      -2.38247297       0.00247323      -0.00133117       0.00140167
H       -3.94015405       0.89786371       2.53354853       0.00108225       0.00011474       0.00011652
H       -1.17540258       1.90962440       1.54197146      -0.00093742      -0.00952013       0.00670683
H       -0.37109391       0.41125787       1.99858936       0.01451811      -0.00372518      -0.00327272
H       -0.73656269      -0.60157551      -1.90180302       0.00180249       0.00033040       0.00082806
H        1.25558561       1.87083561       2.20606669       0.00098225       0.01200102       0.00019265
H       -5.40154924       3.10843644       1.63571856       0.00395104       0.00081885      -0.00010981
O        3.09925771      -3.02996616      -1.99182588      -0.00118299      -0.00389100      -0.00005853
O        2.33636930      -4.11366656      -0.18222140       0.00596728      -0.00257400       0.00335031
O        5.38660065      -2.05940564      -0.13489490      -0.00739489       0.00075076      -0.00132626
N        0.94868888      -1.77079593       0.58923620      -0.00411702      -0.00623221      -0.00310486
N        4.80504201      -0.09298095      -1.09548593      -0.00346524       0.00433580       0.00409606
C        2.12610556      -1.71050104      -0.26794202      -0.00385794      -0.00389874      -0.00208815
C        3.29609117      -1.09731610       0.51707992      -0.00697135       0.00116571      -0.00219885
C        2.52121393      -3.08854942      -0.78164347       0.00107562      -0.00327910       0.00069357
C        4.60475747      -1.13252807      -0.25877215      -0.00595774       0.00217588       0.00024788
H        1.90785283      -1.07516681      -1.12870734      -0.00526879      -0.00602432      -0.00316604
H        3.01546321      -0.07615711       0.77861129      -0.01013067       0.00098571      -0.00544019
H        3.45174834      -1.67840948       1.42707247      -0.00698838       0.00390891      -0.00059966
H        1.14462689      -2.41749755       1.34819195      -0.00353588      -0.00682147      -0.00398214
H        0.18611406      -2.19165876       0.06527658      -0.00344013      -0.00602415      -0.00382407
H        4.13611026       0.66438113      -1.18233892      -0.00106637       0.00656480       0.00645510
H        5.61924598      -0.12054755      -1.68483223      -0.00157374       0.00592699       0.00729099
H        3.42459964      -3.91915864      -2.19845585       0.00245499      -0.00286786       0.00181804
O        2.79698592       2.05677678      -1.13370111       0.00068267       0.00726330       0.00497940
H        1.88940682       1.77731044      -0.92119775       0.01043687       0.00806379      -0.02628722
H        2.97030343       2.79496748      -0.54240538      -0.02541392      -0.01580833       0.01013203
44
Properties=species:S:1:pos:R:3:forces:R:3 reactant=T mapped=T (centered)=T charge=0 spin=1 energy=-34183.266015540255 free_energy=-34183.266015540255 stress="-0.07298158054592445 0.028334305669187255 -0.055797340783377954 0.028334305669187255 0.06572474892486722 0.06980997649734902 -0.055797340783377954 0.06980997649734902 0.01988119120704701" pbc="F F F"
O       -3.24022643       1.33184733      -1.63129838      -0.00020909       0.00290739       0.00051226
O       -3.46321336       0.46180872       1.83237575      -0.00327190      -0.00486251      -0.00129751
O       -1.72307039      -1.00482985      -1.61651637      -0.00382728      -0.00045829      -0.00335439
O       -5.57022974       2.25150914       1.79585502       0.00104376       0.00107039       0.00089345
O        0.08405981       0.75158532      -1.08256392      -0.00024724      -0.00415247      -0.00278405
O        0.89450997       1.42115918       1.43172991       0.00161057      -0.01655504       0.00461008
C       -3.26234164       0.43846497      -0.53791254      -0.00130972       0.00075374      -0.00122388
C       -3.69010214       1.24406387       0.67438491      -0.00025761      -0.00114435       0.00051627
C       -1.91629987      -0.29245631      -0.41323001      -0.00200840      -0.00073560      -0.00297653
C       -5.15873979       1.62363647       0.58555588       0.00058588       0.00256320      -0.00007129
C       -0.71208058       0.60908573      -0.17697008      -0.00165606      -0.00132103      -0.00346515
C       -0.46985888       1.20151918       1.19730215      -0.00200799       0.00123017      -0.00427917
H       -3.99903202      -0.35835497      -0.70360546      -0.00224325       0.00198756      -0.00275511
H       -3.09452809       2.16797083       0.70744370       0.00190705      -0.00258949       0.00370184
H       -1.98291555      -0.98824724       0.42900968      -0.00161019      -0.00080192      -0.00284998
H       -5.34007567       2.25221105      -0.28746353       0.00277234       0.00483921       0.00103567
H       -5.75622131       0.71461387       0.49682776      -0.00139057       0.00402775      -0.00252578
H       -2.99761779       0.81886297      -2.41205803      -0.00104368       0.00415713      -0.00059224
H       -4.01248940       0.84123704       2.53174367      -0.00240603      -0.00475179      -0.00060244
H       -0.98535232       2.16303800       1.25764424       0.01117347       0.01123203      -0.01347435
H       -0.92542397       0.54736996       1.94490759      -0.01782193       0.01036652      -0.00293204
H       -0.92992120      -0.62324079      -2.02841066      -0.00238311      -0.00288792      -0.00267391
H        1.29306179       0.53311681       1.40653686      -0.00057349      -0.04033546      -0.02010191
H       -5.34701250       3.18644215       1.75683133       0.00293210       0.00080167       0.00290434
O        3.14285015      -2.97789170      -1.87774041      -0.00521891      -0.00058575       0.00292321
O        2.30477736      -3.98200859      -0.05395276       0.00207843       0.00249111       0.00732116
O        5.63484967      -2.00914625      -0.23614244       0.00107548       0.00073066      -0.00997472
N        1.20958633      -1.52560454       0.79114359       0.00579294       0.00480382       0.00791258
N        4.94113689      -0.06146944      -1.16702229       0.00024124       0.00414697      -0.00249845
C        2.33136322      -1.57269868      -0.14420813       0.00291907       0.00224846       0.00427455
C        3.59018182      -1.06315110       0.57074411       0.00553149       0.00155981       0.00013752
C        2.57743450      -2.98211696      -0.66264936      -0.00003860       0.00137242       0.00494931
C        4.83067915      -1.09819296      -0.30952400       0.00221259       0.00201083      -0.00465321
H        2.11139474      -0.92450368      -0.99410262       0.00088175       0.00142531       0.00439960
H        3.39370696      -0.04310555       0.90364364       0.00703981       0.00144824       0.00149994
H        3.78914257      -1.69426042       1.43744481       0.00865257       0.00114551      -0.00095427
H        1.39625061      -2.18458949       1.54274025       0.00754932       0.00588800       0.00832026
H        0.38167543      -1.89058793       0.32712663       0.00389880       0.00460935       0.01129870
H        4.23980888       0.66902230      -1.20997907       0.00119065       0.00515811       0.00237262
H        5.70963089      -0.06898526      -1.81494806      -0.00180019       0.00542099      -0.00494812
H        3.38202129      -3.89234255      -2.09265860      -0.00577593      -0.00071893       0.00298786
O        2.74005734       1.91979635      -0.98012605      -0.00256751       0.00191771       0.00810672
H        1.81921265       1.60824588      -0.98904309      -0.00015543      -0.00217572      -0.00309309
H        2.77936065       2.48117714      -0.19886661      -0.01126529      -0.00823749       0.01340386
44
Properties=species:S:1:pos:R:3:forces:R:3 reactant=T mapped=T (centered)=T charge=0 spin=1 energy=-34183.29889979013 free_energy=-34183.29889979013 stress="0.16683364046640672 0.08455682298577387 0.016266433655607843 0.08455682298577387 -0.019940516621303413 0.01916045313823347 0.016266433655607843 0.01916045313823347 -0.09208156737313018" pbc="F F F"
O       -3.40841485       1.04777928      -1.60860317       0.00407067       0.00361003      -0.00152162
O       -3.35340614       0.51008095       1.93568048      -0.00076925       0.00004097      -0.00090441
O       -1.72373566      -1.21493197      -1.43798292       0.00264699       0.00221293      -0.00373552
O       -5.45998737       2.26932779       1.87842279       0.00010369       0.00166210      -0.00114810
O       -0.02142263       0.73574766      -1.37637803       0.00739358       0.00225204       0.00663832
O        0.92492010       1.27728335       1.24909995       0.00132331      -0.00165015       0.00988623
C       -3.26327863       0.28941579      -0.42502976       0.00205253       0.00239198      -0.00171232
C       -3.63178915       1.20003118       0.73144575       0.00092540       0.00157061      -0.00084909
C       -1.85972952      -0.32855561      -0.34878263       0.00169371       0.00071327      -0.00093857
C       -5.10299478       1.58053197       0.68353375       0.00103078       0.00233190      -0.00191922
C       -0.72674389       0.68460293      -0.39146829       0.00331013       0.00067220       0.00453052
C       -0.41059722       1.51407445       0.84540629       0.00134571      -0.00228249       0.00799985
H       -3.95322164      -0.56390946      -0.42140368       0.00145578       0.00263712      -0.00349261
H       -3.03192248       2.12086064       0.66596788       0.00129851       0.00161997       0.00085669
H       -1.78230354      -0.87407910       0.59769507      -0.00001849      -0.00196830      -0.00131433
H       -5.32053292       2.16637016      -0.20993225       0.00186328       0.00339968      -0.00197872
H       -5.70685571       0.67160451       0.66521956       0.00064491       0.00226855      -0.00305188
H       -3.21993076       0.46114675      -2.35100896       0.00231081       0.00261264      -0.00147779
H       -3.88648250       0.93289758       2.62304503      -0.00131766      -0.00021192      -0.00090515
H       -0.50159248       2.57046505       0.58330038       0.00041442      -0.00124516       0.01078006
H       -1.11355928       1.28219977       1.64735317       0.00039250      -0.00602747       0.00633372
H       -1.01454792      -0.84835808      -1.99262816       0.00418115       0.00473732      -0.00211572
H        1.03915343       0.29895245       1.27030469       0.00209798      -0.00190573       0.00604221
H       -5.23820148       3.20059624       1.78353552       0.00121671       0.00191278       0.00010514
O        3.13209606      -2.68863595      -2.03606478      -0.00144421      -0.00326835       0.00064724
O        2.12032255      -3.89092696      -0.43320209       0.00627349      -0.00405130       0.00568602
O        5.58535686      -2.10251730      -0.14580392       0.00082057       0.00403052      -0.00205784
N        1.12869916      -1.52349285       0.71679703      -0.00046140      -0.00313511       0.00115946
N        5.04111310      -0.00321209      -0.80596001      -0.00124505       0.00382978      -0.00316521
C        2.30182060      -1.50334899      -0.15712489      -0.00097790      -0.00188781       0.00007521
C        3.54165652      -1.18087565       0.68725249       0.00000738       0.00272916      -0.00111064
C        2.49395630      -2.83424930      -0.86648190       0.00171740      -0.00304429       0.00237507
C        4.82865573      -1.14895926      -0.12564026      -0.00014881       0.00375130      -0.00212041
H        2.16618117      -0.72502089      -0.91004297      -0.00356100      -0.00288011      -0.00148710
H        3.37583702      -0.21988045       1.17703183      -0.00123486       0.00378253      -0.00313609
H        3.66527930      -1.95157740       1.44909857       0.00231576       0.00375681       0.00078471
H        1.28094139      -2.21356834       1.44721541       0.00078193      -0.00349788       0.00133105
H        0.33024725      -1.86984912       0.19034455      -0.00159570      -0.00350038       0.00200731
H        4.35959760       0.74813201      -0.81366446      -0.00196168       0.00357189      -0.00414953
H        5.84796849       0.04016535      -1.40422068      -0.00060509       0.00399405      -0.00250474
H        3.32216921      -3.57551196      -2.37784945       0.00172829      -0.00368416       0.00244440
O        2.81254118       1.95652902      -0.76281511      -0.00678650       0.00176873      -0.00559650
H        2.16587930       1.82154644      -1.46539285      -0.00514092      -0.00474821      -0.03202239
H        2.26685823       1.88111940       0.03973002      -0.02814861      -0.01887209       0.01473247
44
Properties=species:S:1:pos:R:3:forces:R:3 reactant=T mapped=T (centered)=T charge=0 spin=1 energy=-34182.89142544978 free_energy=-34182.89142544978 stress="-4.438427583264594 1.648889454829215 -0.11802121651254961 1.648889454829215 -1.3841741778341679 -0.7500999146869145 -0.11802121651254961 -0.7500999146869145 -0.7433381006080924" pbc="F F F"
O       -3.39084896       0.59562853      -1.52190570      -0.11095498       0.04582811      -0.03392496
O       -3.35254785       0.52985906       2.05232403      -0.00162202       0.03298692       0.03914744
O       -1.62971766      -1.64735925      -0.86430497      -0.04266260       0.01690131      -0.12102730
O       -5.42412531       2.32109403       1.69768375      -0.07010867       0.03510670       0.01477974
O       -0.32025917       0.55254637      -1.53013226      -0.00499144      -0.10351948       0.24084705
O        0.94826692       1.58362724       0.87468938      -0.00727774       0.01790600      -0.02320876
C       -3.23824411       0.00064559      -0.24886236      -0.05249609       0.01742191      -0.01566491
C       -3.62073261       1.05227811       0.76621658      -0.02650458       0.03050682       0.01281417
C       -1.82128727      -0.51440333      -0.04075792      -0.01702231       0.03604551      -0.09177908
C       -5.07775036       1.43147725       0.64190722      -0.05551538       0.03208297       0.01082980
C       -0.81223258       0.56546709      -0.42263176      -0.10149980       0.09670771      -0.13699250
C       -0.44106025       1.62150389       0.60888311      -0.01959463       0.04555740      -0.02945236
H       -3.89319848      -0.87022508      -0.13246696      -0.05835071       0.01411621       0.00688200
H       -3.01767795       1.95476074       0.58414493      -0.00332096       0.02008201      -0.00706368
H       -1.70495059      -0.80238544       1.00587987       0.06418077       0.01607672      -0.07077911
H       -5.27085962       1.85972867      -0.34155966      -0.05364061       0.02155264      -0.01136888
H       -5.69374559       0.54027127       0.76931729      -0.03957891       0.01994601       0.02235781
H       -3.09444113      -0.02399813      -2.19736718      -0.01796983      -0.05739501       0.01007192
H       -3.89166096       1.03995521       2.67040942      -0.01943773       0.02245216       0.04935794
H       -0.67759144       2.59701600       0.18599276       0.00760540       0.08933550       0.01309762
H       -1.01790208       1.47087477       1.52450839       0.00375760       0.01301544       0.00895394
H       -1.10475223      -1.34037423      -1.61829804      -0.04723200       0.03301644      -0.28342056
H        1.13676434       0.64003525       1.04554155       0.03894539      -0.12195309       0.01217615
H       -5.09520172       3.19773181       1.47437155      -0.04303257       0.02336003       0.03111054
O        2.99417216      -2.28085376      -2.26960609      -0.00375561      -0.03803041      -0.00585774
O        1.73203211      -3.55731824      -0.91963970       0.00916398      -0.03393790      -0.05289401
O        5.27490802      -2.47677879      -0.04150450       0.05279652       0.00073291      -0.03333794
N        0.94852702      -1.26320870       0.48076015       0.01590480       0.03180017      -0.01816823
N        5.12037145      -0.28120702      -0.59559287       0.03738701       0.02722243      -0.00930863
C        2.18615859      -1.28304639      -0.27986692       0.02335388      -0.00889126       0.01307837
C        3.35338556      -1.27377060       0.70503544       0.05585304       0.00001570       0.03385062
C        2.26404625      -2.50951563      -1.16855653       0.03062892      -0.03837466       0.00113414
C        4.68626336      -1.41283651      -0.00063916       0.05762953       0.01504750       0.00665121
H        2.22900604      -0.40082884      -0.92275356      -0.01354702       0.02938872       0.00672069
H        3.30234173      -0.34558008       1.27520849       0.05378506       0.03687531       0.03578220
H        3.24328795      -2.11873888       1.38409139       0.06424689      -0.01521048       0.02070366
H        0.94231611      -2.05578022       1.11721106      -0.01047323       0.00622852      -0.01975916
H        0.18868961      -1.43774199      -0.17486524       0.23532605      -0.33908319       0.42469689
H        4.55016171       0.55523250      -0.60782352       0.01956513       0.04357034      -0.02535299
H        5.90767600      -0.35399528      -1.21548941       0.05718727       0.01168819       0.00353080
H        3.07815921      -3.12495074      -2.73551485       0.03367426      -0.06726721      -0.05954211
O        3.34295882       2.15004229      -0.55510956      -0.01748204      -0.04192460      -0.00055071
H        2.45221656       2.11538755      -0.16366976      -0.01883426      -0.01980039       0.01761019
H        3.70907842       2.99973391      -0.29525889      -0.00408565       0.00281361       0.01326911
44
Properties=species:S:1:pos:R:3:forces:R:3 reactant=T mapped=T (centered)=T charge=0 spin=1 energy=-34173.709815786315 free_energy=-34173.709815786315 stress="0.03169396957923633 -1.998635721101246 5.432363067262036 -1.998635721101246 8.684496765045647 -6.171502352540754 5.432363067262036 -6.171502352540754 17.21489544342623" pbc="F F F"
O       -1.55723344      -1.05402951      -0.70152503       0.45604929       0.97266507      -0.54555839
O       -4.08389941      -0.21543791       1.70706771       0.18427652       0.11420698       0.35561106
O       -0.64842593      -2.10744395       2.41530845      -0.07081953       1.06528425      -1.01354754
O       -4.97084840       1.47024161      -0.22011428      -0.24261561       0.09857141      -0.19484785
O       -2.14389513       3.31338242      -4.53811984       0.01772695       1.84899139      -2.55343866
O        1.08179545       2.06079498       1.13079915      -0.00157735       0.35275000       0.50685668
C       -2.14890173      -0.87435115       0.52944088      -0.16836551      -0.86618048       0.39236492
C       -3.25791987       0.17234376       0.62979471       0.56633162      -0.60000062       0.00066389
C       -1.22304052      -0.81253236       2.07822115       0.04198140      -0.71233356      -0.70870370
C       -4.12207042       0.39165886      -0.59935685      -0.03153656       0.15198079       0.00266327
C       -0.04303019       0.04462983       1.64389470      -2.15889883       0.92287284      -0.61950237
C       -0.22161798       1.55107146       1.40751520       0.68942249       0.36966148      -0.98239017
H       -2.46404638      -1.90948483       0.54690342      -0.98240405      -0.10568777       1.46181464
H       -2.76186282       1.13235041       0.84072273      -0.25866100       0.12948535      -0.02830011
H       -1.99567897      -0.44863830       2.80044899       1.02942729      -0.07617672      -0.55142522
H       -3.53260455       0.59434542      -1.48902466       0.05688068       0.24930789      -0.10487735
H       -4.78299422      -0.44857085      -0.82935703       0.27856192      -0.12738098       0.25125051
H       -1.17657024      -0.36855240      -1.29466421      -0.79833215       0.05356550       1.24173903
H       -4.82350415       0.40812207       1.71265681      -0.01633601      -0.00242466      -0.02006219
H       -0.79434590       1.75239995       0.47016456      -0.16049218      -0.66022348       0.57006025
H       -0.72485595       2.14427400       2.20584479       0.26547438      -1.02194047      -0.15189223
H       -1.03977385      -2.71866177       3.04675513      -0.74263525       0.69671947       0.00122801
H        1.03835167       3.02920197       1.18289530       0.07337473      -0.40872541      -0.09060393
H       -4.59864549       2.29915643      -0.53382231      -0.02313142       0.03772918      -0.17061627
O        1.46984022       0.17186159      -2.38138549       0.55184811       0.39135313       2.27848196
O        0.56689168      -1.61079207      -1.34724867       0.64495301      -0.04651217      -0.76551378
O        3.63826197      -3.79089334      -0.61378992      -0.44584340       0.13088143       0.36660612
N        0.90244812      -0.66008377       1.13458517       0.38666120      -0.15329915       0.67601180
N        4.65418043      -1.80611997      -0.88055111       0.09776059       0.32231256      -0.16769202
C        2.02153350      -0.60440174       0.14052633       0.69824839       1.95725214      -0.37664714
C        2.73213982      -1.88492143       0.58410250       1.09147608      -1.05818796       0.23221916
C        1.28505646      -0.65090764      -1.30261428       0.37361196      -1.72359812      -0.13436180
C        3.69583343      -2.61047628      -0.35323674       0.40435427       0.12427783      -0.91610825
H        2.71643203       0.26505550       0.27664219      -1.08856690      -0.46486771      -0.06266357
H        3.34041792      -1.68486778       1.52798046      -1.05204785      -0.08136913      -0.98352051
H        1.96330586      -2.63908407       0.77825458       0.35195953      -0.07539138       0.06495175
H        0.80689099      -1.63117013       1.49536654      -0.17370565       0.57904893      -0.47468022
H       -2.16932024       3.92880260      -5.40448665       0.08867428      -2.12552857       2.97597790
H        4.68419759      -0.84720918      -0.62209245       0.01942367       0.64447850       0.05849266
H        5.18975917      -2.05199826      -1.69796409      -0.06570139      -0.41101894       0.20323320
H        0.66515462       0.22315071      -2.92986881       0.17420545      -0.35138461      -0.00764148
O        4.39294008       2.58031601      -0.56398966      -0.01776052      -0.10082483       0.01379437
H        3.54244937       3.02112859      -0.65326493      -0.02814076      -0.01837952      -0.05399912
H        4.89720541       2.87634054      -1.32941544      -0.01511111      -0.02195958       0.02457334
44
Properties=species:S:1:pos:R:3:forces:R:3 reactant=T mapped=T (centered)=T charge=0 spin=1 energy=-34166.29770489639 free_energy=-34166.29770489639 stress="9.239601834197362 -0.5021128221804335 3.945162360014429 -0.5021128221804335 4.812718642839174 1.2934253194300305 3.945162360014429 1.2934253194300305 2.8945992204562163" pbc="F F F"
O       -0.59105928      -0.31842754      -0.02516457       1.60961318      -0.26410455      -1.20730925
O       -3.95650390      -0.21961063       1.38391039       0.14249289       0.14849508      -0.25561222
O        1.57098364     -11.80063392       7.51184535      -0.15050840      -0.35018119      -0.12652247
O       -4.25156935       1.15692293      -1.36799956       1.79866779      -0.24596278       0.96777207
O        0.27902025      -0.86581736      -4.10773077      -0.90476578       0.76066536       0.21592042
O        1.67808895       3.68703954       2.13950129      -1.10686374      -1.41076839       0.25849101
C       -1.68317585      -0.65534081       0.76033136      -0.20495529       0.40919843       1.05201447
C       -2.85341055       0.25746817       0.63967307      -0.75260657       1.09315777      -1.22318089
C       -0.26234911      -0.67542012       1.28518843      -1.02699459      -0.15928578       1.06557846
C       -3.10733644       0.31530110      -0.91857662      -0.19168785       0.13557889      -0.87218761
C        0.67913347       0.16580971       2.11324698      -0.58117247       1.38918400       0.21172756
C        1.14225288       1.54219743       1.81630189       2.59352064       0.79215801      -1.08406067
H       -2.03678881      -1.64530740       0.59053409      -0.18661615      -1.06733572      -0.07935581
H       -2.61640225       1.29003981       0.89905751       0.14812511       0.15743943       0.35438722
H       -0.04933751      -1.73636944       1.46569388       0.33111390       0.22188595      -0.37963068
H       -2.15017936       0.70809605      -1.34144785      -0.85561597      -0.18502617       0.15237831
H       -3.28919303      -0.68287231      -1.40624271       0.08473298       0.75564611       0.86785316
H        1.05267792      -0.84925625      -3.50820153      -0.72990322       0.42261007      -0.28287169
H       -4.71971262       0.31566071       1.11231996       0.21471849      -0.25373214       0.07374777
H        1.13361160       1.94127423       0.79865013      -0.18309437      -0.22620337       0.41436076
H        2.10725754       1.65193253       2.32245155      -0.76971906       0.59111369      -0.56424779
H        1.92900960     -10.96762829       7.81281463       0.15050840       0.35018119       0.12652247
H        1.49835060       4.06494977       3.01683802      -0.10229851      -0.19719523      -0.24447192
H       -3.87928264       2.05684105      -1.44607489      -0.44316149      -0.55070555       0.09230658
O       -1.67256289       0.16497683      -4.58725690       0.24023184      -0.55995989       0.16780773
O       -0.41617676       1.01063911      -2.98024086       0.61218905      -0.18040584       0.49749604
O        1.52394811      -3.63696544       0.85632650       0.00932257      -0.24984999       0.47923461
N        0.86107800      -0.12768469       3.52577437      -0.27320883      -1.13752794       0.23692666
N        2.21904628      -1.75449786      -0.09109535       0.41535872       0.20824954      -0.04245949
C        1.94840082      -0.55526366       2.66101055      -0.15031400       0.36218199       0.02737991
C        2.37785251      -1.96184140       2.36744577       0.07655836      -1.04666638      -0.10375238
C       -0.58106814       0.15683618      -3.80612509       0.47140327      -0.03253848      -0.26393989
C        2.04243137      -2.54944735       1.00066275      -0.56902540       0.16402556      -0.38686624
H        2.82799860       0.07288824       2.75297694      -0.29879016       0.15761547       0.09049042
H        3.46241476      -1.97429049       2.43259252       0.26900098       0.07993961       0.02896003
H        2.06399981      -2.69587748       3.11558697      -0.26394081       0.17886879      -0.13243949
H        0.23014909      -0.90362495       3.75786625       0.39024583       0.10764666       0.07033397
H      -11.61152145      18.96018070     -24.37275698       0.00000000       0.00000000       0.00000000
H        2.89070281      -0.99086244      -0.12956074      -0.48902985      -0.32291061      -0.04599590
H        1.83724369      -2.17288593      -0.93454578       0.46985969       0.34528214       0.14220808
H       -2.22909063       0.87062305      -4.20053441       0.28086352      -0.35659203      -0.35629427
O        4.87250102       2.72774719      -0.97024347      -0.01858757      -0.03280589       0.01331814
H        4.39951656       3.30791515      -0.36313526       0.00355296       0.00925053      -0.02685837
H        5.32905071       3.31458628      -1.58166882      -0.05922030      -0.01061511       0.07084186
44
Properties=species:S:1:pos:R:3:forces:R:3 reactant=T mapped=T (centered)=T charge=0 spin=1 energy=-34172.36794969449 free_energy=-34172.36794969449 stress="-4.176860287272188 -4.44883282045678 4.654404563272779 -4.44883282045678 1.4123608983082168 0.5491749137799573 4.654404563272779 0.5491749137799573 7.22726124007473" pbc="F F F"
O       -1.31932865      -0.58653378      -0.75276039      -0.51691544      -0.01725214      -0.08596057
O       -4.19081266      -0.61727831       1.24438268      -0.46249118      -0.73573786       0.24430047
O       -0.21552681      -2.14477151       3.02780077      -1.06226742       0.64017344      -0.78203517
O       -4.69021095       1.40856653      -0.93856244       0.14997660      -0.19695625       0.13672383
O       -2.22344731       3.29116639      -5.91841026      -0.90540117       1.10299742      -1.22247028
O        1.13482931       2.03008578       2.03350112       0.17446023       0.44023916      -0.15194353
C       -2.10053383      -0.96305213       0.19878988       0.66997474       0.15109296       0.04261108
C       -3.23761542      -0.02050250       0.43754926      -0.02961714      -0.09562688       0.40221933
C       -0.82543561      -0.93737413       2.57779338       0.06569775       0.11856396       0.72284752
C       -3.77783316       0.34940300      -0.96674092       0.15101792      -0.06047102       0.05649468
C        0.05381703       0.01222799       2.16049614       0.00144168      -0.03316450      -0.19119032
C       -0.15250682       1.50009492       1.84453587       0.10368656      -0.92677701      -0.01103332
H       -1.84550332      -1.93899413       0.58974309      -0.70398074       0.06126909       0.12557322
H       -2.88491108       0.86907167       0.99517234       0.38295323       0.11284240      -0.63404298
H       -1.87428550      -0.75705367       2.87872286       0.80391181      -0.05847760       0.07688905
H       -2.95650150       0.59593382      -1.64056426      -0.34808943       0.47960895      -0.36725637
H       -4.16463045      -0.57848560      -1.39759601      -0.62955540       0.25736779       0.08647128
H       -1.75229992       0.22011651      -1.13951651       1.28835189      -0.64150792       0.16123217
H       -4.99111411      -0.08646878       1.22308764      -0.20293745       0.15023215       0.02453505
H       -0.46508514       1.55494985       0.80335255      -0.03273391       0.26231360       0.01342218
H       -0.86257781       2.07693196       2.42672177      -0.44437698      -0.50884467       0.53207231
H       -0.72741470      -2.91489210       2.74683543      -0.03539820       0.11067432       0.13186605
H        1.14419619       2.90830191       1.66601164       0.06629676       0.58224940      -0.17980616
H       -4.20450596       2.20242846      -1.20403397      -0.40270206      -0.04976536      -0.00457307
O        0.58630974       1.08125024      -0.86232753       1.30668867      -0.77120286       0.24252804
O        1.12515697      -0.82101498      -1.88135339       0.73555982       0.50902528       1.61011434
O        2.22375950      -3.77254285      -0.92758095      -0.05123179       0.19135992      -0.45698208
N        1.38570812      -0.38282744       1.97555063      -0.71702498      -0.06753565      -1.81304026
N        3.91448111      -2.34300378      -1.44950932      -0.08346344       0.28348333      -0.09560444
C        1.95981631      -0.49511475       0.52637316      -0.64933652       0.52779818      -0.34767020
C        2.45728872      -1.93173314       0.51752322       0.05860066      -0.36258009      -0.01174157
C        1.17846358      -0.15381570      -0.87120549       0.17629725      -0.58396012       1.27559614
C        2.82564938      -2.73991304      -0.72473910       0.07682665      -0.17298149       0.14074811
H        2.70255129       0.27398558       0.60046641       0.80554211       0.26974720      -0.66048783
H        3.27701712      -2.02668932       1.22463204       0.26555005       0.12870365       0.13850841
H        1.63699672      -2.49229589       0.96254634       0.05491259      -0.40085250      -0.26702785
H        1.46774961      -1.32855374       2.28542306      -0.17069569      -0.34183279       0.59879893
H       -2.71238150       3.87189582      -6.59155721       0.91875768      -1.16462123       1.41202676
H        4.46510780      -1.56262286      -1.13340197      -0.18255009       0.12862439      -0.14715874
H        4.00252020      -2.60405378      -2.42628019      -0.05249747      -0.18512112       0.50469863
H        0.34248733       1.06955609      -1.78225846      -0.53602797       0.91245776      -1.22984076
O        4.87104210       2.73255325      -0.47888774      -0.03617864      -0.07998145      -0.03458130
H        4.07903961       3.27240343      -0.55356510      -0.01974395       0.03206827       0.00344477
H        5.34047447       2.87866467      -1.30616109       0.01871142       0.00235714       0.01072571
44
Properties=species:S:1:pos:R:3:forces:R:3 reactant=T mapped=T (centered)=T charge=0 spin=1 energy=-34182.93705035446 free_energy=-34182.93705035446 stress="-6.792060679396452 2.4329138243794137 1.122521266917477 2.4329138243794137 -0.6719754775369476 -1.6479215116698953 1.122521266917477 -1.6479215116698953 0.2811152022982672" pbc="F F F"
O       -2.82467483       0.53571724      -1.51144568      -0.06729630       0.01106473      -0.04114816
O       -3.29293030       0.39394249       2.02986632      -0.02966419       0.06533229       0.07564772
O       -1.50342694      -1.87884005      -0.62921946      -0.08269899      -0.02521040      -0.16160800
O       -5.31404830       2.20688892       1.34281315      -0.11799608       0.07331312       0.01091327
O        0.01130987       0.38671758      -1.41922515       0.27763572      -0.31415966       0.47893634
O        1.00321895       2.00878670       0.88458037      -0.03234714       0.03820071      -0.07163198
C       -2.87168159      -0.09213320      -0.23878186      -0.03321266       0.03450831       0.01747110
C       -3.38682497       0.93712233       0.72733338      -0.03952438       0.06075699       0.03093677
C       -1.55657352      -0.71080187       0.16528290      -0.03138398       0.01655964      -0.13477957
C       -4.81086666       1.28256862       0.38762705      -0.08802750       0.05276576       0.01381404
C       -0.28864151       0.13983153      -0.03744983      -0.00695726       0.01691520      -0.15333262
C       -0.31053469       1.51725612       0.64507611      -0.01647786       0.02083678      -0.06967398
H       -3.57132215      -0.93503604      -0.24556544      -0.11926526       0.04549707      -0.03466171
H       -2.78657368       1.85002102       0.64777878       0.00425528       0.04855680      -0.00192461
H       -1.62401063      -0.96102576       1.23120880       0.06506427       0.05576411      -0.05703717
H       -4.85821026       1.67121213      -0.62967772      -0.09042657       0.03241239      -0.02317709
H       -5.41784947       0.37890933       0.45290890      -0.11635613       0.05723502       0.05695439
H       -2.63878230      -0.14090210      -2.16749772      -0.15907477      -0.15777336      -0.07861609
H       -3.90109870       0.90025805       2.58081690      -0.06310633       0.04758422       0.07078221
H       -0.78646925       2.22468154      -0.02596177      -0.04656891       0.09673595      -0.00527678
H       -0.86028493       1.46558868       1.58990391       0.00798311      -0.07570300      -0.03195328
H       -0.64256308      -2.32551687      -0.56839317       0.04790911       0.02639378      -0.16603830
H        1.40099520       1.39886850       1.51803699       0.02326917      -0.10937396      -0.00519553
H       -4.90091456       3.05672824       1.15742739      -0.09793629       0.06062416       0.08298323
O        2.45105355      -1.48896077      -2.37451033       0.07412295      -0.01128288      -0.12163787
O        0.94348582      -2.71684762      -1.29477115       0.05317500      -0.07116312       0.03596582
O        4.56876325      -3.04020436      -0.19383970       0.08034697      -0.01452727      -0.05600673
N        0.77576316      -0.63033866       0.63323032      -0.01334142       0.01680974      -0.08969116
N        4.95409311      -0.81081242      -0.38082994       0.07763205       0.03018034       0.00433353
C        1.97066459      -0.86950386      -0.12876701       0.04229547       0.00779922      -0.01483786
C        2.98628679      -1.54394335       0.79006757       0.05555196      -0.00505246       0.03556469
C        1.71145874      -1.78194603      -1.31127699       0.05223147      -0.01870579      -0.03724307
C        4.25040463      -1.89025211       0.03626951       0.07979725      -0.00179016       0.00763219
H        2.35473879       0.07171427      -0.51044289       0.03420730       0.01426667      -0.02500179
H        3.19290986      -0.86080734       1.61256335       0.05421289       0.02674830       0.05600297
H        2.56391150      -2.46607749       1.18827944       0.04521302      -0.02182689       0.00421076
H        0.43228186      -1.51221332       0.99561032      -0.03255333       0.05296861      -0.00960375
H       -0.57628532      -0.09991061      -2.01298333       0.08632219      -0.07591307       0.48788738
H        4.57212418       0.12028913      -0.29569724       0.03829065       0.06603981      -0.02736632
H        5.68238372      -0.96663134      -1.05505830       0.08813797      -0.01611978       0.00697131
H        2.24448546      -2.15804942      -3.04370289       0.09021080      -0.05588463      -0.10596462
O        3.70231541       2.09081705      -0.23098155      -0.03708478      -0.04053949       0.02886511
H        2.77075554       2.31838227      -0.07870359      -0.04012354      -0.04081047       0.01678541
H        4.18116366       2.92445284      -0.23189972      -0.01644054      -0.02003341       0.00074992
44
Properties=species:S:1:pos:R:3:forces:R:3 reactant=T mapped=T (centered)=T charge=0 spin=1 energy=-34183.346612373265 free_energy=-34183.346612373265 stress="0.017497842350337633 -0.07487522110938234 -0.0021238115095374294 -0.07487522110938234 0.04592063861775126 0.01604346791460903 -0.0021238115095374294 0.01604346791460903 0.01285710696777782" pbc="F F F"
O       -2.92674094       0.24732164      -1.51807260      -0.00233592      -0.00301260       0.00296519
O       -3.19150751       0.83763138       2.02750312      -0.00271225      -0.00059449      -0.00465907
O       -1.66746241      -2.01075533      -0.45642279       0.00103966       0.00130515      -0.00028503
O       -5.29778164       2.44002504       1.27646316       0.00035856       0.00233421      -0.00726429
O       -0.09288788       0.09628251      -1.43787372       0.00031515       0.00781899       0.00527878
O        1.03547784       1.76686774       0.93912358       0.00261004      -0.00626396       0.01651572
C       -2.94079163      -0.11311653      -0.13461222      -0.00020864      -0.00141861       0.00120538
C       -3.38535306       1.10899371       0.65153667      -0.00057113      -0.00154757      -0.00304849
C       -1.62389902      -0.78558129       0.25774829      -0.00019969      -0.00014135       0.00079978
C       -4.85363379       1.41154881       0.39557190       0.00102891       0.00120399      -0.00411589
C       -0.31662842      -0.02101504      -0.04190002      -0.00080264       0.00164503       0.00440440
C       -0.28984752       1.37302826       0.61961548       0.00209145      -0.00129274       0.00955262
H       -3.69522104      -0.89181952       0.02883678      -0.00005184       0.00035313       0.00208453
H       -2.79646353       1.98359778       0.34505444       0.00297769      -0.00443697      -0.00168477
H       -1.64952665      -0.96791508       1.33848088      -0.00237204      -0.00204427       0.00030183
H       -5.01834750       1.67015618      -0.65158531       0.00404303       0.00079624      -0.00372062
H       -5.44804812       0.52962470       0.64000918      -0.00271186       0.00389114      -0.00509104
H       -2.87096478      -0.58617268      -2.00427748       0.00032117      -0.00150958       0.00393148
H       -3.77133672       1.44281268       2.50950611      -0.00137148       0.00082114      -0.00642377
H       -0.68286300       2.11443118      -0.07439293       0.00854266       0.00297698       0.01017827
H       -0.89853398       1.36405145       1.52697860      -0.00202783      -0.00125594       0.00653888
H       -0.78212663      -2.28363790      -0.75640982      -0.00050762      -0.00141092       0.00165697
H        1.40058060       0.99844038       1.40700739      -0.00103849      -0.00699767       0.01779090
H       -5.03947118       3.29451163       0.91760446       0.00158651       0.00121649      -0.00631877
O        2.58719783      -1.80844803      -2.42138116       0.00033732       0.00286908       0.00005076
O        0.90179930      -2.84219724      -1.37999909      -0.00157031       0.00351640      -0.00228185
O        4.84621367      -2.77297225      -0.41821528      -0.00078051       0.00018545      -0.00088666
N        0.78284315      -0.80232526       0.53380355      -0.00130824      -0.00141014       0.00145392
N        5.08323595      -0.51969956      -0.43374212      -0.00209120       0.00224483      -0.00475804
C        1.97133225      -0.97249930      -0.28602974      -0.00129013       0.00116659       0.00087139
C        3.11723950      -1.47078004       0.60979641       0.00036610       0.00104588      -0.00066983
C        1.73620479      -1.96761834      -1.41066608      -0.00067234       0.00254685      -0.00070375
C        4.43145139      -1.66554071      -0.13210088      -0.00053736       0.00157063      -0.00274024
H        2.24386598      -0.02014868      -0.73616056      -0.00405246       0.00202820       0.00154697
H        3.24619356      -0.73863535       1.40853950       0.00017091       0.00126298      -0.00061619
H        2.84825282      -2.42985862       1.05280737       0.00112528       0.00164213       0.00071328
H        0.46155023      -1.70929352       0.85054016      -0.00271674      -0.00248454      -0.00349533
H       -0.91601406       0.43040075      -1.82392973      -0.00102993      -0.01817867       0.00196680
H        4.67596975       0.38872909      -0.25242879      -0.00190611       0.00285850      -0.00371182
H        5.90914981      -0.59083559      -1.00259545      -0.00300739       0.00090609      -0.00569651
H        2.44570648      -2.53737668      -3.04474444       0.00072209       0.00395534      -0.00109937
O        3.67792387       2.07408137       0.15166968       0.00238345       0.00360023      -0.00780760
H        2.71135183       2.17016256       0.21770914       0.00001830      -0.00404965       0.00198042
H        4.04191043       2.76554372       0.71163334       0.00783592       0.00228835      -0.01470944
44
Properties=species:S:1:pos:R:3:forces:R:3 reactant=T mapped=T (centered)=T charge=0 spin=1 energy=-34183.11415560061 free_energy=-34183.11415560061 stress="-0.7441883097197504 -0.3093532063674636 -0.25336210165354994 -0.3093532063674636 -0.17915682347375003 -0.16310208825025693 -0.25336210165354994 -0.16310208825025693 -0.02186607903544649" pbc="F F F"
O       -2.99501970       0.37851413      -1.48861314      -0.00438923      -0.01352557      -0.00473758
O       -3.00432521       0.80574999       2.08534377      -0.00186264       0.00535474      -0.00323557
O       -1.70943788      -2.01415380      -0.44047076      -0.00405569      -0.00105765      -0.00279559
O       -5.26600617       2.32215343       1.59170499      -0.00014784       0.00213689      -0.00574133
O       -0.11434048      -0.17014500      -1.68555662       0.00119925       0.00479987       0.00266981
O        0.93641840       2.04195612      -0.04313154       0.00124659       0.00457610       0.03454576
C       -2.94334925      -0.07212404      -0.13599073      -0.00412728      -0.00529988      -0.00075236
C       -3.36410557       1.09661587       0.74641580      -0.00193228      -0.00031365      -0.00562194
C       -1.60811527      -0.74365535       0.17784546      -0.00344264      -0.00236535       0.00010939
C       -4.86452247       1.32073124       0.65985219      -0.00226544       0.00032355      -0.00616192
C       -0.33124745      -0.01237187      -0.29253555      -0.00413441       0.00117138       0.00207268
C       -0.35253100       1.47583291       0.06794073      -0.00345629      -0.00146856       0.00974577
H       -3.68078920      -0.87045656       0.01255337      -0.00444327      -0.00509636       0.00361130
H       -2.86327863       2.01251990       0.40925249      -0.00217394      -0.00188666      -0.01167517
H       -1.53920746      -0.84454165       1.26727275      -0.00355763      -0.00522927      -0.00055552
H       -5.15576954       1.57226171      -0.36171858      -0.00247845      -0.00037809      -0.00661827
H       -5.38131528       0.40832875       0.96127986      -0.00125678      -0.00039582      -0.00590410
H       -2.85871698      -0.40618511      -2.03456704      -0.02993046      -0.02799249      -0.00367145
H       -3.56161933       1.36341298       2.64425308      -0.00265280       0.00774917      -0.00506402
H       -1.00425831       2.01646169      -0.61868411       0.01025618       0.00661524       0.00001395
H       -0.73600922       1.58645877       1.08707147      -0.02542180      -0.00439804       0.00530550
H       -0.83090462      -2.35341094      -0.68365055      -0.00506829       0.00094622      -0.00780973
H        1.50154108       1.47064925       0.49446130       0.05677001      -0.08244170       0.09602061
H       -5.06868211       3.18895120       1.22365961       0.00165566       0.00115892      -0.00829187
O        2.49652968      -1.99062980      -2.46173855       0.00695320      -0.00152563      -0.00117529
O        0.90447460      -2.95987867      -1.22579524      -0.00061259       0.00081268      -0.00794754
O        4.82458906      -2.73658215      -0.44612641      -0.00527449      -0.00509189       0.00427854
N        0.80158985      -0.63879417       0.40053003      -0.00278076      -0.00128540      -0.00267878
N        5.11605272      -0.50015412      -0.24615115       0.00358097      -0.00440804      -0.00355543
C        1.98169347      -0.97513267      -0.37535272      -0.00277889       0.00106964      -0.00514423
C        3.06842541      -1.47296403       0.59371442      -0.00206874       0.00486500      -0.00287580
C        1.70871903      -2.07309134      -1.39138271      -0.00005449       0.00070685      -0.00482649
C        4.41922463      -1.65106589      -0.07931892      -0.00199340      -0.00165875      -0.00171297
H        2.33307093      -0.09551012      -0.91141213      -0.00489561       0.00126488      -0.00671333
H        3.13822418      -0.74355080       1.40023973      -0.00091348       0.01093700      -0.00779023
H        2.77647002      -2.43797002       1.00931020      -0.00294892       0.00786089       0.00418762
H        0.49999296      -1.45362510       0.92061189      -0.00479043      -0.00103178      -0.00420137
H       -0.66778554       0.46767725      -2.14725364      -0.07131096       0.00708514      -0.00722530
H        4.76090215       0.38453211       0.08230757       0.00836108      -0.00097979      -0.00785131
H        5.99703668      -0.54415661      -0.72757963       0.00358884      -0.00825585      -0.00336951
H        2.33347840      -2.77561091      -3.00662441       0.00648394      -0.00185804      -0.00072136
O        3.58354165       1.86878023       0.87093820       0.02443208       0.01590575      -0.01001754
H        3.13182643       2.53022593       0.33163276       0.05109168       0.06033419       0.00236001
H        3.58753534       2.22394728       1.76546145       0.03160059       0.03227047      -0.00847807
44
Properties=species:S:1:pos:R:3:forces:R:3 reactant=T mapped=T (centered)=T charge=0 spin=1 energy=-34183.11743077712 free_energy=-34183.11743077712 stress="-0.2000152496172115 -0.24086484724038948 -0.15636963244342655 -0.24086484724038948 0.1717188029810461 -0.2699868477417549 -0.15636963244342655 -0.2699868477417549 0.23480860878853843" pbc="F F F"
O       -2.96585626       0.54537627      -1.41457723       0.00123148      -0.00998755      -0.00476049
O       -2.94398868       0.73467239       2.17783767      -0.00123696       0.00307743      -0.00155766
O       -1.68728935      -1.99575268      -0.35476423      -0.00199018       0.00172433      -0.00151004
O       -5.20849693       2.29681058       1.75035557       0.00259631       0.00078522      -0.00189872
O       -0.18560319      -0.28461603      -1.74001343       0.00509366       0.00284821       0.00425286
O        0.93455379       1.97798980      -0.76581398       0.00323366       0.00620867       0.03775220
C       -2.89311736      -0.00745380      -0.10800885      -0.00076013      -0.00281380      -0.00071707
C       -3.30471855       1.10195134       0.85838409       0.00125724       0.00058900      -0.00403389
C       -1.55980675      -0.69445519       0.18996874      -0.00042829      -0.00067909       0.00152425
C       -4.80467618       1.33065474       0.78275369       0.00056475       0.00248307      -0.00590061
C       -0.27818988      -0.02751310      -0.34439111      -0.00114357       0.00280417       0.00150275
C       -0.27200271       1.48508675      -0.15620773       0.00050612       0.00205824       0.00666389
H       -3.62582254      -0.81782734      -0.00361454      -0.00130930      -0.00204708       0.00026959
H       -2.80145003       2.03689530       0.57812319       0.00267087      -0.00133841      -0.00881682
H       -1.46095931      -0.73897185       1.27988213      -0.00044811      -0.00213030       0.00159452
H       -5.09802984       1.61586015      -0.22930096       0.00230277       0.00586644      -0.00590049
H       -5.31685138       0.40525549       1.05107234       0.00056435       0.00108741      -0.00990406
H       -2.44179734      -0.01837996      -1.99887090      -0.03009519      -0.02694578      -0.00399223
H       -3.49675863       1.26209506       2.76936916      -0.00363337       0.00310047      -0.00295052
H       -1.13753058       1.90750121      -0.66210844       0.01681188       0.01141247      -0.00591516
H       -0.28796675       1.72824126       0.90835186      -0.02181364       0.00051924      -0.00029141
H       -0.81895455      -2.38186579      -0.55684973      -0.00357047       0.00169696      -0.00426836
H        0.77064187       2.85641667      -1.12702232       0.05798840      -0.11145230       0.11104839
H       -5.03904303       3.17720151       1.40189499       0.00498797       0.00131681      -0.00076029
O        2.40686988      -2.04773724      -2.47551750       0.00477393      -0.00109181      -0.00083236
O        0.92506844      -3.03937877      -1.12218300      -0.00054368       0.00159648      -0.00496550
O        4.94590999      -2.61756093      -0.48124336       0.00258261       0.00227306       0.00355936
N        0.84449711      -0.62650248       0.40027570      -0.00111212       0.00032199      -0.00366184
N        5.05743231      -0.37981318      -0.12761256       0.00166022       0.00290327       0.00281781
C        2.01145609      -1.02576279      -0.36049769      -0.00165799       0.00161323      -0.00457650
C        3.08620230      -1.55395103       0.60585063      -0.00003005       0.00276285      -0.00291919
C        1.69552811      -2.13828470      -1.35105901      -0.00078541       0.00134773      -0.00379891
C        4.45684489      -1.59247774      -0.04862832       0.00108655       0.00306961      -0.00085687
H        2.40883565      -0.16956990      -0.90448547      -0.00535005       0.00279161      -0.00530416
H        3.10210017      -0.88890447       1.46730584      -0.00125333       0.00349535      -0.00369383
H        2.83293274      -2.56185115       0.93403812       0.00182336       0.00313627      -0.00107893
H        0.52126602      -1.42236684       0.93870830      -0.00303815       0.00226479      -0.00361505
H        0.44646909       0.35803203      -2.09443884      -0.09199663       0.00020384      -0.01355995
H        4.62061109       0.44526670       0.26046685       0.00325807       0.00234094       0.00340952
H        5.94963020      -0.31883468      -0.58615147       0.00217582       0.00286447       0.00633135
H        2.22029684      -2.83835082      -3.00508997       0.00421009      -0.00063299      -0.00102117
O        3.16892253       1.70790074       1.11154495      -0.00453330      -0.00150341      -0.00650212
H        2.36875115       1.73741182       0.56059235       0.05163289       0.06006226      -0.02724418
H        2.85408955       1.47756266       1.99167348       0.00371671       0.01999683      -0.03391821
44
Properties=species:S:1:pos:R:3:forces:R:3 reactant=T mapped=T (centered)=T charge=0 spin=1 energy=-34183.26897115392 free_energy=-34183.26897115392 stress="-0.01644073805757357 -0.04061920726223771 -0.09344212754025627 -0.04061920726223771 0.07241042464231913 0.03314168476176875 -0.09344212754025627 0.03314168476176875 0.12573661719911816" pbc="F F F"
O       -3.09019760      -0.28497400      -1.21728833       0.00023217      -0.00197054       0.00536878
O       -2.93561016       1.33743646       2.03168147       0.00971057       0.00418303      -0.01682706
O       -1.39096882      -2.04792212       0.61713943      -0.00323969      -0.00117519      -0.01024113
O       -5.17161365       2.63333026       1.07956860      -0.00188779      -0.00326916      -0.00122550
O       -0.38189270      -0.37260904      -1.54233827       0.00107159       0.00644252       0.00009890
O        1.09382361       1.88941553      -0.68058860      -0.00156713       0.00167049       0.00527208
C       -2.84175503      -0.16810129       0.17263276       0.00133014      -0.00021098      -0.00149366
C       -3.25938658       1.22150059       0.65640827      -0.00119432      -0.00204954      -0.00812724
C       -1.44385749      -0.62964884       0.61021269      -0.00118478      -0.00285934      -0.00318576
C       -4.75279071       1.42029202       0.45548214      -0.00025437      -0.00273509       0.00706173
C       -0.21926966      -0.07507090      -0.14913351      -0.00076240       0.00099212       0.00030023
C       -0.07305172       1.43935829      -0.01656619      -0.00148263       0.00020347       0.00546435
H       -3.50523130      -0.87757582       0.67880069      -0.00136910       0.00591272       0.00149555
H       -2.74168728       1.99901530       0.08038024      -0.00227069      -0.00626799      -0.00974989
H       -1.33186024      -0.33040469       1.65401123       0.00025954      -0.00771218      -0.00291274
H       -4.99845432       1.40007431      -0.60715937      -0.00573264      -0.00832202       0.01164186
H       -5.29706474       0.61898957       0.95778181      -0.00088879       0.00339592       0.01234575
H       -2.24135263      -0.23648669      -1.68047884      -0.00883778      -0.00468426      -0.00353434
H       -3.52683759       2.00992224       2.39663759       0.01549922       0.00553026      -0.01393449
H       -0.91452151       1.91651839      -0.51422682      -0.00144000       0.00267635       0.00919018
H       -0.08315318       1.72839203       1.03689180      -0.00031678      -0.00507339       0.00640879
H       -1.32437065      -2.37495791      -0.29047387       0.00251433      -0.00111620      -0.00151676
H        1.81610317       1.87677214      -0.03317458      -0.01506665       0.01045802      -0.00670775
H       -4.96393407       3.37121866       0.49802344      -0.00260892      -0.00704025      -0.00236206
O        2.00445749      -1.95853618      -2.77437988       0.00220148       0.00277974       0.00093172
O        0.89624566      -3.13112938      -1.21709325      -0.00201539       0.00521678       0.00033384
O        5.18402446      -1.78386157      -1.28141707      -0.00439670      -0.00792769       0.00380569
N        0.96380146      -0.76192061       0.40879291      -0.00064427       0.00080965       0.00045683
N        4.85198789       0.16442160      -0.17376716       0.00302157      -0.00451572       0.00407644
C        2.01330461      -1.09727065      -0.55803427      -0.00061498       0.00261565       0.00114506
C        3.27321863      -1.63108034       0.16759701      -0.00110681       0.00122057       0.00168858
C        1.54905238      -2.17123384      -1.53320342      -0.00008051       0.00353137      -0.00029177
C        4.53907321      -1.11696829      -0.49865465      -0.00116946      -0.00216342       0.00091770
H        2.27410970      -0.20317334      -1.12031774      -0.00260072       0.00361295       0.00167593
H        3.24373284      -1.30111743       1.20543367      -0.00350024       0.00315790       0.00021020
H        3.29942869      -2.71897453       0.15501592      -0.00761243       0.00161475       0.00540880
H        0.63049883      -1.63927010       0.80754350       0.00074759       0.00047101       0.00051573
H        0.18789954       0.23351208      -2.03818465       0.00220111       0.00688991       0.00381645
H        4.32548642       0.67415592       0.51919037       0.00297968      -0.00283839       0.00233473
H        5.65700757       0.58248281      -0.60682848       0.00296367      -0.00751429       0.00423805
H        1.74150646      -2.71991787      -3.31402541       0.00459800       0.00288722       0.00047410
O        2.58116471       1.16398861       1.63915040       0.00931310       0.00060003      -0.00244173
H        1.93620197       0.42843992       1.50114199       0.00658198       0.01294011      -0.01089145
H        2.42673232       1.52296869       2.51781542       0.00862028      -0.01036688      -0.00123429
44
Properties=species:S:1:pos:R:3:forces:R:3 reactant=T mapped=T (centered)=T charge=0 spin=1 energy=-34183.41181885961 free_energy=-34183.41181885961 stress="-0.18699693320059838 -0.040147876678278765 -0.009567029921096796 -0.040147876678278765 0.051833401034321124 0.00029620459973977954 -0.009567029921096796 0.00029620459973977954 0.04355751290448078" pbc="F F F"
O       -2.92664548      -0.28463898      -1.36213044      -0.00126472      -0.00544564      -0.00011353
O       -3.10129736       1.25877059       1.87727174       0.00137211       0.00417479      -0.00574499
O       -1.54291743      -2.14030063       0.10865292       0.00159842       0.00268536      -0.00689307
O       -5.16695591       2.66365653       0.74898151      -0.00400424      -0.00404137      -0.00584368
O       -0.23832158       0.22972337      -1.21034789       0.00085673       0.01038514       0.00189819
O        0.99921943       1.99378403       0.35888715      -0.00200020       0.00701231       0.00760805
C       -2.89887110      -0.24666684       0.06785550      -0.00143630      -0.00175007      -0.00102068
C       -3.31062290       1.15272721       0.48347420      -0.00197533      -0.00148937      -0.00435723
C       -1.56191293      -0.79957808       0.58792947      -0.00030636       0.00195743      -0.00070641
C       -4.76955094       1.42999560       0.15587805      -0.00305522      -0.00554694      -0.00114437
C       -0.27435780      -0.04834723       0.19406607       0.00014601       0.00475591       0.00254921
C       -0.11393961       1.29704421       0.91164383      -0.00102093       0.00412381       0.00880708
H       -3.65031451      -0.94120505       0.46018535       0.00033153       0.00026364       0.00377601
H       -2.70065503       1.88770945      -0.06229055      -0.00378335      -0.00405400      -0.00872041
H       -1.60931551      -0.82002283       1.68053095      -0.00186410      -0.00241307      -0.00057067
H       -4.92834690       1.42592878      -0.92353622      -0.00574623      -0.00901856      -0.00022654
H       -5.39803888       0.66192026       0.60906185       0.00050378      -0.00471904       0.00405786
H       -2.83903625      -1.21690298      -1.60315222      -0.01176608      -0.02425509       0.00523198
H       -3.66537471       1.98059437       2.18668913       0.00195265       0.00532781      -0.00594869
H       -1.00329999       1.91573078       0.82738219       0.02107305      -0.00517403       0.03878764
H        0.10152436       1.12246330       1.96374971      -0.02429587       0.01105468      -0.01558493
H       -0.78943225      -2.29574833      -0.49301173       0.01215641       0.00411293      -0.00200540
H        0.88051279       1.96903656      -0.60102674       0.00202772       0.00491688       0.00636438
H       -4.87051946       3.39075443       0.19260277      -0.00463175      -0.00826837      -0.01012342
O        2.32340425      -1.58445915      -2.65526809       0.00153023       0.00764769       0.00153246
O        0.68134893      -2.65748152      -1.58869063      -0.00374549       0.00839887      -0.00476533
O        4.93127442      -2.45079267      -1.10317546      -0.00651063      -0.00795223       0.00136743
N        0.86712847      -0.88241068       0.56538689       0.00031117       0.00317304       0.00162466
N        4.97839010      -0.25962140      -0.52343445       0.00337444      -0.01141729      -0.00296361
C        1.95314258      -0.98841171      -0.38305063      -0.00001783       0.00335027       0.00196115
C        3.17137790      -1.62405506       0.31086171      -0.00311393      -0.00020936       0.00075432
C        1.56191948      -1.82510920      -1.59116426      -0.00015458       0.00625950      -0.00067004
C        4.44875753      -1.50680366      -0.50627533      -0.00222552      -0.00798530       0.00225067
H        2.23112396       0.00077417      -0.73985783       0.00452789       0.00342931       0.00403616
H        3.28794460      -1.10016156       1.25949996       0.00279740      -0.00065204      -0.00074639
H        2.99127311      -2.68180998       0.50365886      -0.00503895       0.00061090      -0.00034984
H        0.56864498      -1.80803317       0.84612954      -0.00184079       0.00378701       0.00252413
H       -1.14476846       0.16878572      -1.55943117       0.00092550       0.01749432       0.00640870
H        4.62093458       0.47077446       0.08028685       0.00591884      -0.00827428      -0.00694286
H        5.83183714      -0.11946332      -1.03538713       0.00315536      -0.01536891      -0.00527785
H        2.08793580      -2.22703517      -3.34182215       0.00167287       0.01110725      -0.00147755
O        3.54004729       1.51363099       1.35269856       0.00633162       0.00288570      -0.00479990
H        3.81203612       2.25395997       1.90110301       0.00476016       0.00039348      -0.00445429
H        2.63471718       1.72129446       1.04858414       0.01247454      -0.00127303      -0.00008835
44
Properties=species:S:1:pos:R:3:forces:R:3 reactant=T mapped=T (centered)=T charge=0 spin=1 energy=-34183.25736301693 free_energy=-34183.25736301693 stress="-0.0646825283995926 -0.006603760652989722 -0.04117228037972188 -0.006603760652989722 0.009770353547540363 0.014213492484252277 -0.04117228037972188 0.014213492484252277 -0.014414974262322668" pbc="F F F"
O       -3.11582817      -0.70817588      -1.06633548      -0.00008236      -0.00440001       0.00136196
O       -2.96916687       1.58676541       1.68306253      -0.00162053       0.00179243      -0.00224796
O       -1.28522999      -2.05233498       0.56863853       0.00250122       0.00062854       0.00318261
O       -5.21504687       2.59141784       0.48152051      -0.00273687      -0.00125604      -0.00526225
O       -0.33399929       0.13950767      -1.30272121      -0.00019534       0.00279171       0.00223596
O        0.92797989       2.20785262      -0.13949241      -0.00003948       0.00173455       0.00344875
C       -2.85143851      -0.31002656       0.26180319       0.00033764      -0.00105567       0.00105842
C       -3.29617124       1.13458985       0.37934270      -0.00095078      -0.00069164      -0.00191907
C       -1.42041555      -0.64196395       0.72056118       0.00067112       0.00079234       0.00186210
C       -4.79361524       1.26688295       0.15599202      -0.00085919      -0.00155142      -0.00253205
C       -0.22227347       0.10778663       0.10063788       0.00026212       0.00158618       0.00222873
C       -0.09425053       1.55233279       0.59795602       0.00053874       0.00115317       0.00380212
H       -3.47618110      -0.89204506       0.95499393       0.00099334       0.00034766       0.00295828
H       -2.78011094       1.73230899      -0.38557265      -0.00056466      -0.00215474      -0.00301563
H       -1.38646906      -0.44069135       1.79594183      -0.00006337       0.00107799       0.00193434
H       -5.05534454       0.99451189      -0.86655024      -0.00002239      -0.00310244      -0.00263042
H       -5.32184341       0.60533707       0.84446230      -0.00075897      -0.00017605      -0.00109620
H       -2.80881801      -1.61734656      -1.15883398      -0.00063796      -0.00525961       0.00335559
H       -3.55395124       2.33497566       1.86485797      -0.00129406       0.00285930      -0.00365230
H        0.10832014       1.55882119       1.67071094       0.00152160       0.00016048       0.00325313
H       -1.01216414       2.10250199       0.42878731       0.00051110       0.00123394       0.00630345
H       -0.76141591      -2.26745763      -0.22499217       0.00093655       0.00080001       0.00108237
H        1.76490992       2.08711374       0.33499721       0.00023200       0.00106438       0.00147853
H       -5.02107537       3.17017359      -0.26223639      -0.00216581      -0.00293625      -0.00646656
O        1.94804967      -1.55247159      -2.82019366      -0.00196516       0.00431549      -0.00080852
O        0.55609266      -2.66203830      -1.46866902      -0.00120309       0.00246594      -0.00147972
O        5.00722156      -2.14140869      -1.44284874      -0.00284909      -0.00305305      -0.00264550
N        1.01296164      -0.63035834       0.52403843       0.00066452       0.00118052       0.00093425
N        4.95024574      -0.12215345      -0.41457475       0.00168398      -0.00343941      -0.00031175
C        1.96789895      -0.93074854      -0.53593795      -0.00017723       0.00144089       0.00019206
C        3.17908742      -1.69193682       0.05237924      -0.00087911      -0.00114755      -0.00127218
C        1.37990696      -1.79365359      -1.64076255      -0.00135896       0.00289452      -0.00096414
C        4.47094795      -1.36457768      -0.68019493      -0.00088666      -0.00264684      -0.00164336
H        2.30880718       0.00254583      -0.98275268       0.00102830       0.00155721       0.00129906
H        3.28340291      -1.40801093       1.09959600       0.00165578      -0.00171090      -0.00137563
H        3.02291724      -2.76839786       0.00356087      -0.00182123      -0.00131464      -0.00226406
H        0.73060367      -1.50481406       0.95810005       0.00054360       0.00096321       0.00030608
H        0.15999262       0.92143509      -1.59519488      -0.00149384       0.00285751       0.00265385
H        4.50830515       0.47563899       0.26764194       0.00249783      -0.00294266      -0.00027269
H        5.79085692       0.17419117      -0.87883205       0.00162820      -0.00379803      -0.00055833
H        1.59739776      -2.19570896      -3.45536433      -0.00226240       0.00598340      -0.00238219
O        2.92072916       1.12480871       1.57520839       0.00277325       0.00009891      -0.00008681
H        2.20431226       0.44767328       1.49554055       0.00277623       0.00123633       0.00050582
H        2.97386204       1.37714787       2.50172757       0.00313117      -0.00037966      -0.00055043
44
Properties=species:S:1:pos:R:3:forces:R:3 product=T mapped+aligned=T onto=T reactant=T charge=0 spin=1 energy=-34183.276747118485 free_energy=-34183.276747118485 stress="-0.16581183111530173 0.026617919011193352 0.0054602366405733585 0.026617919011193352 -0.2541398867546173 -0.0794601129943279 0.0054602366405733585 -0.0794601129943279 -0.11427068229607616" pbc="F F F"
O       -3.07436974       0.28890192      -1.39290085      -0.01360394      -0.00276126      -0.01060668
O       -2.69196133       1.03759506       2.09614216       0.00006340      -0.00032943       0.01297223
O       -1.68593870      -2.03946559      -0.27832094       0.00646880      -0.01565197       0.02180657
O       -5.01431235       2.51484516       1.68156223      -0.00517001       0.00692993      -0.00251778
O       -0.22970953      -0.38400702      -1.76587234       0.02681003       0.00220003      -0.00955303
O        0.90864916       1.97296946      -0.88558131       0.00087213       0.00803431      -0.00731258
C       -2.88444006      -0.05841275      -0.03308345      -0.00453485      -0.00096306      -0.01286186
C       -3.20856879       1.18792010       0.78387127       0.00606345      -0.00511893       0.01600817
C       -1.53127753      -0.72055154       0.22505896      -0.00305188      -0.01454535      -0.01053091
C       -4.71006808       1.40184351       0.84397775      -0.00396608       0.01003573       0.00759110
C       -0.28085640      -0.06678056      -0.38641308       0.00351421      -0.00768364      -0.01622881
C       -0.25504466       1.45367228      -0.26159031       0.00956178       0.00619941      -0.01242868
H       -3.60390960      -0.83571708       0.26070250       0.00964985      -0.00252647      -0.00314816
H       -2.76299778       2.06614556       0.30145515       0.00198800      -0.01372950       0.00051397
H       -1.38781573      -0.73829079       1.31145406       0.00624345       0.00232655      -0.00447302
H       -5.11707058       1.52169220      -0.16214339      -0.00223694      -0.00081439       0.00211096
H       -5.17752808       0.53608813       1.31526083      -0.00530287      -0.00641021      -0.00867981
H       -2.68299388      -0.41649888      -1.92449310      -0.00622330       0.00504973      -0.00032750
H       -3.19342173       1.64574318       2.65519299       0.00147469       0.00781710      -0.00046790
H       -0.33256737       1.74985503       0.78794405       0.01032699       0.01006697      -0.01263018
H       -1.10369324       1.84871123      -0.81520882      -0.00998661       0.00524781       0.01274660
H       -0.84193170      -2.40411578      -0.58976682       0.00551057       0.00350868       0.01285726
H        1.61640563       2.01002045      -0.22366006      -0.01618978       0.00090680       0.00628209
H       -4.85648843       3.32546469       1.18754075      -0.00650587       0.00268725       0.00277280
O        2.35514140      -2.07519741      -2.59658648      -0.00795104      -0.00824743      -0.00558724
O        0.91110547      -3.05225093      -1.18922597      -0.01299000      -0.01867124      -0.01564630
O        5.20596661      -2.10353519      -0.75990725       0.02268970      -0.01604323      -0.01109980
N        0.88919713      -0.65130775       0.33828640       0.00024787      -0.00413953       0.00614622
N        4.91385241       0.03509396      -0.06589107       0.00845777       0.00968839      -0.00241518
C        2.02742528      -1.03821093      -0.48820207      -0.00670885      -0.01294656      -0.00492136
C        3.17487282      -1.56356614       0.40577280       0.00305409      -0.00192083      -0.00316383
C        1.67013977      -2.15207268      -1.45706306       0.00108503       0.01613666      -0.00807376
C        4.53667618      -1.26243304      -0.19747584      -0.01266356       0.00519295       0.01092181
H        2.36496300      -0.17070680      -1.05343226      -0.00101446      -0.01466136       0.00040274
H        3.10280706      -1.08191316       1.38015397      -0.00917945      -0.00882384       0.00232107
H        3.09198675      -2.64026883       0.54470054       0.00232791      -0.00182286       0.00664605
H        0.58880362      -1.47174159       0.85667998      -0.01561755       0.00181296      -0.00525207
H        0.25653049       0.33157848      -2.20034865       0.00429563       0.01794188       0.00976230
H        4.34012798       0.69682948       0.43472600       0.01350102      -0.00467834      -0.00259512
H        5.78637180       0.32386270      -0.47243202       0.00057960       0.00111050      -0.00110694
H        2.14854413      -2.86293542      -3.12279905      -0.00737077      -0.00307747       0.00439748
O        2.50346189       1.38177027       1.37101190       0.01278180       0.02100724       0.01133937
H        1.83369166       0.65801949       1.31096404       0.01409873       0.02189994       0.01311848
H        2.40024506       1.80135751       2.22993881      -0.02139875      -0.00023357       0.01091086
