44
Properties=species:S:1:pos:R:3:forces:R:3 reactant=T mapped=T (centered)=T charge=0 spin=1 energy=-34183.13667773158 stress="-0.4920049596591848 0.0956767245677301 0.0015032613201378525 0.0956767245677301 -0.3524775393004229 0.001887410237328115 0.0015032613201378525 0.001887410237328115 -0.06433593907076507" free_energy=-34183.13667773158 pbc="F F F"
O       -3.15211495       1.11521316      -1.58332098      -0.00611641      -0.00800757       0.00508529
O       -3.25594068       0.58244203       1.95586931      -0.00789741       0.00702094      -0.00349004
O       -1.63367160      -1.17537915      -1.47504931      -0.00155345       0.00699754       0.00265424
O       -5.18317732       2.53659166       1.82015871       0.00032399       0.00027138      -0.00643664
O        0.07501831       0.77833804      -1.13232013      -0.00545274      -0.00031238      -0.03666987
O        0.82908213       1.94232408       1.13034248      -0.00940759       0.00306509       0.00681037
C       -3.11555873       0.33903964      -0.40464810      -0.00730013      -0.00269733       0.00392321
C       -3.43428084       1.28369093       0.73743074      -0.00782140       0.00098980      -0.00106701
C       -1.77823751      -0.41685283      -0.28832106      -0.00867811       0.00048461       0.00117565
C       -4.85973290       1.80115617       0.64263101      -0.00045041      -0.00060528       0.00298200
C       -0.56871027       0.49470980      -0.14793482      -0.02109725      -0.00569538       0.01331097
C       -0.18277425       0.95736731       1.23071667      -0.00363693       0.00179070      -0.01147572
H       -3.88547075      -0.44329615      -0.43023345      -0.00736303       0.00250211      -0.00655255
H       -2.74887330       2.14408485       0.67981056      -0.00116035      -0.00742628       0.00745255
H       -1.81936490      -1.08313164       0.57485979      -0.01570287      -0.00447713      -0.00374665
H       -4.99349038       2.39361167      -0.26313013       0.00215112      -0.00223487       0.01091343
H       -5.54754538       0.95425619       0.61593089      -0.00342136       0.00538446      -0.00332624
H       -2.94555847       0.52365476      -2.31705626      -0.00034747       0.00476229      -0.00250847
H       -3.79582665       1.04038161       2.61493954       0.00190890       0.00506647       0.00420026
H       -1.05978286       1.31498977       1.77271197       0.00390580      -0.00001627      -0.00599102
H        0.17176274       0.05039816       1.73481267       0.00060123       0.01405332      -0.00551170
H       -0.92560897      -0.73894166      -1.97722709      -0.00207358       0.01255101       0.00718466
H        1.15774133       2.14327442       2.01137232      -0.00808433       0.00153880       0.00347905
H       -4.84535874       3.43311067       1.73054409      -0.00495056       0.00138777       0.00286917
O        3.49317285      -3.03627400      -1.90449746      -0.00936506      -0.01424516      -0.00235172
O        2.66563685      -4.15137557      -0.14037847       0.01159744      -0.02764988      -0.00235864
O        5.15699102      -1.79346764       0.22037091       0.03296276      -0.00677674       0.01164697
N        0.77513916      -2.08905087       0.23581941       0.00967652      -0.01057422       0.00443688
N        4.69250216       0.22738427      -0.68863120       0.00701351      -0.00004345       0.00883983
C        2.03874593      -1.84566957      -0.44737835       0.00795964      -0.00901141       0.00656927
C        2.92728088      -0.98259611       0.46356629       0.01293999      -0.00738965       0.00501469
C        2.75530087      -3.14415807      -0.78881319      -0.00261775       0.01352363      -0.01431088
C        4.37007723      -0.89030849      -0.00731277      -0.00555753       0.01794836       0.00245951
H        1.84845146      -1.30160129      -1.37467066       0.00054233      -0.01268321       0.00548606
H        2.46396300       0.00068495       0.54214828       0.01367853      -0.00351633       0.00783132
H        2.95085677      -1.45067527       1.44913976       0.00624765      -0.00227441       0.00856966
H        0.94021826      -2.78670035       0.95620843       0.00021826      -0.01636965       0.00115350
H        0.10516023      -2.49830966      -0.40824542       0.00532238       0.00173155       0.00269799
H        4.02046010       0.96812304      -0.86442204      -0.00129660      -0.00584144      -0.00668210
H        5.63336210       0.30225140      -1.03606821      -0.00426396       0.00518243      -0.00012138
H        4.03045616      -3.83985855      -1.97265697      -0.00727945      -0.01007800      -0.00819614
O        2.60129246       2.21721965      -1.15369021       0.00207525       0.04326752      -0.01224258
H        2.05833195       1.93461812      -1.89733377       0.01255804       0.00537341      -0.00504893
H        1.97007551       2.18873051      -0.41604479       0.02121226       0.00303287       0.00134139
44
Properties=species:S:1:pos:R:3:forces:R:3 reactant=T mapped=T (centered)=T charge=0 spin=1 energy=-34183.14049880618 pbc="F F F"
O       -3.19732217       1.09795672      -1.60071611       0.00027930       0.00016309       0.00011358
O       -3.28944619       0.62199300       1.94538818       0.00032068      -0.00031162       0.00013476
O       -1.58448920      -1.14292763      -1.42270114       0.00005467       0.00000931      -0.00029082
O       -5.37100363       2.41270482       1.77436672       0.00144923       0.00084163       0.00077148
O        0.06031845       0.85901086      -1.13226735      -0.00030178       0.00062103      -0.00060801
O        0.84382454       2.03362532       1.11400623      -0.00041523       0.00134842      -0.00041688
C       -3.14106910       0.33794735      -0.41213690       0.00036541       0.00011152       0.00010478
C       -3.52871242       1.27823489       0.71287910       0.00086126       0.00019097       0.00027464
C       -1.77280839      -0.35225401      -0.26342598       0.00028731      -0.00010454      -0.00015623
C       -4.99173551       1.67723955       0.61408023       0.00107118       0.00122731       0.00035706
C       -0.59120170       0.60328874      -0.14528237       0.00031787      -0.00006310      -0.00038240
C       -0.23706961       1.12714136       1.21844173       0.00101244      -0.00118381      -0.00003746
H       -3.86964261      -0.48301438      -0.44325162       0.00011281       0.00025478       0.00026142
H       -2.91379598       2.18802993       0.63200344       0.00152017      -0.00017541       0.00052955
H       -1.79822768      -0.99301908       0.61974790       0.00035961      -0.00021218      -0.00021715
H       -5.17523117       2.23470707      -0.30493861       0.00151753       0.00194093       0.00067388
H       -5.60895421       0.77716197       0.61002400       0.00041611       0.00163084      -0.00023809
H       -2.97071146       0.50639869      -2.32829256       0.00014179       0.00017500       0.00005380
H       -3.85167874       1.05847670       2.60025028       0.00027987      -0.00031293       0.00012943
H       -1.11404147       1.58101012       1.68428511       0.00019368      -0.00351587       0.00210469
H        0.02776346       0.23892258       1.80267149       0.00388273      -0.00216090      -0.00145790
H       -0.89480763      -0.68889072      -1.93557996      -0.00016513       0.00020240      -0.00044124
H        1.10741193       2.30319609       1.99850039      -0.00205338       0.00438599      -0.00044059
H       -5.13202333       3.33651099       1.65214926       0.00229169       0.00076501       0.00142443
O        3.31703517      -2.95734545      -2.03628064       0.00070114      -0.00121644       0.00029618
O        2.51265839      -4.15718518      -0.31975823       0.00268862      -0.00083630       0.00189922
O        5.32064367      -1.97130094       0.07043987      -0.00167553       0.00073927       0.00026157
N        0.87007379      -1.95783540       0.38483840      -0.00085167      -0.00181035      -0.00104279
N        4.81544490       0.08278239      -0.73699210      -0.00036204       0.00144444       0.00116232
C        2.11110470      -1.77860371      -0.35712753      -0.00060227      -0.00100573      -0.00062133
C        3.14691533      -1.11255205       0.56210527      -0.00174156       0.00098150      -0.00056319
C        2.65774391      -3.10191293      -0.87562870       0.00122235      -0.00051809       0.00043264
C        4.53718759      -1.04515844      -0.05154301      -0.00121967       0.00114660       0.00033026
H        1.92425477      -1.12572851      -1.21203652      -0.00098409      -0.00183845      -0.00117029
H        2.77111499      -0.12045476       0.81566071      -0.00273224       0.00103562      -0.00191509
H        3.23322750      -1.70835760       1.47193988      -0.00198824       0.00213575       0.00022732
H        1.02234670      -2.68102743       1.08246809      -0.00081704      -0.00207814      -0.00124692
H        0.15214969      -2.31770865      -0.23776049      -0.00059281      -0.00175349      -0.00146031
H        4.13697598       0.82860261      -0.85457380       0.00034179       0.00221804       0.00186826
H        5.70686204       0.13522092      -1.19950302       0.00036700       0.00186174       0.00223814
H        3.73516310      -3.80842867      -2.23662119       0.00203710      -0.00081907       0.00116086
O        2.73956880       2.13219944      -1.08404479      -0.00016991       0.00162018       0.00182275
H        2.17468728       1.90506637      -1.83033222       0.00298241       0.00079380      -0.01045194
H        2.10949556       2.14627704      -0.34545246      -0.01040309      -0.00792858       0.00452567
44
Properties=species:S:1:pos:R:3:forces:R:3 reactant=T mapped=T (centered)=T charge=0 spin=1 energy=-34183.10087155645 pbc="F F F"
O       -3.15193695       1.17484259      -1.62482000       0.00322231       0.00028477      -0.00002935
O       -3.31065614       0.59999664       1.90025445       0.00193168      -0.00062215      -0.00013633
O       -1.53776609      -1.09217168      -1.43338298       0.00176184      -0.00067918      -0.00037166
O       -5.51542230       2.25773000       1.73484381       0.00388832       0.00046267       0.00078549
O        0.12830403       0.86019530      -1.07735420       0.00298837      -0.00149616       0.00215152
O        0.91304056       1.93708919       1.21925684      -0.00362326       0.00611089      -0.00142479
C       -3.13189058       0.37166192      -0.46362091       0.00221107      -0.00017917      -0.00029632
C       -3.59188641       1.25876719       0.67828196       0.00278282      -0.00008559      -0.00016201
C       -1.76192143      -0.30395512      -0.27995432       0.00161013      -0.00134198       0.00009527
C       -5.07954840       1.55160769       0.57680891       0.00315338       0.00138081      -0.00011001
C       -0.58031600       0.64651477      -0.11739911       0.00170108      -0.00204096       0.00159330
C       -0.30798510       1.23102258       1.24008905       0.00114227      -0.00223803       0.00145388
H       -3.83845838      -0.46339551      -0.56033820       0.00149440       0.00055299      -0.00082597
H       -3.04544491       2.21198365       0.61630179       0.00372098      -0.00057856       0.00009290
H       -1.81124694      -0.94650238       0.60113809       0.00066880      -0.00189125      -0.00030414
H       -5.30031703       2.09383866      -0.34368671       0.00368987       0.00272877       0.00045727
H       -5.62947732       0.60887202       0.57162294       0.00221195       0.00193311      -0.00120684
H       -2.91052892       0.61031929      -2.36888953       0.00352225       0.00047647      -0.00008524
H       -3.89279736       0.99439775       2.56399073       0.00188331      -0.00044983      -0.00031652
H       -1.14617182       1.87374752       1.52591661      -0.00238208      -0.00921187       0.00500812
H       -0.28956022       0.38918207       1.93697981       0.00947791      -0.00354723      -0.00105303
H       -0.81983549      -0.65159724      -1.91819935       0.00278609      -0.00115119       0.00073061
H        1.21699676       2.03400791       2.12566276      -0.00651241       0.01883430       0.01414623
H       -5.34736459       3.19691126       1.61205022       0.00520887       0.00038282       0.00207827
O        3.18870067      -2.95532628      -2.03206516       0.00053882      -0.00124737      -0.00045278
O        2.32784314      -4.11177650      -0.31394231       0.01002500       0.00292603       0.00071557
O        5.42182680      -2.04038692      -0.04100407      -0.00756588       0.00196607       0.00267614
N        0.93706380      -1.78897076       0.50944159      -0.00444491      -0.00852050      -0.00205601
N        4.84762144      -0.04004684      -0.93413758      -0.00445724       0.00068942      -0.00161891
C        2.14843614      -1.70458747      -0.29619361      -0.00467927      -0.00304205      -0.00174213
C        3.28943221      -1.14214922       0.56487380      -0.00769430       0.00418400      -0.00243560
C        2.55203796      -3.06225294      -0.85505710       0.00131993      -0.00924386       0.00395285
C        4.62807798      -1.12304412      -0.15888733      -0.00625910       0.00215021       0.00008395
H        1.97211419      -1.02904776      -1.13588721      -0.00764156      -0.00593760      -0.00288995
H        2.99472278      -0.14052552       0.88083907      -0.01087405       0.00531540      -0.00891436
H        3.41410609      -1.77885412       1.44187895      -0.00824249       0.00929712       0.00132380
H        1.09881677      -2.46195943       1.25325908      -0.00260327      -0.00966333      -0.00344321
H        0.19167657      -2.18445145      -0.05740392      -0.00351865      -0.00914819      -0.00278696
H        4.14752384       0.68393759      -1.06019436      -0.00283731       0.00228311      -0.00169386
H        5.68206536      -0.03469400      -1.49533558      -0.00334511      -0.00067858       0.00035337
H        3.51005144      -3.83908308      -2.26654355       0.00530123      -0.00071815       0.00179744
O        2.75564054       2.01577058      -1.16822999       0.00097587       0.00365318       0.00149705
H        1.84563779       1.67422382      -1.13245115       0.00964198       0.00859369      -0.00061314
H        2.78879552       2.61815833      -0.41851325      -0.00217994      -0.00049310      -0.00602416
44
Properties=species:S:1:pos:R:3:forces:R:3 reactant=T mapped=T (centered)=T charge=0 spin=1 energy=-34183.17514959857 pbc="F F F"
O       -3.24903674       1.30303520      -1.61328770      -0.00039525       0.00102069      -0.00302487
O       -3.51638212       0.46306935       1.85305355       0.00805476       0.00346904      -0.00224101
O       -1.64216813      -0.97653034      -1.54211198      -0.00417935       0.00011652      -0.00698881
O       -5.63988676       2.23471508       1.75792915       0.00641298      -0.00064688       0.00453797
O       -0.00058722       0.95127840      -1.01308066       0.00634133      -0.01175400      -0.00464460
O        0.87354817       1.59475526       1.45042290       0.00020622      -0.01053454      -0.00204729
C       -3.26272128       0.42496173      -0.50780724       0.00031515       0.00121378      -0.00301338
C       -3.72230042       1.23839869       0.68690359       0.00364318       0.00185618      -0.00230892
C       -1.90010118      -0.26857850      -0.34533508      -0.00040461      -0.00073789      -0.00596751
C       -5.18889363       1.61533652       0.55724561       0.00287461       0.00030077       0.00283141
C       -0.73534536       0.67791607      -0.08615811       0.00198994      -0.00377835      -0.00599610
C       -0.44717905       1.15111561       1.32154545      -0.00317958       0.00275525      -0.00741709
H       -3.97861297      -0.39144246      -0.66957926      -0.00102350       0.00223251      -0.00169719
H       -3.12868657       2.16389294       0.72819234       0.00279193       0.00229538      -0.00543254
H       -1.97126010      -0.97051543       0.48907210       0.00006539      -0.00128632      -0.00641380
H       -5.34248095       2.25024884      -0.31650637      -0.00083962       0.00025359       0.00372346
H       -5.78361057       0.70747716       0.44170136       0.00372255      -0.00023754       0.00471465
H       -2.98402629       0.78804312      -2.38486149      -0.00304117       0.00030238      -0.00338330
H       -4.09579358       0.83033156       2.53438377       0.00983811       0.00380310      -0.00090969
H       -1.11237082       1.98008963       1.57225606       0.00271965       0.00945793      -0.01815473
H       -0.68873211       0.33455117       2.00860142      -0.01562697       0.01094667      -0.00392443
H       -0.91456815      -0.50130645      -1.97687307      -0.00096216      -0.00382897      -0.00584526
H        1.42649241       0.83287525       1.21757645      -0.01807308      -0.00576598       0.05453821
H       -5.41644244       3.17005314       1.73209199       0.00437378      -0.00032952       0.00382513
O        3.21590816      -3.08554357      -1.86688742      -0.00201739       0.00893967      -0.00111238
O        2.15523816      -4.01584237      -0.12321449       0.00620148       0.00504140       0.00137553
O        5.71385947      -2.02522338      -0.17089837      -0.00311411       0.00267120      -0.00037758
N        1.17521481      -1.48216415       0.63457182       0.00238172      -0.00134667       0.00777113
N        4.96508964      -0.06787475      -1.03456561       0.00120254       0.00097626      -0.00789356
C        2.35949045      -1.61413667      -0.20708782      -0.00121548       0.00494934       0.00208434
C        3.59842851      -1.20520971       0.60185682      -0.00042657       0.01094676      -0.00291921
C        2.54705218      -3.04040266      -0.70650946       0.00182757       0.00666938       0.00065125
C        4.86949567      -1.15179128      -0.23233163      -0.00085780       0.00456701      -0.00397191
H        2.25600090      -0.95454539      -1.07130005      -0.00835048       0.00486619       0.00306984
H        3.40468409      -0.22473191       1.04088163      -0.00055508       0.01411921      -0.01101300
H        3.76196212      -1.92479646       1.40481656       0.00010351       0.01677543       0.00199159
H        1.27855860      -2.10342333       1.43242497       0.00544630      -0.00927829       0.00107635
H        0.37250219      -1.84241498       0.12413668       0.00043876       0.00354740       0.00758915
H        4.23241043       0.62884702      -1.08690326       0.00092101       0.00036482      -0.01192986
H        5.75295206      -0.01381495      -1.65635590       0.00082536      -0.00360195      -0.00892650
H        3.39334272      -4.01782362      -2.06504317       0.00027658       0.00992574      -0.00210114
O        2.72288045       1.92701979      -1.10732725      -0.00091725      -0.01382515      -0.00554689
H        1.76972065       1.77820808      -0.98582401       0.00260888      -0.03308072      -0.00235028
H        2.87635460       2.83189273      -0.81981584      -0.01040416      -0.03435092       0.04777312
44
Properties=species:S:1:pos:R:3:forces:R:3 reactant=T mapped=T (centered)=T charge=0 spin=1 energy=-34183.28255971113 pbc="F F F"
O       -3.40696365       1.10178708      -1.60756567       0.00458806       0.00377068      -0.00010576
O       -3.37769006       0.50169181       1.92721592      -0.00085139      -0.00393577      -0.00140514
O       -1.69323432      -1.11866214      -1.48612676      -0.00027013      -0.00233700      -0.00027564
O       -5.54280097       2.20764376       1.86126827       0.00385129       0.00081651       0.00103836
O       -0.00749408       0.83067105      -1.32074879       0.00039483      -0.00223034      -0.00169813
O        0.92874731       1.37839199       1.28191860      -0.00007972      -0.00999496       0.00181231
C       -3.26461837       0.32010148      -0.43918814       0.00158976       0.00110867      -0.00147490
C       -3.66826948       1.19920061       0.72979010       0.00253765      -0.00027261      -0.00006242
C       -1.85316398      -0.27983980      -0.36307221       0.00027503      -0.00170591      -0.00070300
C       -5.15215394       1.52622365       0.67307045       0.00366328       0.00445031      -0.00115545
C       -0.72500751       0.74092662      -0.34717411       0.00046730      -0.00244946      -0.00078630
C       -0.43153351       1.52241834       0.92587410       0.00188672      -0.00246089      -0.00148668
H       -3.93938803      -0.54507425      -0.46546963      -0.00030489       0.00269458      -0.00382981
H       -3.09868080       2.13998177       0.68221790       0.00538652      -0.00182285       0.00291304
H       -1.78373908      -0.86378141       0.56098712      -0.00107106      -0.00132846      -0.00042077
H       -5.38761641       2.09681973      -0.22577334       0.00703435       0.00896907       0.00084947
H       -5.71903353       0.59348433       0.65716988       0.00063532       0.00640411      -0.00603045
H       -3.19468567       0.53392923      -2.35830741       0.00397869       0.00494333      -0.00117582
H       -3.91814360       0.90783647       2.61867283      -0.00160931      -0.00506218      -0.00130791
H       -0.62027465       2.58080777       0.73167179       0.00910384      -0.00228867      -0.00316794
H       -1.09430529       1.19028762       1.72769367      -0.00087711       0.00255387      -0.00261053
H       -0.97421910      -0.72654250      -2.00990411      -0.00001169      -0.00312030      -0.00040742
H        1.10276654       0.41027133       1.28661567      -0.00475885      -0.01066680       0.00263658
H       -5.37430772       3.14860126       1.75452327       0.00761079       0.00060810       0.00553698
O        3.20110083      -2.70344593      -1.99625142      -0.00536304       0.00007723      -0.00074681
O        1.88298378      -3.81442535      -0.56035815       0.01807584      -0.00047782       0.01021718
O        5.70540824      -2.12282851      -0.07876302      -0.00603289       0.00421152      -0.00803761
N        1.17678614      -1.43782928       0.72408801      -0.00155037      -0.00690810       0.00367296
N        5.06424673      -0.09016208      -0.84828845      -0.00480234       0.00708730      -0.00119468
C        2.34570451      -1.48159269      -0.15382756      -0.00277483      -0.00165369       0.00215162
C        3.60783979      -1.26469217       0.69040750      -0.00238967       0.00559407      -0.00030657
C        2.43345138      -2.80188269      -0.90218055      -0.00078162      -0.01135163       0.00739586
C        4.89869237      -1.21248781      -0.11653125      -0.00406314       0.00551146      -0.00332245
H        2.26487364      -0.67819618      -0.88803573      -0.00806961      -0.00416129       0.00083888
H        3.48098258      -0.33098609       1.24242290      -0.00475143       0.00739125      -0.00410161
H        3.71281577      -2.08247404       1.40453521       0.00110053       0.00867891       0.00258185
H        1.30773032      -2.11110351       1.47384073       0.00127050      -0.00775182       0.00250377
H        0.36929260      -1.77976987       0.20868135      -0.00178517      -0.00772677       0.00460072
H        4.36168228       0.63997791      -0.88279906      -0.00389658       0.00822648       0.00325869
H        5.88317186      -0.02977149      -1.42822941      -0.00619659       0.00760805      -0.00319234
H        3.29409491      -3.59257275      -2.37061275       0.00022490      -0.00123436       0.00233619
O        2.80192786       1.86598744      -0.83879661      -0.00315680       0.00301853       0.00634667
H        2.09092261       1.71482426      -1.47419192       0.00971983       0.01152143      -0.01010028
H        2.31210170       1.91625502      -0.00047025      -0.01794683      -0.01430394      -0.00158443
44
Properties=species:S:1:pos:R:3:forces:R:3 reactant=T mapped=T (centered)=T charge=0 spin=1 energy=-34183.209160759034 pbc="F F F"
O       -3.68016482       0.81210567      -1.56750861       0.00228446       0.00245085      -0.00090687
O       -3.30323972       0.64462060       1.99376556      -0.00118561      -0.00177338      -0.00061102
O       -1.89855800      -1.35135430      -1.35614555      -0.00056459       0.00027581      -0.00173328
O       -5.44721967       2.35831429       1.93581730       0.00100229       0.00137518      -0.00118106
O       -0.28914468       0.65362806      -1.60241372       0.00337556      -0.00235588       0.00250767
O        0.88120368       1.26731457       0.94379091       0.00159171      -0.00081047       0.00107235
C       -3.40284366       0.18361244      -0.33257481       0.00033301       0.00078508      -0.00127120
C       -3.69480216       1.20251858       0.75307222       0.00060197      -0.00002101      -0.00042602
C       -1.97758398      -0.38809661      -0.32705428      -0.00036830      -0.00091156      -0.00065703
C       -5.17304827       1.55594665       0.79031149       0.00101473       0.00168583      -0.00141824
C       -0.88675385       0.64929300      -0.55080567       0.00111361      -0.00209900       0.00209535
C       -0.46257656       1.55700986       0.59558749       0.00059796      -0.00315668       0.00292116
H       -4.06277912      -0.67952073      -0.17800453      -0.00090433       0.00141047      -0.00281880
H       -3.12261924       2.11999476       0.54386478       0.00194925      -0.00047112       0.00105932
H       -1.80144468      -0.85871550       0.64567851      -0.00184477      -0.00223830      -0.00096045
H       -5.47579195       2.04470803      -0.13601901       0.00230918       0.00251390      -0.00145013
H       -5.75605254       0.64162153       0.91358021      -0.00015178       0.00223477      -0.00238403
H       -3.51887082       0.16208024      -2.26210249       0.00253936       0.00304966      -0.00147599
H       -3.78908530       1.12787458       2.67622043      -0.00093120      -0.00163908      -0.00048764
H       -0.50672033       2.59237900       0.25314983      -0.00199160      -0.00261128       0.00488858
H       -1.12306473       1.42852145       1.45455574       0.00160194      -0.00604220       0.00328495
H       -1.27650801      -0.98418796      -2.00852706       0.00126070      -0.00015033      -0.00024985
H        0.96548294       0.28420252       0.98093736       0.00238016      -0.00068760       0.00169257
H       -5.25463176       3.27779206       1.72883954       0.00190268       0.00135061      -0.00067736
O        3.27970920      -2.64523603      -2.14109251      -0.00242188      -0.00096630      -0.00036597
O        2.12303154      -3.87191197      -0.65928311       0.00998993       0.01386489       0.00003369
O        5.53651439      -2.26502739      -0.03456328      -0.00094601       0.00405677      -0.00284344
N        1.08067703      -1.51794045       0.47334603       0.00000287      -0.00189451       0.00161771
N        5.19989969      -0.10035844      -0.61658423      -0.00264947       0.00311270      -0.00314500
C        2.32422037      -1.49776621      -0.29739846      -0.00129932       0.00058340       0.00072196
C        3.49216915      -1.23896939       0.66585147      -0.00032231       0.00185804      -0.00073999
C        2.54838834      -2.81103323      -1.03102340      -0.00674928      -0.02062219       0.00806966
C        4.84877701      -1.26039003      -0.02349015      -0.00043859       0.00195500      -0.00221229
H        2.27036245      -0.69341257      -1.03478963      -0.00294637      -0.00238348      -0.00023999
H        3.32394020      -0.27709241       1.15279284      -0.00142015       0.00234085      -0.00205104
H        3.50714768      -2.02553117       1.42145806       0.00134804       0.00291573       0.00029487
H        1.15570269      -2.23637475       1.18807086       0.00072174      -0.00202075       0.00179740
H        0.31816500      -1.82159012      -0.12827751      -0.00089305      -0.00199904       0.00264146
H        4.58295775       0.70340028      -0.61359268      -0.00342236       0.00238829      -0.00313493
H        6.05115129      -0.08739613      -1.15121016      -0.00324316       0.00334513      -0.00416555
H        3.48468443      -3.52596873      -2.48995380      -0.00209012      -0.00310193       0.00151385
O        3.17949555       2.06265011      -0.43344955      -0.00170033       0.00392021      -0.00324035
H        2.32163762       1.86927159      -0.00753146      -0.00119013       0.00127896      -0.00316671
H        3.42818588       2.93901424      -0.12729598       0.00175368      -0.00079597       0.00780181
44
Properties=species:S:1:pos:R:3:forces:R:3 reactant=T mapped=T (centered)=T charge=0 spin=1 energy=-34183.048558363116 pbc="F F F"
O       -3.83486894       0.57669462      -1.41841580      -0.04242087       0.00558141       0.00195300
O       -3.03665127       0.73847900       2.07198212      -0.01394568      -0.00312057      -0.00505126
O       -2.04866979      -1.58361648      -1.21985831      -0.00603614       0.02684635      -0.01728193
O       -5.19821252       2.44832920       2.08944720      -0.00813311       0.00716965       0.00685814
O       -0.51602600       0.41288948      -1.86269598      -0.03176609       0.04748138      -0.00425427
O        0.89925598       1.37022416       0.51999133      -0.01353845      -0.01786436      -0.00829671
C       -3.41539769       0.05525049      -0.17201388      -0.02865276       0.00480674      -0.00362067
C       -3.58339620       1.17150531       0.84028344      -0.01957882       0.00228464      -0.00082641
C       -2.00156495      -0.52575120      -0.28526562      -0.02061186       0.02774084      -0.01743466
C       -5.04955420       1.52246680       1.01712602      -0.01650661       0.00747929       0.00563862
C       -0.96938259       0.49571909      -0.74387629      -0.05856960       0.06874181      -0.03397612
C       -0.47674704       1.55566039       0.23500158      -0.01851418       0.03255402       0.00440159
H       -4.05130392      -0.78466345       0.13310185      -0.01925848      -0.00119751       0.00189182
H       -3.05480988       2.06554079       0.47508973      -0.01676336       0.00066409      -0.00150798
H       -1.70097404      -0.91141908       0.69284232       0.00471823       0.03419052      -0.01875899
H       -5.46478773       1.90197316       0.08325690      -0.01779258       0.00910979       0.00691287
H       -5.59697935       0.62477528       1.30916163      -0.01810748       0.00884321       0.00643955
H       -3.81445619      -0.14668461      -2.05539797       0.01002741      -0.00348439      -0.01454279
H       -3.43246813       1.29351981       2.75783443      -0.00883417      -0.00467348      -0.00086465
H       -0.59413734       2.52647756      -0.24665020       0.00069411       0.05527807       0.03069013
H       -1.05714959       1.52165529       1.15650461      -0.01171845       0.02269653       0.00909925
H       -1.59908189      -1.25426323      -2.01616577       0.03976477       0.01543164      -0.01096836
H        1.00025648       0.40939485       0.68289505      -0.02858546      -0.04012367      -0.05002865
H       -5.04546088       3.33803744       1.75721767      -0.00017210       0.00612312       0.00736129
O        3.55669976      -2.31297878      -2.17138067       0.02733575      -0.02077732      -0.00995699
O        2.07073125      -3.63927731      -1.13695421       0.03673162      -0.02387672      -0.00638014
O        5.25047368      -2.43407028       0.43547630       0.02871824       0.00475245       0.00307910
N        0.90318212      -1.41814933       0.06794599       0.02794446      -0.03829652      -0.01009203
N        5.27750149      -0.20829511       0.00550810       0.00762169       0.00407349      -0.00632846
C        2.27300064      -1.34886434      -0.42652688       0.02709797      -0.02762136      -0.00569767
C        3.21943155      -1.22802246       0.77589145       0.01848203      -0.01249359      -0.00204157
C        2.60769485      -2.57177975      -1.26225204       0.03126984      -0.02884535      -0.00539211
C        4.68410386      -1.35735210       0.39345901       0.01944227      -0.00039404       0.00007558
H        2.37161848      -0.46558642      -1.06309370       0.01811597      -0.02650025      -0.00656455
H        3.03190096      -0.27285203       1.27036208       0.00485406      -0.01163113      -0.00710125
H        2.99943611      -2.03611705       1.47410986       0.02397653      -0.01217194       0.00034436
H        0.80102697      -2.25418465       0.63547073       0.05248940      -0.02590448       0.04284129
H        0.28714509      -1.56626355      -0.72790249       0.01729028      -0.07057682       0.14452237
H        4.74026276       0.63906349      -0.13431980      -0.00047315      -0.00075456      -0.00598811
H        6.21038711      -0.27544194      -0.36372159       0.00724966       0.01138714      -0.00911669
H        3.78471039      -3.15303539      -2.59657836       0.02091150      -0.01956305      -0.01811001
O        3.42678436       2.08322222      -0.46186677      -0.00838866      -0.00342195       0.00045648
H        2.49563312       1.99005044      -0.18906335      -0.00816420      -0.00565363       0.00028282
H        3.65084312       3.00773963      -0.32596072      -0.00820366      -0.00428949       0.00733478
44
Properties=species:S:1:pos:R:3:forces:R:3 reactant=T mapped=T (centered)=T charge=0 spin=1 energy=-34182.6683598355 pbc="F F F"
O       -3.43678996       0.54847350      -1.44214317       0.08261170       0.00042011      -0.01321564
O       -2.86215796       0.73333144       2.10664672       0.02332060      -0.02077067      -0.00053564
O       -2.00915432      -1.82702247      -1.12542244       0.02548446      -0.02699300       0.00169831
O       -5.04234705       2.39653764       2.04948993       0.02471085      -0.01974595      -0.01843269
O       -0.19060564      -0.04386064      -1.84091104       0.06858868      -0.05011014       0.01767629
O        1.03599147       1.51047426       0.60114739       0.01888682       0.04344094       0.01959782
C       -3.13680930       0.01084656      -0.15623403       0.05237313      -0.01055769      -0.00944290
C       -3.36409604       1.13900925       0.84682725       0.03787699      -0.01609178      -0.00489124
C       -1.80707955      -0.80200345      -0.16358304       0.04026340      -0.03900389       0.01603956
C       -4.84987200       1.46452494       0.98671812       0.03565909      -0.01823799      -0.01799238
C       -0.39724769      -0.17624550      -0.43907335       0.09274453      -0.08717615       0.05547201
C       -0.28990961       1.21681507       0.18751795       0.02680127      -0.03771942       0.00492054
H       -3.86774531      -0.76893715       0.09270046       0.03671728      -0.00337627      -0.02993541
H       -2.85367100       2.04511100       0.49269556       0.03850063      -0.01301924       0.00593336
H       -1.74858778      -1.27871141       0.81560817      -0.00199054      -0.05394493       0.01612847
H       -5.26210386       1.83617865       0.04759732       0.04257831      -0.01646121      -0.02024048
H       -5.39279480       0.56400357       1.28106844       0.03363094      -0.01860505      -0.02316019
H       -3.97481735      -0.08574404      -1.92426358       0.03486121       0.02194381       0.00109003
H       -3.28327290       1.30482020       2.76383016       0.01766738      -0.02103104      -0.00384904
H       -0.58630784       1.97515793      -0.53629936      -0.00726527      -0.07179206      -0.03004065
H       -0.93894712       1.26769682       1.06062755       0.02017228      -0.03143563       0.00015413
H       -2.00958558      -1.36751695      -1.97955128       0.02522492      -0.12007894       0.09974415
H        1.27412552       0.76322349       1.16692181       0.04550238       0.08015790       0.08317500
H       -4.93566484       3.29112531       1.71246186       0.02931719      -0.01899341      -0.01462007
O        3.29683621      -2.15163986      -2.04878250      -0.06453602       0.01766278       0.02510780
O        1.76560289      -3.42561744      -1.00936781      -0.10517976       0.09260869      -0.00609190
O        4.97716448      -2.41896536       0.44063546      -0.04048038      -0.00194486      -0.00242572
N        0.61386887      -1.07864678       0.15446416      -0.03825114       0.07359257       0.03491624
N        5.15511026      -0.19554215       0.05620495      -0.02809978      -0.00519147      -0.00981209
C        1.99492623      -1.10060757      -0.36919322      -0.04585423       0.04869342       0.02008513
C        3.01539971      -1.09000043       0.80187902      -0.02970487       0.01124340       0.00781036
C        2.30085517      -2.36241810      -1.17232905      -0.09164010       0.02647956       0.01336662
C        4.47562077      -1.30940705       0.40580043      -0.03292887      -0.00264225      -0.00356914
H        2.17246796      -0.24309544      -1.01569930      -0.02843208       0.04446181       0.02343883
H        2.93768573      -0.14023434       1.33111549      -0.00913203       0.00479628       0.02240331
H        2.75685693      -1.89593414       1.48741845      -0.03522826       0.00652910      -0.00058975
H        0.27586203      -2.03484942       0.21279547      -0.07663321       0.05947129      -0.02383837
H        0.10577373      -0.91740898      -2.13032787      -0.10278599       0.12623300      -0.22087418
H        4.68160806       0.68750583      -0.09589407      -0.02050448      -0.00109788      -0.00849279
H        6.09544335      -0.31860249      -0.28014212      -0.02892959      -0.01231615      -0.01079590
H        3.60486115      -3.01403468      -2.36941062      -0.08411346       0.01562250       0.02404061
O        3.47175818       2.16338700      -0.49091340       0.00377270       0.01461362      -0.00933005
H        2.54592748       2.04681841      -0.20452411       0.00471389       0.01882430      -0.00626910
H        3.68582133       3.08200496      -0.30810774       0.00970929       0.01154191      -0.00435335
44
Properties=species:S:1:pos:R:3:forces:R:3 reactant=T mapped=T (centered)=T charge=0 spin=1 energy=-34183.172763761744 pbc="F F F"
O       -3.24496429       0.60536058      -1.49374078       0.01614754       0.00727802      -0.00569674
O       -2.91385543       0.59811226       2.07436735      -0.00097239      -0.01511508      -0.00450887
O       -1.83933327      -1.78435939      -1.12078819       0.01373913       0.00691239      -0.00755214
O       -5.09579019       2.27883403       1.93239474       0.00191078      -0.00823690      -0.00877069
O       -0.07845897       0.11200940      -1.71598173       0.01221499       0.01521197       0.01029046
O        1.01415944       1.73807861       0.63031170      -0.00162286       0.01916615       0.00324091
C       -3.05454843      -0.01444229      -0.23581446       0.00731146      -0.00217398      -0.00943267
C       -3.34884187       1.05663564       0.80662924       0.00388254      -0.00835290      -0.00415334
C       -1.71810908      -0.76258172      -0.12643608       0.00767390       0.00320493      -0.00083999
C       -4.83640749       1.36855034       0.86544364       0.00442014      -0.00738863      -0.00909433
C       -0.36078844      -0.03824319      -0.34296649       0.00331172       0.01231848       0.00690121
C       -0.31338324       1.35555220       0.28802794      -0.00184681       0.01172199       0.00883217
H       -3.79730175      -0.81214309      -0.09348976       0.00568994      -0.00342288      -0.01915818
H       -2.82243586       1.97751078       0.52461443       0.00620801      -0.00744244       0.00255028
H       -1.69732501      -1.19639589       0.87840014       0.00393329       0.00437428       0.00038199
H       -5.18832210       1.75277039      -0.09283522       0.00881918      -0.00631912      -0.01049017
H       -5.38669242       0.45794876       1.10791882       0.00274512      -0.00728811      -0.01218557
H       -3.22344523      -0.08443032      -2.16550235       0.06745999       0.00101537      -0.02586170
H       -3.37226579       1.14110125       2.73020589      -0.00190681      -0.01710257      -0.00332090
H       -0.69021771       2.08632075      -0.42377283      -0.00856343       0.01000870       0.01037069
H       -0.91744435       1.35584571       1.19430979       0.00218064       0.00623530       0.01174891
H       -1.08223343      -2.38502728      -1.08073270       0.09159649      -0.11061087       0.08868631
H        1.31551363       1.05269441       1.24358186       0.00344143       0.02495803       0.00818434
H       -4.92607899       3.17570987       1.62839560       0.01087560      -0.00878112      -0.00620069
O        3.05701811      -2.16248669      -2.02758478      -0.02073472      -0.00556546       0.00598506
O        1.11400778      -3.01488874      -1.30867055      -0.06420296       0.03666534      -0.02910495
O        4.94661638      -2.53250036       0.37568967      -0.00006457      -0.00561004      -0.00049012
N        0.65366241      -0.86281399       0.34588091       0.00220523       0.01877334       0.01699786
N        5.09877500      -0.31785001      -0.07460486      -0.00868310      -0.00718603      -0.01265692
C        1.95812929      -0.99665189      -0.28108293      -0.00444797       0.00854746       0.00841272
C        3.01858470      -1.18607737       0.82230922      -0.00105599      -0.00830379       0.00294516
C        1.97430002      -2.16658879      -1.25091624      -0.03113664       0.01625051      -0.00646612
C        4.44471546      -1.42377431       0.34430177      -0.00336386      -0.00710240      -0.00341835
H        2.18509039      -0.10387464      -0.86135443      -0.00031348       0.01150201       0.01378201
H        2.99529000      -0.29010067       1.44555189       0.00190612      -0.01321609       0.01171985
H        2.74387258      -2.03813089       1.44323583      -0.00137562      -0.01294013      -0.00294980
H        0.30161326      -1.78775361       0.56016391       0.00040983       0.02132153       0.02984411
H       -0.46632437      -0.64543174      -2.17555888      -0.06402612       0.02987748      -0.00915788
H        4.62762111       0.57147523      -0.19059074      -0.01018439      -0.00758039      -0.01036660
H        6.01667259      -0.44616358      -0.46480859      -0.01007629      -0.00597737      -0.01651417
H        3.07921162      -2.98860258      -2.53333999      -0.04819962      -0.00321355      -0.01123759
O        3.49111228       2.14946551      -0.51113342      -0.00055013       0.00253238      -0.00392814
H        2.55329076       2.14705771      -0.24234128      -0.00135802       0.00992772      -0.00391836
H        3.78531091       3.06027957      -0.42768805       0.00660283       0.00112638      -0.00339900
44
Properties=species:S:1:pos:R:3:forces:R:3 reactant=T mapped=T (centered)=T charge=0 spin=1 energy=-34183.285232026705 pbc="F F F"
O       -3.04007918       0.50257723      -1.50803044      -0.00190120      -0.00061287      -0.00051323
O       -3.13577027       0.60191087       2.07458120       0.00232539      -0.00002631      -0.00037228
O       -1.62202063      -1.83258901      -0.84577714      -0.00095415       0.00002720      -0.00240971
O       -5.33365377       2.21741512       1.59187355       0.00297657       0.00104597       0.00304171
O       -0.01621437       0.18216930      -1.51386152      -0.00038729      -0.00023196      -0.00131606
O        0.98740641       1.92347514       0.75768675      -0.00008217      -0.00146561      -0.00002160
C       -2.96404594      -0.06087889      -0.21039028      -0.00077987      -0.00035988      -0.00048565
C       -3.40866044       1.02830187       0.75182179       0.00082177       0.00001061      -0.00007471
C       -1.61739004      -0.73624460       0.06621691      -0.00065231      -0.00057685      -0.00164967
C       -4.89589861       1.29981454       0.59286291       0.00079797       0.00102665       0.00203151
C       -0.30146221       0.05361833      -0.14011601      -0.00055248      -0.00060279      -0.00137741
C       -0.32535392       1.45943650       0.46866630      -0.00015322      -0.00075075      -0.00096112
H       -3.68352881      -0.88570884      -0.11617008      -0.00097176      -0.00008078       0.00044736
H       -2.86658754       1.95500677       0.52575812       0.00105696      -0.00036125      -0.00092369
H       -1.64255751      -1.08239900       1.10502702      -0.00030000      -0.00132306      -0.00190278
H       -5.11234612       1.65724828      -0.41484582      -0.00039967       0.00161205       0.00248119
H       -5.45058716       0.37626311       0.76738944       0.00028680       0.00146010       0.00253608
H       -2.88096105      -0.20485298      -2.14237713      -0.00243247      -0.00082423      -0.00046953
H       -3.70423237       1.12798730       2.65289472       0.00322978       0.00029578       0.00029402
H       -0.76660229       2.15337690      -0.24281299       0.00065536      -0.00028323      -0.00102537
H       -0.91123108       1.44076316       1.39075892      -0.00058868      -0.00070438      -0.00127765
H       -0.81163884      -2.36393022      -0.74980710      -0.00081761       0.00008564      -0.00307251
H        1.36630170       1.23132419       1.32125038      -0.00085413      -0.00161464       0.00027191
H       -5.12653560       3.11208919       1.30510340       0.00411385       0.00093437       0.00348957
O        2.71391245      -2.02307037      -2.18190893       0.00310381      -0.00120566       0.00125763
O        0.95386442      -2.91189407      -1.13624561      -0.00032574       0.00065191      -0.00281553
O        4.91400868      -2.68939276      -0.02168088       0.00140464       0.00131993       0.00401858
N        0.77325265      -0.69785676       0.55793172      -0.00103299      -0.00111420      -0.00131542
N        5.06549587      -0.46218867      -0.41018600      -0.00009981       0.00122221       0.00307698
C        1.99067358      -0.94012137      -0.19218620      -0.00035906      -0.00037276      -0.00045561
C        3.12886305      -1.30435484       0.77589514      -0.00109871       0.00013150       0.00064724
C        1.80988132      -2.05739701      -1.20709037       0.00077323      -0.00024169      -0.00083356
C        4.45580072      -1.56636902       0.07723983       0.00016760       0.00107332       0.00260608
H        2.25994396      -0.04305570      -0.74531051      -0.00037072      -0.00016711      -0.00016714
H        3.23584506      -0.47448568       1.47634536      -0.00246437       0.00013434       0.00089699
H        2.87231910      -2.20357558       1.33574113      -0.00123794       0.00000772       0.00035701
H        0.43356014      -1.56712627       0.95015182      -0.00126835      -0.00152673      -0.00241928
H       -0.45768771      -0.55553897      -1.95923643      -0.00067546       0.00015704      -0.00167052
H        4.61047236       0.44213602      -0.40533005      -0.00069910       0.00099870       0.00203073
H        5.88576269      -0.59965039      -0.97539168       0.00120765       0.00175334       0.00473319
H        2.59822047      -2.81731805      -2.72602044       0.00356473      -0.00105521       0.00090370
O        3.52486003       2.12281601      -0.36762474      -0.00148694       0.00031961      -0.00172422
H        2.57621466       2.21518801      -0.16255377      -0.00123137      -0.00039928       0.00006057
H        3.91838614       2.97708120      -0.17024327      -0.00230832       0.00163337      -0.00592807
44
Properties=species:S:1:pos:R:3:forces:R:3 reactant=T mapped=T (centered)=T charge=0 spin=1 energy=-34183.34420277431 pbc="F F F"
O       -2.91512697       0.23592567      -1.49952707      -0.00171595      -0.00521463       0.00044832
O       -3.18091891       0.78718050       2.05152670      -0.00234163       0.00156612      -0.00065287
O       -1.63041894      -2.02268367      -0.43031529       0.00039608      -0.00095591       0.00082289
O       -5.36553549       2.30102651       1.34152339       0.00236456       0.00543281      -0.00657810
O       -0.06951769       0.06697477      -1.43683835      -0.00137173       0.00174704       0.00312207
O        1.00791717       1.85463391       0.84082595       0.00149586      -0.00491908       0.01241205
C       -2.92742333      -0.14396029      -0.12081080      -0.00078318      -0.00192397       0.00120158
C       -3.40581063       1.05613088       0.67992823       0.00042637       0.00015669      -0.00155783
C       -1.59984289      -0.79220942       0.27296890      -0.00060365      -0.00139130       0.00189719
C       -4.88922401       1.29910549       0.44733974       0.00129741       0.00302036      -0.00451944
C       -0.30475509      -0.01108374      -0.04084528      -0.00022468      -0.00115941       0.00340175
C       -0.31128608       1.40224046       0.57453683       0.00115611      -0.00193052       0.00634516
H       -3.66380938      -0.94250906       0.02709198      -0.00109722      -0.00132869       0.00374297
H       -2.85590692       1.95405414       0.36882828       0.00300661      -0.00136333      -0.00199601
H       -1.61895432      -0.96137878       1.35614515      -0.00148562      -0.00249095       0.00170118
H       -5.07939861       1.55720778      -0.59571303       0.00363803       0.00206650      -0.00534354
H       -5.44205061       0.39090194       0.69331722      -0.00138240       0.00445895      -0.00417874
H       -2.86894299      -0.58939763      -1.99955601      -0.00022424      -0.00602762       0.00225246
H       -3.78028370       1.36386989       2.54429985      -0.00150414       0.00371735      -0.00230795
H       -0.75090473       2.10770716      -0.12899387       0.00540871       0.00045165       0.00564917
H       -0.89312950       1.40019827       1.49970107      -0.00210062      -0.00250779       0.00449582
H       -0.73513779      -2.32071517      -0.67027780      -0.00053214      -0.00087816       0.00068888
H        1.40550077       1.13444513       1.35529191      -0.00138743      -0.00790831       0.01108132
H       -5.15237384       3.16865572       0.98480155       0.00458418       0.00456142      -0.00783399
O        2.65792541      -1.93992174      -2.29540373      -0.00058804       0.00475980      -0.00092873
O        0.95450593      -2.89973461      -1.21546750      -0.00006179       0.00172612      -0.00235412
O        4.93769567      -2.69368511      -0.19257859      -0.00007057       0.00105890      -0.00385105
N        0.80679783      -0.74946587       0.56806508      -0.00048495      -0.00300570       0.00226083
N        5.08313925      -0.44949840      -0.46811553      -0.00144032       0.00182286      -0.00377302
C        1.99734897      -0.94884957      -0.24121195      -0.00051230       0.00015834       0.00140371
C        3.15582764      -1.35403219       0.68527680       0.00097556       0.00033046      -0.00043288
C        1.78676523      -2.02595609      -1.29265641      -0.00020636       0.00218496      -0.00071457
C        4.47643360      -1.57875777      -0.03660947      -0.00017498       0.00109836      -0.00274995
H        2.24646995      -0.02599735      -0.76027997      -0.00218371       0.00152181       0.00297785
H        3.27066464      -0.56023571       1.42535879       0.00186908       0.00011358      -0.00031985
H        2.90746421      -2.28021441       1.20369819       0.00222881       0.00003360      -0.00032447
H        0.49696673      -1.64119061       0.93497306      -0.00040651      -0.00450917      -0.00091356
H       -0.89010663       0.38926549      -1.83707828      -0.00018094      -0.01352324       0.00377798
H        4.62712403       0.45239158      -0.41393477      -0.00207601       0.00201821      -0.00329805
H        5.90606962      -0.55553748      -1.03602589      -0.00299121       0.00227495      -0.00590556
H        2.52878150      -2.71282892      -2.86633148      -0.00038850       0.00594793      -0.00257233
O        3.54491993       2.13410587      -0.27331431       0.00009071       0.00385701      -0.00383918
H        2.59334576       2.20418463      -0.07595606      -0.00369398      -0.00185067       0.00550938
H        3.93919522       2.93963776       0.07234174       0.00327687       0.00680257      -0.00824696
44
Properties=species:S:1:pos:R:3:forces:R:3 reactant=T mapped=T (centered)=T charge=0 spin=1 energy=-34183.23567749307 pbc="F F F"
O       -3.03360197       0.06842719      -1.44506313       0.00509580      -0.00254596      -0.00565016
O       -3.04464473       0.93674511       2.05060015      -0.00390575      -0.00032928      -0.00385788
O       -1.61594598      -2.07606135      -0.24970727      -0.00050750       0.00024502      -0.00532249
O       -5.34452423       2.31709630       1.37741421      -0.00126736       0.00158003      -0.00678163
O       -0.14615867      -0.12947960      -1.57673591       0.01058381       0.00581022       0.00302410
O        0.93731501       2.02668398       0.25262393      -0.00145715       0.00848173       0.03819843
C       -2.94714260      -0.19683760      -0.04424703       0.00018073      -0.00075520      -0.00329962
C       -3.40552692       1.05637713       0.68618965      -0.00131087       0.00036376      -0.00500551
C       -1.57924074      -0.77446595       0.31225887      -0.00070190      -0.00143115      -0.00149373
C       -4.91203367       1.22279129       0.57343574      -0.00102322       0.00171355      -0.00727880
C       -0.33126131      -0.00664944      -0.17573176      -0.00072752       0.00193504       0.00207128
C       -0.36748036       1.47878066       0.21651585      -0.00408430       0.00143179       0.00893849
H       -3.64838688      -0.99830938       0.21880126      -0.00122623      -0.00027949      -0.00521551
H       -2.92850055       1.93808430       0.23960983      -0.00007809       0.00031892      -0.00410721
H       -1.51498482      -0.82579838       1.40555570      -0.00258258      -0.00418900      -0.00143377
H       -5.20964446       1.33847545      -0.47026475       0.00067853       0.00318185      -0.00780981
H       -5.39997470       0.33773304       0.98496361      -0.00252020       0.00174030      -0.00878931
H       -2.92739519      -0.78861176      -1.87842527      -0.02207283      -0.01587106      -0.00401315
H       -3.61193641       1.54960424       2.53727001      -0.00438481       0.00010470      -0.00440819
H       -0.93176053       2.04291743      -0.52517223       0.00790080       0.00713224      -0.00198088
H       -0.84524139       1.58718516       1.19368872      -0.02552191      -0.00543676       0.00538741
H       -0.73465547      -2.35632782      -0.55413072       0.00082872       0.00050564      -0.00333532
H        1.42240657       1.43165396       0.84124051       0.05143739      -0.09974755       0.10430885
H       -5.18919856       3.13751025       0.89947787       0.00262084       0.00218013      -0.00458217
O        2.51091238      -1.87505851      -2.43725277       0.00239883      -0.00285659       0.00277294
O        0.96576649      -2.90752211      -1.19273946      -0.00102290       0.00111967       0.00173146
O        4.80133299      -2.71138600      -0.44951345      -0.00028570      -0.00072413       0.00249185
N        0.82521035      -0.62483865       0.47977154       0.00001539       0.00217560       0.00083635
N        5.15940126      -0.47618918      -0.37645521       0.00023562      -0.00044296      -0.00698233
C        1.99720680      -0.89969395      -0.33405441      -0.00005576       0.00171734      -0.00007247
C        3.12893517      -1.35324684       0.60282359       0.00098148       0.00354339      -0.00029420
C        1.74131454      -1.99518590      -1.35721140       0.00033844       0.00028058       0.00140768
C        4.44208791      -1.59622705      -0.12298232       0.00015433       0.00066611      -0.00134766
H        2.29091131       0.00123614      -0.86900350      -0.00217980       0.00128239      -0.00200146
H        3.24917674      -0.57936143       1.36070829       0.00250283       0.00529167      -0.00209811
H        2.84569509      -2.28857544       1.08689600       0.00123781       0.00478262       0.00240991
H        0.55365846      -1.47141515       0.96536201       0.00100316       0.00316506       0.00317109
H       -0.92339419       0.25270570      -2.00168758      -0.08030316      -0.00353551      -0.00568137
H        4.81481550       0.43921674      -0.12686309       0.00223917       0.00087797      -0.00904502
H        6.00243458      -0.56837947      -0.91586155      -0.00057875      -0.00281816      -0.00823371
H        2.37080666      -2.66076025      -2.98742294       0.00207041      -0.00367751       0.00387616
O        3.71000064       2.01154257       0.50855538       0.01038887       0.00562031      -0.00791296
H        2.93864209       2.37862803       0.05357116       0.03457059       0.04626567      -0.03320605
H        3.88460379       2.60698655       1.24319087       0.02033474       0.03112699      -0.01938533
44
Properties=species:S:1:pos:R:3:forces:R:3 reactant=T mapped=T (centered)=T charge=0 spin=1 energy=-34183.17622170917 pbc="F F F"
O       -3.05516556       0.31039258      -1.40319116       0.00193300       0.00133194      -0.00128940
O       -2.95871949       0.80489588       2.15292552      -0.00070658      -0.00089148      -0.00015773
O       -1.66229732      -2.06617219      -0.30114056      -0.00132280      -0.00046898      -0.00260300
O       -5.28782658       2.24724015       1.65074530      -0.00050258       0.00008011      -0.00010358
O       -0.22397777      -0.29346049      -1.68028798       0.00189584       0.00144437      -0.00021467
O        0.88920526       1.97506635      -0.55952950       0.00084672       0.00000737       0.00768668
C       -2.93875226      -0.13235563      -0.06072466       0.00031396       0.00045413      -0.00088458
C       -3.36767160       1.03957772       0.81744896       0.00005612       0.00021050      -0.00039878
C       -1.57998188      -0.76230568       0.24799926      -0.00005471      -0.00032279      -0.00062807
C       -4.87576864       1.21151705       0.76142985      -0.00004221       0.00056018      -0.00082678
C       -0.31788799      -0.05493099      -0.28090610       0.00006864       0.00041528      -0.00012584
C       -0.35142355       1.44937942      -0.05760746      -0.00043767       0.00041637       0.00136407
H       -3.64364765      -0.95360985       0.12651343      -0.00018960       0.00031390      -0.00211994
H       -2.91014278       1.96299081       0.43956827       0.00049573       0.00038460       0.00029112
H       -1.48593940      -0.80414634       1.33884886       0.00002778      -0.00110025      -0.00011015
H       -5.19951505       1.39863797      -0.26425706       0.00026748       0.00131395      -0.00097299
H       -5.35243461       0.29836413       1.12104929      -0.00012871       0.00024384      -0.00146042
H       -2.57292391      -0.31906635      -1.95514009      -0.00259919      -0.00158075      -0.00029892
H       -3.51604889       1.36332556       2.71088911      -0.00089727      -0.00100104       0.00005636
H       -1.17871949       1.87184943      -0.62593362       0.00258588       0.00163353      -0.00078928
H       -0.46153177       1.66514103       1.00669711      -0.00440685      -0.00043871       0.00030851
H       -0.78169818      -2.41684092      -0.51573125       0.00193178      -0.00035146       0.00116687
H        0.75952032       2.89249727      -0.81731730       0.00004715      -0.01148739       0.00857475
H       -5.14720930       3.09766646       1.22366302      -0.00041378       0.00048978       0.00048143
O        2.48207053      -2.01421847      -2.40111914       0.00014936      -0.00155076       0.00012154
O        0.98358625      -3.01873775      -1.07611120      -0.00037197      -0.00014826       0.00086465
O        4.88427901      -2.66258122      -0.37306562       0.00087235      -0.00162464      -0.00030720
N        0.82318244      -0.62897767       0.44976151       0.00011818       0.00067975      -0.00031541
N        5.10180862      -0.40813762      -0.28109723       0.00027063       0.00001867      -0.00212203
C        2.00345064      -0.96665024      -0.31828593       0.00012023       0.00000500      -0.00023810
C        3.11258477      -1.40737553       0.65058494      -0.00000269      -0.00000881       0.00013116
C        1.74129288      -2.10455715      -1.29514203      -0.00010570      -0.00052121       0.00022081
C        4.45332741      -1.57355812      -0.04533984       0.00053287      -0.00070365      -0.00074347
H        2.34384589      -0.09785971      -0.87998866       0.00041545      -0.00034358      -0.00059310
H        3.17851602      -0.64576283       1.42613253      -0.00025436       0.00106300      -0.00014768
H        2.84794596      -2.36331876       1.10281157      -0.00019356      -0.00040305       0.00109770
H        0.53190164      -1.44575061       0.97441687       0.00040148       0.00150263       0.00103638
H        0.32875090       0.40648285      -2.05233484      -0.01289759      -0.00465924      -0.00026482
H        4.70664922       0.47775043       0.00377855       0.00081881       0.00072033      -0.00063838
H        5.96991272      -0.44210460      -0.78625443       0.00118471      -0.00021535      -0.00192156
H        2.33801782      -2.82183438      -2.91791003       0.00009221      -0.00198614       0.00065791
O        3.44828521       1.91790594       0.69871186       0.00382465       0.00247930       0.00253763
H        2.51974392       1.87421023       0.41057133       0.00485059       0.01478158      -0.00843727
H        3.42140626       2.13942187       1.63386756       0.00140600      -0.00074283       0.00211561
44
Properties=species:S:1:pos:R:3:forces:R:3 reactant=T mapped=T (centered)=T charge=0 spin=1 energy=-34183.252684729894 pbc="F F F"
O       -3.06344742      -0.10545502      -1.23357842      -0.00025946      -0.00277587      -0.00294836
O       -3.05369179       1.12944781       2.15343567       0.00591136      -0.00151109      -0.00244019
O       -1.39128579      -2.07182745       0.53582229       0.00626359       0.00347202       0.00957152
O       -5.23916333       2.53069864       1.15343925       0.00020094      -0.00638416       0.01015827
O       -0.33452692      -0.46376398      -1.54659339      -0.00453119      -0.00135539      -0.00215469
O        0.93456821       1.93108894      -0.85998095       0.00526837      -0.00448468       0.00390401
C       -2.84740184      -0.19135452       0.16544479      -0.00049952      -0.00084614      -0.00337565
C       -3.30853228       1.13720119       0.75960592       0.00056922      -0.00192643      -0.00095634
C       -1.44140795      -0.65111190       0.58077357      -0.00127794       0.00109683      -0.00104470
C       -4.79104650       1.34391704       0.49959985      -0.00067383      -0.00381169       0.00605789
C       -0.24145848      -0.06715288      -0.17849311      -0.00070644      -0.00137264      -0.00145711
C       -0.19066478       1.45734759      -0.14186852       0.00019606      -0.00178665      -0.00238304
H       -3.49670029      -0.96713523       0.59147165      -0.00135070       0.00013290      -0.00521320
H       -2.77179200       1.96761409       0.28536640      -0.00200362      -0.00114473      -0.00250262
H       -1.32618212      -0.36546273       1.63048352      -0.00338859       0.00547190      -0.00379526
H       -4.98810533       1.36960397      -0.57278366      -0.00547701      -0.00236617       0.00746246
H       -5.35509892       0.52186931       0.94299831       0.00281207      -0.00551776       0.00677722
H       -2.34621128      -0.56699875      -1.68470748       0.02328981       0.04047349      -0.00517573
H       -3.63932393       1.79343185       2.54087357       0.00582589      -0.00395122       0.00054913
H       -1.07038241       1.84347190      -0.65208694       0.00308394      -0.00057734      -0.00665601
H       -0.19671211       1.80865108       0.89352518      -0.00394837      -0.00112076      -0.00312348
H       -0.84887005      -2.38654229      -0.20374690      -0.02931040      -0.00259522      -0.00606781
H        1.68152591       1.97283936      -0.24122599      -0.01682947       0.01803596      -0.01288168
H       -5.01116939       3.28875616       0.60647420      -0.00337620      -0.00502590       0.01121347
O        2.12554761      -2.05808548      -2.61990049       0.00310353      -0.00225462       0.00070191
O        0.88834820      -3.07754711      -1.05546544       0.00462577      -0.00492764      -0.00054374
O        5.16358636      -1.99334676      -1.13026062      -0.00149004      -0.00085004       0.01193551
N        0.97761820      -0.63875968       0.45043169      -0.00342770      -0.00364397      -0.00284886
N        4.92664199       0.12044845      -0.34758857      -0.00230413      -0.00201125       0.00472813
C        2.03444257      -1.03235549      -0.48123173      -0.00131592      -0.00161248      -0.00046519
C        3.28095032      -1.52449866       0.28985864      -0.00266100       0.00191749       0.00306209
C        1.58992464      -2.15944393      -1.40209667       0.00253630      -0.00386275       0.00037678
C        4.55647733      -1.18172002      -0.46330279      -0.00204262      -0.00032106       0.00717080
H        2.30171666      -0.17149331      -1.09153748      -0.00136732      -0.00191442      -0.00068315
H        3.29700055      -1.04486597       1.26791749      -0.00486283       0.00414217       0.00054259
H        3.24655821      -2.60305256       0.43465563      -0.00287308       0.00397331       0.00554678
H        0.70125075      -1.46540711       0.97558494      -0.00651153      -0.00579857      -0.00767940
H        0.11926069       0.21118475      -2.07241035       0.00500098      -0.00850982      -0.00235960
H        4.41906270       0.75954158       0.24426196      -0.00155565      -0.00203666       0.00219802
H        5.73664446       0.43444454      -0.85325780      -0.00090320      -0.00438527       0.00816690
H        1.87202946      -2.84960298      -3.11930741       0.00676507      -0.00374647       0.00147449
O        2.61867712       1.43059235       1.37398196       0.01117650       0.00527393      -0.00599729
H        1.97139218       0.68549920       1.36861530       0.00697058       0.01895981      -0.01952532
H        2.50995081       1.89933400       2.20680192       0.01134801      -0.00852098       0.00068059
44
Properties=species:S:1:pos:R:3:forces:R:3 reactant=T mapped=T (centered)=T charge=0 spin=1 energy=-34183.36367776567 pbc="F F F"
O       -2.90968980      -0.51211799      -1.24179817      -0.00335216      -0.01019089       0.00211300
O       -3.14992318       1.30106927       1.85329596       0.00680834       0.00883382      -0.00946088
O       -1.46790414      -2.18582287       0.40734318       0.00231789       0.00033974      -0.00759055
O       -5.18161557       2.58458335       0.58848990      -0.00059179       0.00011021      -0.00776650
O       -0.27709839       0.15857048      -1.17931491      -0.00101791       0.01155210       0.00380096
O        0.98763103       2.01272358       0.24507538      -0.00601892       0.00755335       0.01296094
C       -2.85976013      -0.32500566       0.17654331      -0.00216032      -0.00352822       0.00078060
C       -3.28558454       1.10236258       0.46058235      -0.00238466      -0.00205395      -0.00656417
C       -1.50625614      -0.80086359       0.72956751      -0.00101940      -0.00125958      -0.00033166
C       -4.72470050       1.35394733       0.03252489      -0.00560996      -0.00607641       0.00315350
C       -0.24417826      -0.06280731       0.23407274      -0.00201783       0.00418930       0.00436218
C       -0.07329302       1.31354365       0.88855358      -0.00375835       0.00299944       0.01243326
H       -3.59671215      -0.98153896       0.65165872      -0.00087806      -0.00120217       0.00487266
H       -2.64401824       1.79985074      -0.09711129      -0.00690848      -0.00663047      -0.01694312
H       -1.53830035      -0.70260940       1.81843079      -0.00229462      -0.00666715       0.00032724
H       -4.80650601       1.34397431      -1.05514574      -0.01534937      -0.01907106       0.00490354
H       -5.37416802       0.57871184       0.44145488      -0.00162814      -0.00018112       0.01823285
H       -2.81661153      -1.46316125      -1.38876890      -0.00800939      -0.01746869       0.00715369
H       -3.76651728       2.00704770       2.09208941       0.01147005       0.01376892      -0.01162808
H       -0.98245320       1.90812224       0.84271657       0.01593173      -0.00398878       0.03914062
H        0.21234366       1.18048251       1.93020056      -0.02218190       0.00603633      -0.00845175
H       -0.75903822      -2.38331623      -0.23546951       0.00369438       0.00502263      -0.00762182
H        0.83223642       1.92576476      -0.70583582      -0.00368622       0.00734305       0.01021773
H       -4.85219754       3.31426458       0.05444114      -0.00766379      -0.00702624      -0.02042572
O        2.14556296      -1.79841887      -2.67835367       0.01169927       0.01837098       0.00173761
O        0.60018985      -2.78442319      -1.40903589       0.00219741       0.01434882      -0.01208565
O        4.99603538      -2.10486425      -1.35400459       0.00014589      -0.02232767       0.01609419
N        0.93245555      -0.85902494       0.58362440      -0.00141282       0.00272608       0.00250044
N        4.91648082      -0.00362126      -0.50828653       0.00237853      -0.01037211      -0.01392583
C        1.94553378      -1.02453744      -0.43435887       0.00085214       0.00813314       0.00379301
C        3.23571089      -1.58287057       0.20028113      -0.00205680       0.00325456       0.00482236
C        1.47362055      -1.95333947      -1.54270257       0.00437697       0.01406148      -0.00305913
C        4.47313105      -1.27860868      -0.63061601       0.00013058      -0.01103858       0.00300567
H        2.17068925      -0.06040663      -0.88490930       0.00281428       0.01067176       0.00956112
H        3.32221962      -1.11027406       1.17878922       0.00206912       0.00831313       0.00175983
H        3.17218416      -2.66321354       0.33043909      -0.01006500       0.00460612       0.01117634
H        0.66780708      -1.76000234       0.96112875      -0.00122876       0.00053887      -0.00230012
H       -1.18286503       0.00041569      -1.49990141      -0.00016690       0.01470174       0.00621338
H        4.52569379       0.63871688       0.17180275       0.00537752      -0.00320105      -0.01914280
H        5.73272857       0.25963668      -1.03243170       0.00649761      -0.02021938      -0.01248840
H        1.84752783      -2.48466549      -3.29517011       0.01560198       0.02071994      -0.00306368
O        3.47671791       1.70437260       1.42966080       0.00583884      -0.01051019      -0.01249021
H        3.73086141       2.53268305       1.84534842       0.00537404      -0.01391101      -0.00619472
H        2.60202969       1.86467016       1.02509856       0.00588493      -0.01127067      -0.00358232
44
Properties=species:S:1:pos:R:3:forces:R:3 reactant=T mapped=T (centered)=T charge=0 spin=1 energy=-34183.25093158057 pbc="F F F"
O       -3.10579607      -0.84131433      -0.97984568      -0.00037170      -0.00721155       0.00314836
O       -2.99770112       1.57197998       1.66714345      -0.00110303       0.00525864      -0.00417018
O       -1.24193415      -2.07622373       0.71221823       0.00481927       0.00221857       0.00465010
O       -5.22252563       2.51994317       0.39705825      -0.00571095      -0.00318315      -0.00534774
O       -0.36317317       0.04970889      -1.27381337      -0.00051056       0.00609358       0.00096211
O        0.85610174       2.19951490      -0.23507035       0.00215579       0.00353462       0.00459576
C       -2.84155650      -0.37656580       0.32637204       0.00068988      -0.00115186       0.00230154
C       -3.30090438       1.06720368       0.37702525      -0.00202445      -0.00051844      -0.00272601
C       -1.40285194      -0.66348134       0.79493780       0.00182536       0.00265228       0.00213356
C       -4.79371448       1.18628360       0.12034249      -0.00290819      -0.00398820      -0.00086136
C       -0.22684477       0.08044078       0.12723135       0.00072641       0.00374871       0.00128619
C       -0.12171225       1.54714658       0.56294393       0.00120059       0.00344806       0.00361595
H       -3.45712735      -0.93113040       1.04943116       0.00279530      -0.00013190       0.00579868
H       -2.77617032       1.63792968      -0.40235729      -0.00422016      -0.00254486      -0.00638494
H       -1.36802662      -0.40874066       1.85882920       0.00186642       0.00435583       0.00190459
H       -5.03282945       0.88443764      -0.89942151      -0.00411721      -0.00880118       0.00034902
H       -5.33704656       0.54534583       0.81617653      -0.00009267      -0.00245951       0.00309649
H       -2.77437409      -1.74482216      -1.03551131      -0.00186986      -0.00892879       0.00701004
H       -3.59664485       2.31660667       1.81449311      -0.00212354       0.00573291      -0.00627180
H        0.11950807       1.59875927       1.62646212      -0.00116154       0.00337837       0.00241635
H       -1.05854937       2.06812772       0.40989724       0.00322997       0.00355678       0.00571081
H       -0.71740406      -2.32162283      -0.07191231       0.00149131       0.00344706       0.00032551
H        1.70959417       2.12534727       0.21911514       0.00034491       0.00262962       0.00264894
H       -4.99106812       3.08054220      -0.35014126      -0.00985833      -0.00581360      -0.00901601
O        1.92980180      -1.69837601      -2.75044418      -0.00070263       0.00654686      -0.00351695
O        0.59436986      -2.75348572      -1.30254766      -0.00292705       0.00587293      -0.00605588
O        5.04066539      -2.00087742      -1.47887413       0.00005272      -0.00665776       0.00078363
N        1.03425333      -0.60999274       0.55793108       0.00102972       0.00262478      -0.00075128
N        4.89141128       0.06398301      -0.55595357       0.00311504      -0.00616506       0.00100912
C        1.97130999      -0.92571275      -0.51341781       0.00024646       0.00226219      -0.00161946
C        3.24459657      -1.58672150       0.06549124      -0.00160550      -0.00237252      -0.00178872
C        1.39035850      -1.87629675      -1.54701831      -0.00140632       0.00522399      -0.00386672
C        4.48517979      -1.21974015      -0.73485209       0.00043015      -0.00519005       0.00005129
H        2.24793667      -0.00394044      -1.02341170       0.00258850       0.00256673      -0.00000141
H        3.37048160      -1.24470536       1.09265473      -0.00148991      -0.00412223      -0.00091837
H        3.15391564      -2.67167692       0.07459293      -0.00477468      -0.00225060      -0.00335283
H        0.78338678      -1.47279716       1.03291975       0.00095788       0.00247715      -0.00098055
H        0.10488892       0.83108073      -1.60760623      -0.00276397       0.00465955       0.00153064
H        4.45084141       0.66278144       0.12617026       0.00367195      -0.00526129       0.00088382
H        5.69517378       0.38513369      -1.06669688       0.00535804      -0.00834109       0.00295688
H        1.58686868      -2.39194524      -3.33483359      -0.00153845       0.00806712      -0.00511300
O        2.90133519       1.26378782       1.48483253       0.00446693      -0.00116875       0.00187938
H        2.21036689       0.55699650       1.45700264       0.00500840       0.00268908       0.00019034
H        2.95560922       1.57708835       2.39245580       0.00520980      -0.00678287       0.00150427
44
Properties=species:S:1:pos:R:3:forces:R:3 product=T mapped+aligned=T onto=T reactant=T charge=0 spin=1 energy=-34183.2767472868 stress="-0.16701155201545365 0.02799923570103069 0.0069985959558203775 0.02799923570103069 -0.261067574653125 -0.07164445545353507 0.0069985959558203775 -0.07164445545353507 -0.1061440056273688" free_energy=-34183.2767472868 pbc="F F F"
O       -3.10535418       0.13082324      -1.34723685      -0.01371147      -0.00369961      -0.01017322
O       -2.68141480       1.08172900       2.08733043       0.00030736       0.00038772       0.01295868
O       -1.63469017      -2.09506950      -0.13320501       0.00728167      -0.01425372       0.02250358
O       -5.04997890       2.47258513       1.63690622      -0.00540073       0.00663289      -0.00279610
O       -0.25057239      -0.48728495      -1.73732548       0.02656577       0.00236409      -0.01017699
O        0.83891814       1.94381762      -1.01009676       0.00052200       0.00763424      -0.00775574
C       -2.88192704      -0.13541108       0.02571753      -0.00473222      -0.00179167      -0.01269973
C       -3.22516012       1.14545839       0.77896681       0.00647911      -0.00406491       0.01615465
C       -1.50692908      -0.74666446       0.29379221      -0.00284728      -0.01517618      -0.00965958
C       -4.73060258       1.32313201       0.85611091      -0.00410281       0.01033629       0.00710565
C       -0.28576818      -0.09543007      -0.37667582       0.00343263      -0.00847765      -0.01584300
C       -0.29898541       1.42976193      -0.33619774       0.00916944       0.00575403      -0.01292935
H       -3.57471398      -0.91372224       0.37561268       0.00965810      -0.00244546      -0.00319043
H       -2.81221857       2.00688406       0.24048386       0.00236932      -0.01362111       0.00122859
H       -1.34374507      -0.70033138       1.37655464       0.00609871       0.00223607      -0.00471001
H       -5.15853059       1.37629404      -0.14705703      -0.00217586      -0.00075211       0.00219536
H       -5.16595774       0.47296384       1.38321521      -0.00527707      -0.00701587      -0.00821119
H       -2.70450558      -0.59253987      -1.84665839      -0.00636150       0.00485728      -0.00048721
H       -3.18916430       1.70667371       2.62163283       0.00124960       0.00782055      -0.00092001
H       -0.36583866       1.78161350       0.69675311       0.00982424       0.00961521      -0.01336493
H       -1.16774470       1.77118503      -0.89426691      -0.00989684       0.00568452       0.01262815
H       -0.78677539      -2.45429343      -0.44031216       0.00563672       0.00436250       0.01253854
H        1.55706679       2.03600520      -0.36496444      -0.01609576       0.00083075       0.00653151
H       -4.92300597       3.25837900       1.09609618      -0.00652529       0.00267160       0.00274239
O        2.36401375      -2.15394256      -2.52336423      -0.00782148      -0.00874510      -0.00496733
O        0.97225858      -3.08873151      -1.03685016      -0.01275616      -0.01984363      -0.01434150
O        5.24676503      -2.00589595      -0.74313243       0.02290840      -0.01603320      -0.01063061
N        0.91240784      -0.60810233       0.35641899       0.00046977      -0.00378562       0.00635830
N        4.90914460       0.15960249      -0.16231165       0.00815164       0.00975926      -0.00310891
C        2.04583485      -1.01044436      -0.46929566      -0.00644137      -0.01336603      -0.00407553
C        3.22282181      -1.45525113       0.42996717       0.00305290      -0.00200990      -0.00311110
C        1.70171849      -2.18530507      -1.36836119       0.00050377       0.01568751      -0.00896970
C        4.56501614      -1.15262780      -0.21503821      -0.01259604       0.00545523       0.01085678
H        2.34961822      -0.16713527      -1.08778231      -0.00061023      -0.01464161       0.00122921
H        3.15505641      -0.92230707       1.37758535      -0.00889415      -0.00891882       0.00297956
H        3.17164979      -2.52437950       0.62948073       0.00249330      -0.00139383       0.00669153
H        0.64363982      -1.40605986       0.92484433      -0.01575193       0.00111047      -0.00504189
H        0.20827997       0.21552888      -2.21978672       0.00398065       0.01856179       0.00867621
H        4.32667680       0.83290483       0.31209985       0.01357443      -0.00446104      -0.00259322
H        5.76614517       0.44803374      -0.60084380       0.00052434       0.00106058      -0.00117475
H        2.16953238      -2.97479399      -3.00137386      -0.00720621      -0.00302441       0.00469772
O        2.48904865       1.52059085       1.24447758       0.01240029       0.02192138       0.00991642
H        1.83819119       0.77739151       1.23723768       0.01373726       0.02296182       0.01161931
H        2.38977896       1.98436535       2.08085151      -0.02118704      -0.00018425       0.01131980
