44
Properties=species:S:1:pos:R:3:forces:R:3 reactant=T mapped=T (centered)=T charge=0 spin=1 energy=-34183.13667705039 stress="-0.49200500044235995 0.09567595007534176 0.0015036703270330117 0.09567595007534176 -0.3524757300069553 0.001888805672227315 0.0015036703270330117 0.001888805672227315 -0.06434024136183829" free_energy=-34183.13667705039 pbc="F F F"
O       -3.15211495       1.11521316      -1.58332098      -0.00611639      -0.00800735       0.00508537
O       -3.25594068       0.58244203       1.95586931      -0.00789834       0.00702196      -0.00348867
O       -1.63367160      -1.17537915      -1.47504931      -0.00155375       0.00699741       0.00265402
O       -5.18317732       2.53659166       1.82015871       0.00032357       0.00027106      -0.00643629
O        0.07501831       0.77833804      -1.13232013      -0.00545291      -0.00031341      -0.03666996
O        0.82908213       1.94232408       1.13034248      -0.00940764       0.00306407       0.00681029
C       -3.11555873       0.33903964      -0.40464810      -0.00730298      -0.00269617       0.00392219
C       -3.43428084       1.28369093       0.73743074      -0.00782141       0.00098983      -0.00106607
C       -1.77823751      -0.41685283      -0.28832106      -0.00867540       0.00048314       0.00117605
C       -4.85973290       1.80115617       0.64263101      -0.00045016      -0.00060481       0.00298066
C       -0.56871027       0.49470980      -0.14793482      -0.02109638      -0.00569388       0.01331158
C       -0.18277425       0.95736731       1.23071667      -0.00363774       0.00179163      -0.01147537
H       -3.88547075      -0.44329615      -0.43023345      -0.00736302       0.00250212      -0.00655250
H       -2.74887330       2.14408485       0.67981056      -0.00116032      -0.00742634       0.00745227
H       -1.81936490      -1.08313164       0.57485979      -0.01570302      -0.00447677      -0.00374640
H       -4.99349038       2.39361167      -0.26313013       0.00215110      -0.00223471       0.01091350
H       -5.54754538       0.95425619       0.61593089      -0.00342123       0.00538455      -0.00332565
H       -2.94555847       0.52365476      -2.31705626      -0.00034752       0.00476204      -0.00250837
H       -3.79582665       1.04038161       2.61493954       0.00191003       0.00506510       0.00419880
H       -1.05978286       1.31498977       1.77271197       0.00390587      -0.00001666      -0.00599096
H        0.17176274       0.05039816       1.73481267       0.00060167       0.01405348      -0.00551178
H       -0.92560897      -0.73894166      -1.97722709      -0.00207330       0.01255114       0.00718474
H        1.15774133       2.14327442       2.01137232      -0.00808441       0.00153884       0.00347880
H       -4.84535874       3.43311067       1.73054409      -0.00495047       0.00138769       0.00286896
O        3.49317285      -3.03627400      -1.90449746      -0.00936524      -0.01424470      -0.00235233
O        2.66563685      -4.15137557      -0.14037847       0.01159664      -0.02764861      -0.00235884
O        5.15699102      -1.79346764       0.22037091       0.03296369      -0.00677763       0.01164682
N        0.77513916      -2.08905087       0.23581941       0.00967779      -0.01057334       0.00443810
N        4.69250216       0.22738427      -0.68863120       0.00701514      -0.00004475       0.00883963
C        2.03874593      -1.84566957      -0.44737835       0.00795866      -0.00901897       0.00657003
C        2.92728088      -0.98259611       0.46356629       0.01293938      -0.00738763       0.00501571
C        2.75530087      -3.14415807      -0.78881319      -0.00261775       0.01352435      -0.01431049
C        4.37007723      -0.89030849      -0.00731277      -0.00555948       0.01795014       0.00245945
H        1.84845146      -1.30160129      -1.37467066       0.00054327      -0.01268087       0.00548296
H        2.46396300       0.00068495       0.54214828       0.01367920      -0.00351579       0.00783184
H        2.95085677      -1.45067527       1.44913976       0.00624739      -0.00227454       0.00856955
H        0.94021826      -2.78670035       0.95620843       0.00021761      -0.01636988       0.00115333
H        0.10516023      -2.49830966      -0.40824542       0.00532272       0.00173127       0.00269817
H        4.02046010       0.96812304      -0.86442204      -0.00129701      -0.00584184      -0.00668186
H        5.63336210       0.30225140      -1.03606821      -0.00426417       0.00518326      -0.00012141
H        4.03045616      -3.83985855      -1.97265697      -0.00727947      -0.01007817      -0.00819590
O        2.60129246       2.21721965      -1.15369021       0.00207508       0.04326737      -0.01224284
H        2.05833195       1.93461812      -1.89733377       0.01255831       0.00537356      -0.00504899
H        1.97007551       2.18873051      -0.41604479       0.02121215       0.00303279       0.00134173
44
Properties=species:S:1:pos:R:3:forces:R:3 reactant=T mapped=T (centered)=T charge=0 spin=1 energy=-34183.14200386723 pbc="F F F"
O       -3.20234379       1.08614209      -1.59628120      -0.00049874       0.00008666      -0.00008056
O       -3.29035379       0.62678121       1.95248365       0.00051969      -0.00053996      -0.00031956
O       -1.59254859      -1.15290447      -1.41687674      -0.00020763       0.00065430      -0.00101281
O       -5.35833664       2.43293008       1.77264518       0.00180410       0.00058232       0.00134714
O        0.05296065       0.85164164      -1.13442317      -0.00724336      -0.00232045       0.01024319
O        0.83469427       2.03843056       1.10162686      -0.00101307       0.00022646      -0.00056502
C       -3.14353150       0.33229048      -0.40390903      -0.00031975       0.00032871      -0.00050983
C       -3.52385872       1.28004111       0.71727689       0.00071496       0.00012734      -0.00004738
C       -1.77621988      -0.36057484      -0.25784582      -0.00025235      -0.00053982      -0.00054028
C       -4.98373099       1.68977253       0.61575747       0.00084788       0.00134164       0.00053613
C       -0.59413775       0.59421608      -0.14478091       0.00741018       0.00268726      -0.01239418
C       -0.23182581       1.11652897       1.21730061       0.00032009      -0.00084265       0.00078020
H       -3.87481506      -0.48649569      -0.42741643      -0.00025699       0.00024784      -0.00001195
H       -2.90180702       2.18472733       0.63335738       0.00136576      -0.00024634       0.00011102
H       -1.79964587      -1.00012980       0.62629812      -0.00016175      -0.00058022      -0.00127939
H       -5.16220913       2.24470983      -0.30572829       0.00105426       0.00238783       0.00112073
H       -5.60769802       0.79434028       0.61484124       0.00012481       0.00178225      -0.00011452
H       -2.97689952       0.49065290      -2.32101625      -0.00055848       0.00016529      -0.00040030
H       -3.84993063       1.06987650       2.60519729       0.00081155      -0.00041346      -0.00006192
H       -1.10898182       1.55496518       1.69722730      -0.00038529      -0.00293121       0.00156521
H        0.05363603       0.22864083       1.79266797       0.00207983      -0.00215235      -0.00112321
H       -0.90510210      -0.69908614      -1.93297461       0.00005079       0.00090045      -0.00106033
H        1.10567977       2.31209126       1.98259849      -0.00146147       0.00163258       0.00013902
H       -5.11242244       3.35438818       1.64651917       0.00235249       0.00064429       0.00210252
O        3.33783457      -2.95227186      -2.03438354       0.00002304      -0.00118259       0.00023231
O        2.52039826      -4.16166777      -0.33087562       0.00309625      -0.00333943       0.00382596
O        5.31638551      -1.96093377       0.09152490      -0.00101794      -0.00031268      -0.00029870
N        0.86379682      -1.97282091       0.36928149      -0.00053892      -0.00174933      -0.00022506
N        4.80705464       0.09030756      -0.72037744       0.00033961       0.00146993       0.00181004
C        2.10841441      -1.78483377      -0.36426539      -0.00028782      -0.00102749      -0.00024351
C        3.13368416      -1.11432384       0.56373853      -0.00135133       0.00116347      -0.00048878
C        2.66651732      -3.10384693      -0.88155543       0.00164958       0.00285151      -0.00065124
C        4.52891558      -1.03916885      -0.03744359      -0.00170665       0.00208963       0.00003709
H        1.92369060      -1.13122528      -1.21908917      -0.00117511      -0.00174413      -0.00073930
H        2.75096141      -0.12419164       0.81489041      -0.00213184       0.00140921      -0.00192321
H        3.21499583      -1.71024028       1.47394438      -0.00148299       0.00247814       0.00042044
H        1.01332312      -2.70236924       1.06084789      -0.00000348      -0.00167408      -0.00029368
H        0.14868284      -2.32675166      -0.25985260      -0.00014379      -0.00216526      -0.00043083
H        4.12727884       0.83434563      -0.84146146       0.00034400       0.00207514       0.00167637
H        5.70317068       0.14857027      -1.17299827       0.00047659       0.00175451       0.00221062
H        3.76258137      -3.80057271      -2.23263510       0.00138646      -0.00038016       0.00075163
O        2.73728059       2.14451401      -1.08292040      -0.00073295      -0.00004813       0.00032982
H        2.20570029       1.95014615      -1.86193091       0.00113683      -0.00173927      -0.00441430
H        2.07876151       2.13335878      -0.36898485      -0.00497718      -0.00315783      -0.00000954
44
Properties=species:S:1:pos:R:3:forces:R:3 reactant=T mapped=T (centered)=T charge=0 spin=1 energy=-34183.0944019178 pbc="F F F"
O       -3.16461309       1.12634049      -1.62051118       0.00059488       0.00100321      -0.00128718
O       -3.28349608       0.64400977       1.91992366       0.00372302      -0.00084563      -0.00095651
O       -1.52675021      -1.10777021      -1.40133260      -0.00199271      -0.00272729      -0.00262958
O       -5.50751027       2.28749813       1.71716473       0.00565789      -0.00045364       0.00357992
O        0.11022559       0.87738730      -1.09734656      -0.00308260      -0.00760214      -0.00021845
O        0.94308327       1.94832976       1.19323929      -0.00189275       0.01171011      -0.01445680
C       -3.12649945       0.35238157      -0.44009765       0.00170878       0.00087779      -0.00171097
C       -3.58353398       1.26497276       0.68246380       0.00390235       0.00068110      -0.00056106
C       -1.74891157      -0.30672506      -0.25570424       0.00149472      -0.00107008      -0.00334977
C       -5.07507513       1.53786517       0.58584874       0.00401680       0.00298164       0.00059865
C       -0.57445127       0.65864362      -0.12192736       0.01015309      -0.00044029      -0.01675513
C       -0.28512570       1.25230833       1.22858131       0.00362879       0.00010610      -0.00754746
H       -3.82692099      -0.49065931      -0.50948778       0.00116220       0.00115187      -0.00057211
H       -3.04745464       2.22152743       0.58854754       0.00514209       0.00029507      -0.00016935
H       -1.78360570      -0.93783747       0.63393927       0.00231729       0.00051535      -0.00253338
H       -5.31163257       2.03722996      -0.35481286       0.00452783       0.00687988       0.00241195
H       -5.61342580       0.58923189       0.62658677       0.00249050       0.00351375      -0.00262964
H       -2.91533803       0.54687676      -2.35043424      -0.00224151       0.00090178      -0.00241308
H       -3.86066243       1.05335503       2.57886222       0.00311641      -0.00167167      -0.00082343
H       -1.11529302       1.90590304       1.51404483      -0.00409865      -0.01029751      -0.00345453
H       -0.26736350       0.41900061       1.93602425       0.01642881      -0.00328256      -0.01083385
H       -0.82132983      -0.66056264      -1.89875175      -0.00201627      -0.00490026      -0.00512522
H        1.20291907       2.13838984       2.09795534      -0.00805858       0.02828059       0.06853363
H       -5.34965155       3.22211048       1.55290263       0.00464173       0.00041506       0.00588534
O        3.20443226      -2.89862888      -2.06386048      -0.00168271       0.00028366      -0.00152048
O        2.29667013      -4.10674384      -0.40610967       0.01606357       0.02481565      -0.00599928
O        5.40547602      -2.06649603      -0.01567324      -0.00998411       0.00994276      -0.00038679
N        0.92006419      -1.79915216       0.48405850      -0.00281755      -0.00730477      -0.00028692
N        4.86194655      -0.04259531      -0.87342825      -0.00436334       0.00692638       0.00004063
C        2.13735988      -1.69914609      -0.30939751      -0.00410344      -0.00010570      -0.00075346
C        3.27193760      -1.16519844       0.57763573      -0.00589070       0.00552074      -0.00154203
C        2.54104564      -3.04085357      -0.90517646      -0.00322599      -0.03394835       0.01483504
C        4.62092160      -1.14015773      -0.12562380       0.00043350      -0.00127894       0.00045793
H        1.97126668      -0.99904265      -1.13099051      -0.00688946      -0.00484951      -0.00167480
H        2.97971748      -0.16963590       0.91413174      -0.01003291       0.00596127      -0.00778486
H        3.37962236      -1.82257914       1.44152996      -0.00461087       0.00925087       0.00119104
H        1.07570422      -2.48397065       1.21812328      -0.00109465      -0.00933683      -0.00204295
H        0.17810016      -2.18327622      -0.09483077      -0.00237499      -0.00774848      -0.00086328
H        4.17435452       0.69406819      -0.99316916      -0.00451165       0.00375330      -0.00351133
H        5.70921480      -0.02965450      -1.41493906      -0.00277446       0.00448166       0.00075979
H        3.52782239      -3.77553707      -2.32006667       0.00151843      -0.00269393       0.00135996
O        2.78275488       2.04734483      -1.13069045      -0.00123397      -0.00180864      -0.01763299
H        1.91995011       1.69686696      -1.39741321      -0.00478349      -0.02255973       0.00608337
H        2.57405541       2.40458091      -0.25978909       0.00103457      -0.00532352       0.01628946
44
Properties=species:S:1:pos:R:3:forces:R:3 reactant=T mapped=T (centered)=T charge=0 spin=1 energy=-34183.09136028867 pbc="F F F"
O       -3.19802084       1.21625593      -1.59255444      -0.00078389       0.00061299      -0.00410272
O       -3.46571481       0.52056631       1.90505002       0.01389293       0.00457150      -0.00375879
O       -1.57308372      -1.03467186      -1.43633916      -0.00063033      -0.00196593      -0.00660732
O       -5.61939127       2.28073418       1.70532964       0.01037489      -0.00520015       0.00700953
O        0.04957176       0.93346288      -0.96018281      -0.00951257      -0.00319361      -0.01410208
O        0.91136450       1.68604830       1.45545291      -0.00314548       0.04204934      -0.04361543
C       -3.20884322       0.38111323      -0.45370702       0.00448758       0.00189342      -0.00430887
C       -3.68895903       1.23575809       0.70399243       0.00928925       0.00262287      -0.00327451
C       -1.84047495      -0.29432033      -0.25939242       0.00512742       0.00108736      -0.00819071
C       -5.16366247       1.57202474       0.55729323       0.00874041       0.00170986       0.00224327
C       -0.67982412       0.66238454      -0.02494805       0.01635644       0.00595254      -0.03109406
C       -0.38865729       1.17625418       1.36068093       0.01154939       0.00338450      -0.01898217
H       -3.91461764      -0.44895655      -0.59015567       0.00428397       0.00175625      -0.00006232
H       -3.11698279       2.17576250       0.70195702       0.00860842       0.00231752      -0.00674960
H       -1.90921570      -0.97207700       0.59400204       0.00867022       0.00431086      -0.00647610
H       -5.33804176       2.12757110      -0.36556385       0.00655369       0.00633386       0.00610729
H       -5.74001254       0.64558847       0.52483288       0.01031784       0.00143339      -0.00185477
H       -2.92398852       0.67262589      -2.34093467      -0.00342382       0.00111376      -0.00546243
H       -4.03792267       0.91808128       2.57509500       0.01103533       0.00132915      -0.00411496
H       -1.09507991       1.97830638       1.59743981      -0.00955795      -0.02544494       0.00312676
H       -0.58244819       0.36752211       2.07234388       0.05435412      -0.01125488      -0.02835739
H       -0.84520368      -0.56720045      -1.87861236      -0.00391344      -0.00249742      -0.01286163
H        1.45937292       1.22515539       0.80171902      -0.02958539       0.09524026       0.21558484
H       -5.39429527       3.21109254       1.60773801       0.00075885      -0.00341611       0.00825325
O        3.22973461      -3.02579128      -1.96392564      -0.00669781       0.00542246      -0.00347426
O        2.20044928      -4.08628884      -0.27701012       0.00856630      -0.00275578       0.00149475
O        5.57149127      -2.08536862      -0.10009776      -0.02231521       0.02728470       0.00298835
N        1.03469788      -1.63357702       0.52604506      -0.00234129      -0.00929711       0.00406241
N        4.92362549      -0.08052872      -0.92654354      -0.01156370       0.01255623      -0.00085327
C        2.25707476      -1.67349374      -0.26441653      -0.00590182      -0.00205983      -0.00006299
C        3.44512519      -1.23740935       0.60730203      -0.00948982       0.00858357      -0.00200809
C        2.54095645      -3.06615197      -0.81296385       0.00163967       0.00234979      -0.00197057
C        4.75506435      -1.18538663      -0.16320798       0.01141388      -0.01214980       0.00189058
H        2.15828796      -0.98630450      -1.10869798      -0.01288202      -0.00327594       0.00043143
H        3.21364165      -0.26156362       1.03733709      -0.01388865       0.00818169      -0.00981711
H        3.57599335      -1.95484602       1.41818536      -0.00612539       0.01236321       0.00125625
H        1.14814187      -2.24296543       1.33047061       0.00270293      -0.01506460      -0.00209433
H        0.27711244      -2.03856994      -0.01772496      -0.00376222      -0.00723039       0.00415541
H        4.22952259       0.65115767      -0.97970660      -0.01032139       0.00348407      -0.00703675
H        5.74107466      -0.03661438      -1.51010268      -0.00579364       0.00765891       0.00180612
H        3.47625856      -3.93689118      -2.18485026      -0.00376391       0.00710992      -0.00669703
O        2.75942334       2.10863189      -0.94805353       0.00569369      -0.01425698      -0.05023117
H        1.80065301       2.05967324      -1.08342353       0.01238009      -0.05877412      -0.02874501
H        2.96580247       3.04320659      -0.83915260      -0.05139739      -0.09487636       0.05655621
44
Properties=species:S:1:pos:R:3:forces:R:3 reactant=T mapped=T (centered)=T charge=0 spin=1 energy=-34183.22451311015 pbc="F F F"
O       -3.47641328       1.04886204      -1.61067821       0.00764327       0.00838305       0.00110246
O       -3.36487254       0.55770299       1.93935361      -0.00252749      -0.00866988      -0.00119238
O       -1.69944219      -1.08790716      -1.49246124       0.00111802      -0.00157423      -0.00055405
O       -5.58537702       2.20204741       1.85501310       0.00393765      -0.00016724       0.00047714
O       -0.01090632       0.85475834      -1.29606288       0.00066522       0.00041655      -0.00303939
O        0.91689370       1.48461065       1.25990512       0.00153335      -0.00802037       0.00517519
C       -3.29350556       0.30430950      -0.42456923       0.00373574       0.00267097      -0.00186833
C       -3.70337859       1.20458420       0.72580588       0.00394966      -0.00111188       0.00113595
C       -1.86655234      -0.26143182      -0.36108439       0.00232633      -0.00109949      -0.00091228
C       -5.19933725       1.47480600       0.69272668       0.00527869       0.00599372      -0.00289893
C       -0.74115532       0.76446415      -0.33075734       0.00252730      -0.00174429      -0.00123562
C       -0.45783289       1.53328865       0.95062554       0.00270008      -0.00041016      -0.00189329
H       -3.94606908      -0.57849016      -0.41683664       0.00176822       0.00411573      -0.00634238
H       -3.16902165       2.16249832       0.63459817       0.00835831      -0.00287132       0.00771882
H       -1.78234710      -0.85471056       0.55632402      -0.00008343      -0.00085489      -0.00051918
H       -5.48047470       1.98822385      -0.22721864       0.01167154       0.01377413      -0.00053282
H       -5.72898112       0.52139925       0.74091232       0.00033754       0.00829703      -0.01180786
H       -3.26153660       0.46324255      -2.34713944       0.01200895       0.01316507      -0.00141590
H       -3.89115197       0.98141454       2.63105952      -0.00515592      -0.01208722      -0.00104342
H       -0.73434391       2.57883050       0.79185349       0.01113965       0.00081577      -0.00713014
H       -1.07466321       1.13612114       1.75948190      -0.00266363       0.00623377      -0.00282161
H       -0.98532351      -0.68372204      -2.01368650       0.00388432      -0.00535360       0.00071101
H        1.15371629       0.53319371       1.24109183      -0.00342140      -0.00910768       0.00875742
H       -5.46212838       3.14208548       1.69303041       0.01023742       0.00028047       0.00792839
O        3.25170408      -2.68708759      -2.00913703      -0.00070134       0.00231200       0.00122091
O        1.74316791      -3.72187744      -0.71123165       0.03873297       0.02174303       0.00522560
O        5.75706618      -2.18841896       0.01626385      -0.02349820       0.02709475      -0.01328833
N        1.19468216      -1.36629517       0.66953088      -0.00222175      -0.00964855       0.00472885
N        5.14276106      -0.16941361      -0.80639103      -0.01532304       0.01328648      -0.00750148
C        2.37952008      -1.45399592      -0.18209122      -0.00468186      -0.00100748       0.00354125
C        3.63034271      -1.32675344       0.69518521      -0.00386449       0.00608877      -0.00011633
C        2.40512004      -2.75227683      -0.97204411      -0.02099378      -0.04673138       0.01440911
C        4.94721439      -1.28422039      -0.06816409       0.01457256      -0.01713269      -0.00300252
H        2.36112060      -0.62993243      -0.89681134      -0.01091859      -0.00611122       0.00084179
H        3.52550082      -0.41273741       1.28423256      -0.00578893       0.00569174      -0.00364149
H        3.68755232      -2.17489776       1.37857010       0.00307161       0.00669120       0.00095343
H        1.28318288      -2.04433156       1.42107521       0.00437467      -0.00504082       0.00855941
H        0.38978816      -1.68227178       0.13387472      -0.00236016      -0.01801815       0.00943177
H        4.43160522       0.54462916      -0.90619697      -0.00947953       0.00858007       0.00254900
H        5.97853882      -0.12405543      -1.36334100      -0.01292643       0.00963796      -0.00963401
H        3.27480905      -3.56243555      -2.42437571       0.00659576      -0.00443861       0.00672892
O        2.85629327       1.82423432      -0.90696631      -0.00594375       0.00473896       0.00756069
H        1.98728493       1.62602775      -1.28611429       0.00696796       0.00741255      -0.02328609
H        2.61694988       2.11592848      -0.01715586      -0.03658311      -0.01622260       0.00692095
44
Properties=species:S:1:pos:R:3:forces:R:3 reactant=T mapped=T (centered)=T charge=0 spin=1 energy=-34183.199295635684 pbc="F F F"
O       -3.69953778       0.80968951      -1.56586974       0.00339141       0.00283506      -0.00013544
O       -3.30151595       0.64747972       1.99288373      -0.00092237      -0.00172088       0.00024558
O       -1.89322803      -1.33729429      -1.35703437       0.00005115       0.00022536      -0.00185135
O       -5.46055507       2.33014257       1.95990083       0.00010323       0.00219854      -0.00320787
O       -0.31261130       0.69003447      -1.62334563       0.00685876      -0.00031105      -0.00463137
O        0.84590371       1.26292332       0.96564454       0.00689316      -0.00168219      -0.00222149
C       -3.40889738       0.18589312      -0.33169681       0.00150312       0.00069332      -0.00046620
C       -3.70587773       1.20216391       0.75509334       0.00111008      -0.00017617       0.00024016
C       -1.97685380      -0.37067456      -0.33164942       0.00057553      -0.00111586      -0.00040331
C       -5.18676667       1.54401380       0.80281029       0.00120407       0.00046241      -0.00172498
C       -0.90055143       0.67908825      -0.56641706      -0.00233909      -0.00219064       0.01119191
C       -0.47799245       1.59206379       0.57608870       0.00349573      -0.00552917       0.00450064
H       -4.05841396      -0.68429873      -0.17266592       0.00008955       0.00134795      -0.00231751
H       -3.14376678       2.12514788       0.54243051       0.00208352      -0.00025621       0.00205780
H       -1.79077534      -0.83478795       0.64238910      -0.00088104      -0.00352500      -0.00095025
H       -5.49714490       2.04304042      -0.11552516       0.00226994      -0.00083681      -0.00281624
H       -5.76421239       0.62519889       0.91759275       0.00099933       0.00062232      -0.00115919
H       -3.53469159       0.16076150      -2.26067249       0.00206411       0.00328715      -0.00074605
H       -3.79528638       1.11924798       2.67781638      -0.00005788      -0.00085612       0.00025814
H       -0.47824779       2.62171154       0.21415535      -0.00192132      -0.00380550       0.00985922
H       -1.16245029       1.49950883       1.42043711       0.00710891      -0.01172828       0.00751914
H       -1.27789120      -0.96704282      -2.01389175      -0.00066928       0.00071491      -0.00168807
H        0.92119390       0.27727867       0.97682316       0.00679503      -0.00142271       0.00083473
H       -5.26054024       3.25154801       1.76870196      -0.00242293       0.00224049      -0.00544441
O        3.32566257      -2.62252446      -2.14434213      -0.00677704       0.00395930      -0.00366015
O        2.06474892      -3.84382807      -0.74571192       0.02783358       0.04124588      -0.00355287
O        5.55819564      -2.29739213      -0.02185812      -0.02360816       0.03140861      -0.00306046
N        1.09213845      -1.50374614       0.45594478      -0.00061337      -0.00249136       0.00115894
N        5.22584462      -0.13499409      -0.61364216      -0.00722840       0.01292497       0.00123284
C        2.33927990      -1.48837681      -0.30966418      -0.00270292       0.00302054       0.00202042
C        3.50874090      -1.26710343       0.66165631      -0.00347035       0.00401556       0.00246080
C        2.54347610      -2.78949773      -1.06988346      -0.02024887      -0.05374172       0.01565761
C        4.87007976      -1.29244328      -0.01890713       0.01932314      -0.03188715       0.00115205
H        2.30259547      -0.66898112      -1.03158988      -0.00314667      -0.00185235       0.00099132
H        3.35281517      -0.31269920       1.16705106      -0.00470883       0.00160767       0.00027931
H        3.51033221      -2.06851870       1.40163856      -0.00028820       0.00247879       0.00157841
H        1.16547447      -2.21442439       1.17844095      -0.00225604      -0.00580089      -0.00143059
H        0.33340997      -1.81736450      -0.14557336      -0.00238744       0.00140307       0.00047341
H        4.62184225       0.67729048      -0.59092560      -0.00402482       0.00145127      -0.00071276
H        6.08729848      -0.11822973      -1.13130466      -0.00378269       0.00370276      -0.00046826
H        3.51638479      -3.50093038      -2.50671490      -0.00789618      -0.00236925      -0.00176066
O        3.19612347       2.00818380      -0.32075411      -0.00019898       0.00637700      -0.01460482
H        2.32582750       1.84236745       0.09220432       0.00020474       0.00369404      -0.01292829
H        3.38044022       2.94037460      -0.18006472       0.00859443       0.00138261       0.00823028
44
Properties=species:S:1:pos:R:3:forces:R:3 reactant=T mapped=T (centered)=T charge=0 spin=1 energy=-34183.05152807238 pbc="F F F"
O       -3.82740594       0.58339102      -1.41400578      -0.03508811       0.00006636      -0.00014051
O       -3.10148086       0.75993372       2.09151920      -0.00983897      -0.00493726      -0.00584741
O       -2.04015427      -1.57897440      -1.15905029      -0.00286684       0.02881947      -0.02376154
O       -5.30419579       2.40043345       2.08570759      -0.00237601       0.00986258       0.00393671
O       -0.53762431       0.43244182      -1.83771930      -0.05137361       0.05181464       0.07010082
O        0.89445299       1.39469500       0.52803460      -0.01459845      -0.01588734      -0.00346636
C       -3.42713978       0.06939909      -0.15821893      -0.02610871       0.00268987      -0.00478884
C       -3.62807701       1.18537822       0.84886542      -0.01535790       0.00029242      -0.00166651
C       -2.00753995      -0.50308947      -0.24414277      -0.01634336       0.02138371      -0.01710505
C       -5.10588649       1.50866072       0.99270180      -0.01277920       0.00637180       0.00536282
C       -0.98381777       0.51940943      -0.71518904      -0.02132190       0.05439213      -0.10899784
C       -0.48502253       1.57990636       0.25868891      -0.01748571       0.03320193       0.01095254
H       -4.06113266      -0.77563928       0.13694275      -0.01505507      -0.00295602       0.00110620
H       -3.10450521       2.08693189       0.49544793      -0.01311864      -0.00099666      -0.00235805
H       -1.71311159      -0.86635997       0.74448075       0.00569263       0.02196487      -0.02311494
H       -5.50004309       1.90767705       0.05789571      -0.01551609       0.00485552       0.00607424
H       -5.64609152       0.59336512       1.24081453      -0.01440819       0.00892157       0.01083343
H       -3.75952919      -0.13449169      -2.05439777      -0.00658851      -0.00063176      -0.00637975
H       -3.52882393       1.30134070       2.76943968      -0.00337202      -0.00465442      -0.00145193
H       -0.60957414       2.55230710      -0.21801141       0.00223639       0.05136775       0.02682522
H       -1.05906646       1.54277442       1.18520760      -0.01172957       0.02447202       0.00802447
H       -1.57634807      -1.26737165      -1.95416479       0.02297993       0.02509508      -0.01729674
H        1.00348244       0.43116287       0.67477151      -0.02800658      -0.03953535      -0.04568903
H       -5.20309711       3.30517591       1.77617792       0.01203145       0.00828630       0.00263729
O        3.57344751      -2.27195115      -2.20890179       0.02298788      -0.02016004      -0.00877397
O        2.03959954      -3.58946536      -1.23546138       0.02544472      -0.04332598      -0.00032024
O        5.26020637      -2.50502188       0.37826691       0.02538939       0.01319195       0.00713950
N        0.93765583      -1.38927093       0.06410658       0.02614743      -0.03463766      -0.00710761
N        5.34251459      -0.26733944       0.02262153       0.00488959       0.00778091      -0.00794780
C        2.30424218      -1.33202122      -0.44094059       0.02591837      -0.02668168      -0.00420382
C        3.25929405      -1.26047605       0.75808995       0.01694813      -0.01147452       0.00066751
C        2.60923417      -2.53502468      -1.31669121       0.04123784      -0.00322707      -0.00391210
C        4.71995623      -1.41420430       0.37045078       0.02258747      -0.00837996       0.00228409
H        2.41541268      -0.43345050      -1.05363857       0.01790105      -0.02450325      -0.00473019
H        3.09247204      -0.31283836       1.27376245       0.00435184      -0.01151652      -0.00260005
H        3.02363968      -2.07918826       1.43864328       0.02334184      -0.01290477       0.00196547
H        0.82881816      -2.23023420       0.62301631       0.04854673      -0.02289840       0.04018819
H        0.31474597      -1.52140222      -0.72808206       0.00203516      -0.07223462       0.12761664
H        4.82033893       0.59130050      -0.09940351      -0.00311087      -0.00007551      -0.00917663
H        6.27357723      -0.34441575      -0.34928325       0.00528330       0.01252867      -0.01097908
H        3.78189675      -3.10291889      -2.66118278       0.01735085      -0.01614896      -0.01740887
O        3.47249864       2.02844655      -0.41654633      -0.01234441      -0.00203059       0.00132541
H        2.53300851       1.98174639      -0.16273534      -0.01023617      -0.00618066       0.00601476
H        3.70917315       2.95927232      -0.38788779      -0.01427701      -0.00138062       0.00616959
44
Properties=species:S:1:pos:R:3:forces:R:3 reactant=T mapped=T (centered)=T charge=0 spin=1 energy=-34182.70315838247 pbc="F F F"
O       -3.42110525       0.57793117      -1.41485925       0.07614362       0.00336380      -0.01003091
O       -2.91545890       0.76198341       2.13247044       0.02643195      -0.02143538      -0.00201891
O       -2.00819212      -1.87445498      -0.97989767       0.02498631      -0.02516499      -0.00363171
O       -5.14047843       2.35061737       2.04736513       0.03040361      -0.01414998      -0.01843209
O       -0.27739607      -0.04162493      -1.84358152       0.06829677      -0.04308917       0.01548469
O        1.03563563       1.54458525       0.56561464       0.01755383       0.03903853       0.02059413
C       -3.14268260       0.02689365      -0.13499387       0.05038890      -0.00982690      -0.00942162
C       -3.40265981       1.15307624       0.86227503       0.03867506      -0.01582029      -0.00470414
C       -1.81391725      -0.78051304      -0.09389120       0.03859962      -0.03723316       0.01136811
C       -4.89879264       1.44557044       0.97067094       0.03767105      -0.01623927      -0.01509348
C       -0.41863717      -0.16026988      -0.42360079       0.08718739      -0.07933920       0.04908513
C       -0.30056839       1.23635382       0.19411267       0.02496443      -0.03525293       0.00486341
H       -3.87743588      -0.75651353       0.09593305       0.03624950      -0.00304348      -0.02855799
H       -2.90161170       2.06736758       0.51563853       0.03915774      -0.01329298       0.00522105
H       -1.74424476      -1.18339677       0.91772340       0.00047284      -0.05408554       0.01064970
H       -5.29293395       1.82666760       0.02795159       0.04256518      -0.01742776      -0.01731788
H       -5.42903323       0.52678086       1.22925756       0.03622194      -0.01524686      -0.01568284
H       -3.68943844      -0.13613645      -2.00110650       0.03910230       0.01179722      -0.00407121
H       -3.37241970       1.31757021       2.77943026       0.02341219      -0.02073303      -0.00476843
H       -0.62506764       1.98769556      -0.52435049      -0.00554459      -0.06595504      -0.02654400
H       -0.92813883       1.28782641       1.08445893       0.01809286      -0.03050733      -0.00002674
H       -1.80781864      -1.52363293      -1.86086418       0.02030496      -0.09109559       0.07169435
H        1.28952768       0.82621740       1.16004298       0.04129155       0.07133325       0.07844481
H       -5.08698539       3.25456085       1.72399105       0.03892405      -0.01459464      -0.01740022
O        3.27524169      -2.07592883      -2.11139897      -0.06138618       0.02254315       0.02236532
O        1.71629660      -3.36547343      -1.13246390      -0.07215290       0.12557870      -0.00201024
O        4.90598666      -2.50705284       0.35991541      -0.05496303       0.03468532       0.00203956
N        0.60561011      -1.05993739       0.13740914      -0.03696939       0.06475635       0.03382951
N        5.19365484      -0.27785783       0.09250518      -0.03384671       0.00717969      -0.01097811
C        1.98267413      -1.07271342      -0.39530951      -0.04491537       0.04817005       0.02111207
C        3.00521955      -1.10780662       0.77332772      -0.03252365       0.01368353       0.01099038
C        2.27351857      -2.30712810      -1.24678805      -0.10712649      -0.02419484       0.01682941
C        4.45776711      -1.37408874       0.37729054      -0.02061411      -0.04218576      -0.00073821
H        2.16900501      -0.19212753      -1.00859820      -0.02929001       0.04040699       0.02354538
H        2.95407735      -0.16259502       1.31398704      -0.01479582       0.00431808       0.02228320
H        2.71902541      -1.91396025       1.44750438      -0.03621231       0.00660964       0.00135503
H        0.26746081      -2.01746769       0.17846541      -0.07028209       0.05369075      -0.01698260
H        0.24943579      -0.80098602      -2.12021406      -0.09588604       0.09459547      -0.19447722
H        4.75774047       0.62757187      -0.03288572      -0.02477887      -0.00126654      -0.01027245
H        6.13113165      -0.42828778      -0.24098216      -0.03225822      -0.00989201      -0.01150137
H        3.57357572      -2.92927365      -2.46389682      -0.08203147       0.01416969       0.02130984
O        3.54599997       2.11937759      -0.42602500      -0.00180327       0.01536535      -0.01139666
H        2.60254686       2.06396424      -0.18627966      -0.00101473       0.01639364      -0.00616369
H        3.78388519       3.04661613      -0.34535447       0.00129780       0.01339367      -0.00084246
44
Properties=species:S:1:pos:R:3:forces:R:3 reactant=T mapped=T (centered)=T charge=0 spin=1 energy=-34183.21502673364 pbc="F F F"
O       -3.17796252       0.63539971      -1.48890869       0.01446392       0.00176383      -0.00861118
O       -2.99271289       0.57669513       2.08976384       0.00412640      -0.01431997      -0.00681904
O       -1.79645816      -1.79146865      -1.04939070       0.01518661       0.00953021      -0.01739437
O       -5.19740486       2.21224896       1.89445007       0.00821821      -0.00487311      -0.00876593
O       -0.07893390       0.14767131      -1.67724549       0.01971867       0.01398256       0.01050472
O        1.01726740       1.77685235       0.65346231      -0.00357467       0.01854851       0.00631859
C       -3.03467809      -0.00210526      -0.23337180       0.00779533      -0.00409990      -0.01053646
C       -3.37721137       1.05214422       0.81235206       0.00602630      -0.00893042      -0.00612181
C       -1.70031663      -0.74330127      -0.08092039       0.00874935       0.00127500      -0.00579920
C       -4.87045266       1.34709865       0.80867919       0.00674034      -0.00738436      -0.00744042
C       -0.35226551      -0.00963398      -0.30292087       0.00539072       0.01126724       0.00577831
C       -0.31193369       1.38192467       0.33233122      -0.00238857       0.01087047       0.00717736
H       -3.77807309      -0.80536384      -0.13143802       0.00721960      -0.00551483      -0.01757860
H       -2.84633220       1.98134579       0.56918501       0.00742990      -0.00810011      -0.00183256
H       -1.69002374      -1.14838662       0.93629738       0.00452139      -0.00314418      -0.00704821
H       -5.17758458       1.76390793      -0.15136018       0.00812286      -0.00868217      -0.00891958
H       -5.42059486       0.42139243       0.98578918       0.00509642      -0.00639797      -0.00571694
H       -3.06542395      -0.03504510      -2.17143593       0.03862285       0.00309783      -0.01657184
H       -3.49415385       1.09593230       2.73334310       0.00532591      -0.01501445      -0.00507768
H       -0.70918589       2.11121628      -0.36971010      -0.00653917       0.00888188       0.00737684
H       -0.90520056       1.37162736       1.24735250      -0.00113870       0.00573377       0.00791801
H       -1.01503365      -2.36304199      -1.00866222       0.06606841      -0.07786793       0.06596992
H        1.33734649       1.08850099       1.25424018      -0.00015915       0.02302562       0.01003745
H       -5.05576943       3.12466114       1.62517424       0.02113714      -0.00609803      -0.00831378
O        3.00163425      -2.12281287      -2.07703432      -0.01904524      -0.00416738       0.00797101
O        1.06104514      -2.95829989      -1.33492074      -0.05484323       0.03473502      -0.01934980
O        4.90953273      -2.60324127       0.27958158      -0.01153462       0.03003172       0.00607397
N        0.67462851      -0.82841145       0.37446685       0.00422266       0.01813755       0.01882516
N        5.13474855      -0.37675825      -0.07477416      -0.01348157       0.00286639      -0.01809527
C        1.96271077      -0.97871657      -0.27963593      -0.00267439       0.00787297       0.01105467
C        3.03399489      -1.21124019       0.80378887      -0.00143444      -0.00672763       0.00661138
C        1.93807508      -2.12656911      -1.27538075      -0.02570640       0.01489551      -0.00232236
C        4.44581524      -1.47741044       0.30095176       0.01330768      -0.04902192      -0.00128727
H        2.19923113      -0.07856083      -0.84444395       0.00279493       0.00973951       0.01615145
H        3.03909048      -0.32419846       1.43981941       0.00220057      -0.01510250       0.01509172
H        2.74683077      -2.06638272       1.41491600       0.00055581      -0.01458811      -0.00103514
H        0.32254681      -1.74562696       0.61905840       0.00250382       0.02071252       0.03286185
H       -0.43475690      -0.62760384      -2.13288150      -0.06531573       0.01471081      -0.00665906
H        4.68316159       0.52483760      -0.16778932      -0.01230125      -0.00949745      -0.01459767
H        6.04313187      -0.51922928      -0.48206448      -0.01168663      -0.00574709      -0.02165850
H        2.99564485      -2.93605922      -2.60385776      -0.04341663      -0.00162957      -0.00804113
O        3.52187836       2.10435621      -0.48999809      -0.00425276       0.00362203       0.00096723
H        2.58236957       2.14823878      -0.23263256      -0.00544440       0.00826832      -0.00012101
H        3.83177847       3.01341625      -0.51422620      -0.00060819       0.00333952      -0.00097482
44
Properties=species:S:1:pos:R:3:forces:R:3 reactant=T mapped=T (centered)=T charge=0 spin=1 energy=-34183.27769567132 pbc="F F F"
O       -3.00219997       0.53792228      -1.50137900      -0.00520932      -0.00385237      -0.00145849
O       -3.17526652       0.58487966       2.07890154       0.00527447       0.00180658      -0.00103288
O       -1.60879381      -1.82315996      -0.82979452      -0.00245015      -0.00036180      -0.00415444
O       -5.37710321       2.20513624       1.54448554       0.00596927       0.00055939       0.00816886
O       -0.00659012       0.19814823      -1.48970127       0.00028897      -0.00021955      -0.00319287
O        0.99501932       1.93681051       0.76640837      -0.00160561      -0.00263531       0.00176217
C       -2.95157890      -0.04756006      -0.21184411      -0.00172386      -0.00118784      -0.00051414
C       -3.42174471       1.02594557       0.75581264       0.00183267       0.00055059      -0.00074267
C       -1.61018401      -0.72629173       0.08147902      -0.00100332      -0.00126044      -0.00343843
C       -4.90721002       1.28514582       0.56313142       0.00161074       0.00294393       0.00381073
C       -0.29340541       0.06302072      -0.11706480      -0.00088959      -0.00120268      -0.00362172
C       -0.31931794       1.46465597       0.49922959      -0.00129799      -0.00096613      -0.00401146
H       -3.67094009      -0.87511488      -0.14682911      -0.00177429      -0.00087990       0.00339959
H       -2.88133744       1.95921982       0.55410597       0.00221184      -0.00025269      -0.00360594
H       -1.64556427      -1.07119833       1.12046542       0.00027587      -0.00192482      -0.00361749
H       -5.10356524       1.63249334      -0.45222994      -0.00043077       0.00685341       0.00558029
H       -5.45603436       0.35670982       0.73114852       0.00018032       0.00351060       0.00217227
H       -2.83722177      -0.15845370      -2.14609309      -0.00455044      -0.00504925      -0.00006624
H       -3.75428547       1.10440391       2.65237490       0.00618311       0.00193584      -0.00012757
H       -0.77893571       2.15916840      -0.19984969       0.00313964      -0.00117494      -0.00704267
H       -0.89059368       1.43546904       1.43097897      -0.00512744       0.00084190      -0.00654641
H       -0.80132695      -2.35738523      -0.72612776      -0.00228572      -0.00061264      -0.00561805
H        1.38920909       1.24502378       1.31981307      -0.00514802      -0.00315147       0.00347938
H       -5.18173900       3.09994441       1.25025318       0.00744121       0.00122680       0.01107425
O        2.66703399      -1.99257486      -2.20980358       0.00693357      -0.00214001       0.00342524
O        0.95221624      -2.91389761      -1.11821000       0.00050806       0.00248456      -0.00484339
O        4.89309761      -2.71438513      -0.08461475      -0.01277026       0.03859328       0.01142242
N        0.78443577      -0.69040784       0.57596538      -0.00109170      -0.00135127      -0.00283822
N        5.06697276      -0.48204370      -0.43397549      -0.00306013       0.01096310       0.00229868
C        1.99350509      -0.93969144      -0.18577309      -0.00093037       0.00046275      -0.00129415
C        3.13824598      -1.32218109       0.76678459      -0.00286965       0.00373867       0.00149204
C        1.79536329      -2.04836326      -1.20686265       0.00225263      -0.00108952      -0.00232035
C        4.45118136      -1.58725104       0.04357618       0.01641734      -0.04312062      -0.00013369
H        2.26615667      -0.04113330      -0.73431524      -0.00040243       0.00071751      -0.00072173
H        3.26105627      -0.50013314       1.47373101      -0.00375263       0.00109949       0.00047078
H        2.88183385      -2.22559509       1.31987212      -0.00150513       0.00095474      -0.00007198
H        0.44475400      -1.55627323       0.97586246      -0.00127282      -0.00183570      -0.00393359
H       -0.44727458      -0.53855369      -1.93756493       0.00097826       0.00049772      -0.00529891
H        4.61888262       0.42557358      -0.41267127       0.00082551      -0.00101959       0.00164452
H        5.87299480      -0.62008851      -1.01926164       0.00218572       0.00015869       0.00469375
H        2.54053155      -2.78111917      -2.75987834       0.00970308      -0.00418206       0.00401684
O        3.55266904       2.12207294      -0.34620071      -0.00398887      -0.00164998       0.00356687
H        2.60007536       2.22302105      -0.16767559      -0.00401916      -0.00204320       0.00748072
H        3.95697848       2.94809089      -0.06666032      -0.00505227       0.00326423      -0.00971204
44
Properties=species:S:1:pos:R:3:forces:R:3 reactant=T mapped=T (centered)=T charge=0 spin=1 energy=-34183.32471077441 pbc="F F F"
O       -2.86608013       0.40583397      -1.51898832      -0.00437181      -0.00472883      -0.00134721
O       -3.19023191       0.67330294       2.05999619      -0.00105001       0.00448065       0.00049803
O       -1.63110217      -1.95551099      -0.57236477      -0.00397047      -0.00378809       0.00261931
O       -5.38978725       2.21085300       1.44905556       0.00184073       0.00756025      -0.00542216
O       -0.01244142       0.13218044      -1.44852598      -0.00215146      -0.00490030       0.00215164
O        0.99152644       1.90165618       0.81639403       0.00562013      -0.01252825       0.01487808
C       -2.91155288      -0.08647862      -0.17675694      -0.00222874      -0.00189661       0.00093481
C       -3.40969551       1.04291783       0.71107468       0.00019402       0.00207583      -0.00180000
C       -1.59550865      -0.76748071       0.19630843      -0.00245732      -0.00283763       0.00268231
C       -4.89415443       1.28496572       0.48631234       0.00038917       0.00408592      -0.00414410
C       -0.29143409       0.02079392      -0.06453278      -0.00051512      -0.00500781       0.00317300
C       -0.32169187       1.41938188       0.57763367       0.00415322      -0.00542549       0.00528404
H       -3.65053197      -0.89349087      -0.11332293      -0.00315571      -0.00226872       0.00497099
H       -2.86981369       1.96875484       0.47431207       0.00282853       0.00134200      -0.00444022
H       -1.62784757      -0.98977774       1.26982002      -0.00353187      -0.00252658       0.00325073
H       -5.07973445       1.61839248      -0.53617305       0.00159225       0.00295301      -0.00612657
H       -5.43774744       0.35468516       0.65914065      -0.00208428       0.00419921      -0.00291920
H       -2.82429057      -0.37518500      -2.08558673      -0.00579370      -0.00572788      -0.00081825
H       -3.80575748       1.19765461       2.58983006       0.00063571       0.00764486      -0.00021607
H       -0.79980869       2.12638103      -0.09912300       0.01261146      -0.00114237       0.00370226
H       -0.87962612       1.38266886       1.51727903      -0.00093242      -0.00514382       0.00244301
H       -0.73590311      -2.30399916      -0.72967119      -0.00323229      -0.00198742      -0.00054005
H        1.41625827       1.19402015       1.32577049      -0.00160428      -0.01530548       0.01706740
H       -5.16891352       3.10434640       1.16892459       0.00152826       0.00791849      -0.00922906
O        2.69714535      -2.04770994      -2.23074656      -0.00081794       0.01212045      -0.00336553
O        0.94164621      -2.92893627      -1.17036726       0.00353434       0.00484846      -0.00427198
O        4.97810522      -2.69968565      -0.07005738      -0.01746034       0.03166246      -0.00003703
N        0.80859024      -0.72588788       0.55804571      -0.00136275      -0.00678942       0.00357418
N        5.06880831      -0.46651069      -0.44023928      -0.00366799       0.01127770      -0.00511963
C        2.00311854      -0.96905729      -0.23199917      -0.00145990       0.00196730       0.00256807
C        3.14453806      -1.37206572       0.71761943      -0.00035949       0.00615510       0.00141195
C        1.79468092      -2.07564223      -1.25278650       0.00036973       0.00375745      -0.00271008
C        4.48284833      -1.59236384       0.02748235       0.01507765      -0.03585257      -0.00461316
H        2.27525636      -0.06654115      -0.77418299      -0.00534694       0.00526916       0.00593476
H        3.24297758      -0.57784963       1.45957104       0.00157113       0.00549603      -0.00131584
H        2.88909235      -2.29791124       1.23340997       0.00236678       0.00473914       0.00243094
H        0.48066757      -1.59813490       0.95385245      -0.00000343      -0.00980782      -0.00155890
H       -0.80193514       0.51552925      -1.85615809       0.00284641      -0.02955288       0.00110757
H        4.58879311       0.42447694      -0.43640067       0.00197708       0.00345845      -0.00283315
H        5.90602134      -0.57472765      -0.98635426      -0.00146777       0.00097864      -0.00687623
H        2.56553447      -2.83838012      -2.77646701       0.00129338       0.01212158      -0.00560266
O        3.48801067       2.10844703      -0.40096988       0.00222604       0.00473975      -0.00482279
H        2.54097050       2.19093245      -0.18645072      -0.00200442      -0.00330690       0.00983530
H        3.89100024       2.92515222      -0.09360828       0.00837427       0.00967281      -0.01038875
44
Properties=species:S:1:pos:R:3:forces:R:3 reactant=T mapped=T (centered)=T charge=0 spin=1 energy=-34183.25712157622 pbc="F F F"
O       -3.09519955      -0.08346424      -1.40536283       0.00824793       0.00216494      -0.00532958
O       -3.05131997       1.05224184       2.01372147      -0.00438809      -0.00382396      -0.00110847
O       -1.57221071      -2.07909577      -0.14193629      -0.00276406      -0.00059533      -0.00798988
O       -5.38572955       2.32863375       1.28607991       0.00359190       0.00584672      -0.00849886
O       -0.22404071      -0.07465952      -1.56354578       0.01186427       0.00436299       0.00679699
O        0.99775158       1.98091462       0.42377466      -0.00265447       0.00239729       0.02279702
C       -2.96002150      -0.22982161       0.00953952       0.00131218      -0.00031158      -0.00381926
C       -3.42499760       1.06885835       0.64786498       0.00106657      -0.00012966      -0.00309831
C       -1.57078231      -0.75241922       0.36818232      -0.00053529      -0.00376492      -0.00097543
C       -4.93687362       1.19895904       0.54293017       0.00194219       0.00504872      -0.00902166
C       -0.33991163       0.01973414      -0.15154596       0.00101896      -0.00105227       0.00596790
C       -0.32950193       1.50040370       0.28091878      -0.00326730      -0.00253754       0.01254616
H       -3.63573817      -1.02010863       0.35874643      -0.00139594      -0.00047392      -0.00823766
H       -2.96075686       1.92003391       0.13129014       0.00478846       0.00008452       0.00010437
H       -1.49583630      -0.76920974       1.46122137      -0.00335648      -0.00853050      -0.00067561
H       -5.25097961       1.24345177      -0.50104909       0.00643513       0.00857927      -0.01052356
H       -5.39732133       0.32838542       1.01358595      -0.00360144       0.00591249      -0.01244263
H       -3.02648359      -0.97636894      -1.76808368       0.00558343      -0.00213844      -0.00600701
H       -3.62090087       1.69351253       2.45961594      -0.00490523      -0.00309806      -0.00208326
H       -0.80888888       2.10763542      -0.48607075      -0.00133064       0.00123551       0.01102578
H       -0.86894696       1.61515956       1.22395922      -0.00966749      -0.00926607       0.01263109
H       -0.73119690      -2.29157078      -0.58482746       0.00352811      -0.00488600       0.00288658
H        1.42452795       1.31272105       0.98188754       0.01714476      -0.03567646       0.04874436
H       -5.29357628       3.11843448       0.74501679       0.01247364       0.00712498      -0.00564948
O        2.53221874      -1.72512515      -2.51599429      -0.00548826      -0.00517876       0.00530987
O        0.95929474      -2.81195039      -1.35204283      -0.00030789      -0.00158146       0.01031163
O        4.72395000      -2.75431417      -0.52723501      -0.00327485       0.02994093       0.00360195
N        0.82119594      -0.63465153       0.45340069       0.00129477      -0.00110486       0.00722785
N        5.22572082      -0.55531123      -0.31446680      -0.00691813       0.01458853      -0.01316171
C        1.99272052      -0.85813988      -0.37603120      -0.00086310      -0.00138566       0.00456501
C        3.11293780      -1.35119137       0.55539092       0.00255530       0.00179981       0.00182893
C        1.74421671      -1.89957982      -1.45578297      -0.00466397      -0.00661649       0.00623413
C        4.42698390      -1.63580223      -0.15107316       0.00825905      -0.02675866      -0.01601238
H        2.28447317       0.07117958      -0.86233354      -0.00339568      -0.00228771       0.00203368
H        3.24942241      -0.58957842       1.32295239       0.00450447      -0.00020701       0.00034025
H        2.79406224      -2.28076532       1.02875672       0.00810138      -0.00145110       0.00072418
H        0.55358121      -1.51201956       0.88337232       0.00125266      -0.00039767       0.00872644
H       -1.08469224       0.16660260      -1.93392158      -0.02045571       0.00382278      -0.00032401
H        4.91377106       0.37139187      -0.06246320      -0.00669405       0.00502397      -0.01366501
H        6.07697356      -0.67592681      -0.83539733      -0.00829177       0.00973454      -0.02133867
H        2.40256088      -2.48061489      -3.10911699      -0.00595570      -0.00800396       0.00732300
O        3.83203329       2.02279171       0.50191780      -0.00752342      -0.00527187      -0.00221403
H        2.99605687       2.34492713       0.13374051      -0.00392197       0.00518765      -0.00696000
H        4.00145367       2.57571676       1.27041320       0.01065568       0.02367403      -0.02259066
44
Properties=species:S:1:pos:R:3:forces:R:3 reactant=T mapped=T (centered)=T charge=0 spin=1 energy=-34183.173782363156 pbc="F F F"
O       -3.05995931       0.32375576      -1.40841467       0.00026122       0.00024878       0.00014690
O       -2.95380623       0.79433587       2.14964576      -0.00054188      -0.00093225       0.00000007
O       -1.67393141      -2.06580891      -0.33301322       0.00221902       0.00180075      -0.00131238
O       -5.28508078       2.23860754       1.67330940      -0.00076404      -0.00132555      -0.00171657
O       -0.22829061      -0.28420829      -1.68234322       0.00206916       0.00393918      -0.00009325
O        0.88531912       1.97979857      -0.52709168       0.00009856       0.00080654      -0.00125093
C       -2.94736163      -0.13138674      -0.06976690       0.00108477       0.00051030      -0.00010997
C       -3.37200200       1.03531172       0.81812939       0.00034899      -0.00016462       0.00000799
C       -1.59112479      -0.76928539       0.23491926       0.00153490       0.00136880      -0.00074873
C       -4.88054185       1.20815582       0.77430575       0.00047567      -0.00084807      -0.00139948
C       -0.32506596      -0.05831619      -0.28055141       0.00100373       0.00228137      -0.00028230
C       -0.35764364       1.44323799      -0.04085825       0.00086734       0.00205352       0.00091114
H       -3.65601666      -0.95148566       0.10852013       0.00171602       0.00020525       0.00030068
H       -2.91742892       1.96059349       0.44142066       0.00025980       0.00030281       0.00113899
H       -1.50123684      -0.82753157       1.32516750       0.00169507       0.00101645      -0.00088383
H       -5.21204944       1.40232790      -0.24761691       0.00156553      -0.00090427      -0.00163327
H       -5.35520295       0.29312249       1.13175717       0.00046873      -0.00106500      -0.00217900
H       -2.58346898      -0.30565705      -1.96540367      -0.00209550      -0.00117091      -0.00023125
H       -3.50493633       1.35288879       2.71365519      -0.00176708      -0.00242227       0.00011796
H       -1.18056181       1.87128287      -0.61138059       0.00003373       0.00303164       0.00300072
H       -0.47763255       1.64660784       1.02463655       0.00324020       0.00145736       0.00121551
H       -0.79367407      -2.41158632      -0.55582241       0.00182495       0.00166030      -0.00055629
H        0.74563482       2.89488311      -0.78746062       0.00711534      -0.00342613       0.00307582
H       -5.15498694       3.09160196       1.24807374       0.00221799      -0.00116929      -0.00038172
O        2.49510600      -1.95625370      -2.41636818       0.00059834      -0.00602081       0.00227196
O        1.00116907      -3.00214592      -1.11699927      -0.00597407      -0.00167133       0.00193519
O        4.85252532      -2.68398303      -0.36547414      -0.00288428       0.01106036       0.00552436
N        0.80980219      -0.64349314       0.44926131       0.00185480       0.00268528      -0.00043412
N        5.12591508      -0.43756385      -0.23598996      -0.00495271       0.00266409      -0.00701523
C        1.99994106      -0.95721984      -0.31385095       0.00031940      -0.00068013      -0.00099641
C        3.10145691      -1.40432536       0.66000354       0.00007573      -0.00047879      -0.00072980
C        1.75257201      -2.07826586      -1.31404021       0.00125922       0.00133253       0.00005909
C        4.44464240      -1.58911781      -0.02673318       0.00474265      -0.01583732      -0.00608391
H        2.33759629      -0.07569910      -0.85679534       0.00217808      -0.00195349      -0.00239542
H        3.16919569      -0.64262341       1.43542506       0.00183078      -0.00176941      -0.00147335
H        2.82443864      -2.35638568       1.11328566       0.00058614      -0.00108625      -0.00151046
H        0.51683557      -1.47565205       0.94847703       0.00151342       0.00432257       0.00198261
H        0.31886853       0.42180506      -2.05002551       0.00183668       0.00568798       0.00169951
H        4.73161396       0.45788976       0.01985468      -0.00194945      -0.00232160      -0.00398180
H        5.99066598      -0.48640275      -0.74599346      -0.00332754      -0.00043759      -0.00665316
H        2.35894869      -2.75258038      -2.95233906      -0.00056880      -0.00663092       0.00347223
O        3.50222995       1.94166773       0.65617475      -0.00875140      -0.00462776       0.00490707
H        2.57264611       1.91421253       0.37009510      -0.00860663      -0.01247341       0.01199496
H        3.47488028       2.07489120       1.60821413      -0.00471308       0.02098145       0.00028987
44
Properties=species:S:1:pos:R:3:forces:R:3 reactant=T mapped=T (centered)=T charge=0 spin=1 energy=-34183.18022116273 pbc="F F F"
O       -3.06497518      -0.05484117      -1.26191232      -0.00712186       0.00076195       0.00444596
O       -3.09269315       1.05549841       2.15452694      -0.00166245       0.00316686       0.00485800
O       -1.51525061      -2.11225391       0.24893219       0.00741848       0.00825518       0.00736882
O       -5.22951220       2.54449912       1.14947378      -0.01081807      -0.00823446       0.01573054
O       -0.29642403      -0.37970444      -1.53868178       0.00640943       0.00277821      -0.01042450
O        0.84803672       1.97891377      -0.78083938       0.02025745      -0.00599722      -0.00870949
C       -2.87683736      -0.19685745       0.13407533      -0.00117704       0.00347128       0.00301469
C       -3.32930951       1.11526325       0.75953146      -0.00580929       0.00146904       0.00575350
C       -1.48310088      -0.71627512       0.52135367       0.00341765       0.00992084      -0.00469293
C       -4.80037588       1.36188691       0.47529847      -0.00932308      -0.00617456       0.01388669
C       -0.26055312      -0.07513861      -0.15437642       0.00240007       0.00790596      -0.01166033
C       -0.20915152       1.44274262      -0.00332003      -0.00136528       0.00954684      -0.02920394
H       -3.54573509      -0.97516003       0.52680368       0.00478196       0.00095172       0.00738557
H       -2.78043416       1.95644678       0.32333255      -0.01069949       0.00404330       0.00392781
H       -1.37797793      -0.56765977       1.60233677       0.00904258       0.01701701      -0.00655452
H       -4.96807984       1.42302532      -0.60076305      -0.01850665      -0.00786570       0.01567546
H       -5.39717272       0.54386832       0.88077104      -0.00367575      -0.00762833       0.01900827
H       -2.55416476      -0.74676299      -1.69913811       0.02747391       0.02943155      -0.00016168
H       -3.65910846       1.72776670       2.55524892      -0.00353854       0.00041934       0.00614248
H       -1.12032666       1.87373644      -0.40224343       0.00470204      -0.00016938      -0.05810504
H       -0.12347475       1.70176245       1.05621221      -0.02374251       0.02848379      -0.03323793
H       -0.74364271      -2.40569894      -0.26273593       0.00093444       0.00495037       0.00338267
H        1.66211797       1.95326959      -0.25380322      -0.01761698       0.02139544      -0.00043257
H       -4.96255890       3.30789842       0.62787959      -0.01217878      -0.00697172       0.01751637
O        2.17856351      -2.02136917      -2.60138276      -0.00074118       0.00365667       0.00140691
O        0.86179368      -3.03954040      -1.10538869       0.00944192      -0.00465067       0.01080567
O        5.09565119      -2.10162074      -1.11749399       0.01060209      -0.01796170       0.01297215
N        0.95893155      -0.65872152       0.47977908       0.00147194       0.01215288      -0.00491351
N        4.98207256       0.02090457      -0.33308416       0.00567260      -0.00645257      -0.00426284
C        2.02095797      -1.02721922      -0.45058393       0.00510880       0.00512308       0.00048246
C        3.25706047      -1.53590859       0.32311933       0.00201934       0.00452093       0.00469992
C        1.59292874      -2.12744309      -1.41028522       0.00938705       0.00664245       0.00379142
C        4.53948783      -1.25853468      -0.44539721      -0.00270555       0.00612829       0.01549311
H        2.29430667      -0.15223107      -1.03787302       0.00884311       0.00327970      -0.00110195
H        3.29036555      -1.03279458       1.28933594       0.00438450       0.00871059       0.00206696
H        3.18746894      -2.60892815       0.49729567      -0.00323867       0.00729932       0.00956258
H        0.69694832      -1.48793221       1.00639009       0.00130734       0.01583694       0.00043118
H        0.07834366       0.38124771      -2.00533896       0.04633047      -0.01184422      -0.00513292
H        4.49673242       0.69927205       0.23257730      -0.00084810       0.00034391      -0.01429755
H        5.78998090       0.29497048      -0.86445398       0.00551854      -0.01000815      -0.00095537
H        1.93312879      -2.80136657      -3.12251696       0.00083222       0.00284308       0.00364652
O        2.79258325       1.57548966       1.24595469      -0.03185256      -0.03649024      -0.00423887
H        2.15084620       0.86652252       1.44596765      -0.04053963      -0.02276063      -0.02960201
H        2.68255251       2.25897736       1.91541521       0.00940348      -0.07729693       0.03423199
44
Properties=species:S:1:pos:R:3:forces:R:3 reactant=T mapped=T (centered)=T charge=0 spin=1 energy=-34183.19453598755 pbc="F F F"
O       -2.86439460      -0.48950777      -1.26725207      -0.01028300      -0.01156524       0.01246987
O       -3.30800104       1.15037096       1.90402164       0.02613744       0.03698375      -0.01028826
O       -1.45096003      -2.19906632       0.55208503      -0.00528022       0.00008206      -0.03152294
O       -5.14538282       2.58893318       0.54408261      -0.01211518      -0.00268954      -0.00606380
O       -0.24883221       0.09174156      -1.19223948      -0.01208006       0.01364052       0.01085649
O        1.09652310       1.93534274       0.20429787      -0.01964497       0.01945375       0.00901984
C       -2.83526195      -0.33759510       0.15919865      -0.00503646       0.00440584       0.00935719
C       -3.27896556       1.07438939       0.49260573       0.00014805       0.00949257      -0.00886143
C       -1.49046278      -0.79397242       0.75164778      -0.00395670       0.00024928       0.00323578
C       -4.64170776       1.41631742      -0.09231348      -0.01368541      -0.01153044       0.00947486
C       -0.21375358      -0.09270109       0.22554834      -0.00336150       0.00421254       0.00917061
C       -0.00418720       1.29660908       0.84088476      -0.00472268       0.00121169       0.01644270
H       -3.57395091      -1.01143147       0.60311228      -0.00642317       0.01288541       0.02044890
H       -2.56761248       1.80349625       0.08534120      -0.00903080       0.00218506      -0.03906824
H       -1.54071898      -0.61163205       1.82892236      -0.00349167      -0.02325976       0.00629957
H       -4.56517475       1.54528561      -1.17292246      -0.03478097      -0.03465285       0.00541496
H       -5.36323859       0.62612479       0.11710966      -0.00311413      -0.01317413       0.03945170
H       -2.93017391      -1.43344329      -1.45510376       0.04610696      -0.01582660       0.02778266
H       -3.97664398       1.81121754       2.13142441       0.02599307       0.03648679      -0.00991831
H       -0.88512090       1.92791094       0.74988757      -0.01502494      -0.01062199       0.03957783
H        0.24688393       1.18798177       1.89351138       0.01770884      -0.00434321       0.00957322
H       -0.78763156      -2.44754661      -0.11886056       0.00092996       0.01406393      -0.01899541
H        0.95299612       1.84651450      -0.74804661      -0.00388895       0.01633217       0.02410628
H       -4.65510067       3.35369175       0.22373590      -0.03561693      -0.00325339      -0.04140383
O        1.90271593      -1.87775826      -2.72573967       0.03115763       0.00548031      -0.00289634
O        0.55928081      -2.91573386      -1.28478833      -0.04667294      -0.01747090      -0.02024028
O        4.89080439      -1.79051815      -1.63656477       0.03676510      -0.05227242       0.00485406
N        0.95977366      -0.89133787       0.58771915      -0.00467589       0.00126939      -0.00175358
N        4.89363910       0.08600137      -0.36990373       0.00342751      -0.01194798      -0.01708410
C        1.93093748      -1.10289219      -0.46448585      -0.00427575       0.00507854      -0.00441330
C        3.26033467      -1.62904388       0.11901324      -0.00588279       0.00315644      -0.00311244
C        1.38400638      -2.05661486      -1.51689592       0.05083616       0.06516070      -0.02286983
C        4.43551876      -1.14268584      -0.71358104      -0.00789680       0.00589366       0.03501822
H        2.12995264      -0.15612839      -0.95942008      -0.00030442       0.01550264       0.00641203
H        3.32981831      -1.24652531       1.13711267      -0.00638423       0.01109537      -0.00334678
H        3.28547792      -2.71805309       0.14557794      -0.01681869       0.00301463       0.00903332
H        0.68684297      -1.77710637       0.99509958      -0.00154046      -0.00306844      -0.00870477
H       -1.15624622      -0.07017659      -1.50801255       0.00103458       0.02611732       0.01412306
H        4.50695625       0.63000606       0.39176559      -0.00415637       0.00224408      -0.01728201
H        5.62073679       0.48581105      -0.93774141       0.01186875      -0.01942325      -0.00202701
H        1.52134106      -2.55376054      -3.30723050       0.05292332       0.00652467      -0.00677093
O        3.50126359       1.83566370       1.63078338       0.00710867      -0.02176752      -0.03171759
H        3.71183475       2.68519028       2.02849556      -0.00278583      -0.03977497      -0.03200733
H        2.67588387       1.96663138       1.12811697      -0.00921422      -0.02558021       0.01822536
44
Properties=species:S:1:pos:R:3:forces:R:3 reactant=T mapped=T (centered)=T charge=0 spin=1 energy=-34183.200665715136 pbc="F F F"
O       -3.11174339      -0.77325120      -1.02801718      -0.00666586      -0.01670883       0.01023390
O       -3.00595926       1.52790341       1.71505268       0.00626043       0.01202931      -0.00925480
O       -1.30758688      -2.12098603       0.67642582       0.01115484       0.00510899       0.00459950
O       -5.17023880       2.58296368       0.40199696      -0.00487697      -0.00638867       0.00293104
O       -0.37395820      -0.02838366      -1.26204076      -0.00227304       0.00556710      -0.00067628
O        0.87517886       2.11587609      -0.24070535      -0.02258504       0.02222360      -0.01268497
C       -2.85809002      -0.37201881       0.30143016       0.00093847      -0.00227013       0.00508843
C       -3.28930448       1.07862947       0.40053477      -0.00106240      -0.00140602      -0.00644502
C       -1.43361282      -0.70682324       0.78853958       0.00466168       0.00518495       0.00163201
C       -4.76973930       1.24481771       0.10462631      -0.00535864      -0.00859506       0.00232791
C       -0.23562905       0.01624475       0.14027363       0.00023922       0.01002893      -0.00140882
C       -0.10694024       1.48228975       0.56669586      -0.00785522       0.01205698      -0.00246489
H       -3.49867003      -0.94355016       0.98857809       0.00550659       0.00328289       0.01614266
H       -2.73565811       1.66774253      -0.34368499      -0.00593623      -0.00537088      -0.01705305
H       -1.40964743      -0.47253090       1.85729628       0.00641318       0.00628942       0.00150929
H       -4.98213987       0.97668912      -0.93027876      -0.01423416      -0.01260290       0.00119501
H       -5.35333353       0.60189083       0.76467998      -0.00016448      -0.01059312       0.01120383
H       -2.74104080      -1.65544914      -1.14235930      -0.00187287      -0.01990079       0.02114872
H       -3.59171905       2.27958039       1.87791858       0.00430049       0.01157437      -0.01191263
H        0.13685841       1.53455653       1.62856983       0.03857572      -0.01140278       0.03500317
H       -1.03226563       2.02180592       0.42184646      -0.05242106       0.02881896      -0.03162466
H       -0.75006777      -2.36556511      -0.08394773       0.00586983       0.00679277       0.00022064
H        1.73423673       2.01817594       0.19568442       0.01536455       0.02621169       0.02845239
H       -4.90122897       3.15397086      -0.32448830      -0.00846379      -0.00452524      -0.00278038
O        1.89799241      -1.73525614      -2.74034730       0.00541949       0.00582575      -0.00003193
O        0.60897535      -2.82310825      -1.27481001      -0.00124249       0.00796419       0.00003978
O        5.03398504      -1.89153917      -1.54048917       0.01191819      -0.03161567      -0.01312384
N        1.01806045      -0.68023360       0.57968816       0.00493420       0.01536141      -0.00067059
N        4.82875353       0.14587516      -0.57062582       0.01609235      -0.01482201      -0.00485024
C        1.95682586      -0.96847040      -0.49772517       0.00357192       0.00884181      -0.00153109
C        3.26294567      -1.58260227       0.05686778       0.00022832       0.00110100      -0.00079161
C        1.38490878      -1.93025137      -1.52783330       0.00415575       0.01239265      -0.00031132
C        4.46981800      -1.15050258      -0.76347343      -0.01030909       0.01000318       0.02030573
H        2.19613257      -0.03903961      -1.01123249       0.00869958       0.00778394      -0.00216778
H        3.38746795      -1.24839620       1.08703735       0.00254164       0.00277360       0.00031608
H        3.22204890      -2.67069344       0.05374130      -0.00869903       0.00205239       0.00309385
H        0.76208989      -1.55623110       1.02775586       0.00786333       0.01779946       0.00592408
H        0.08178940       0.75145547      -1.61132335       0.03970432       0.04137546       0.00101798
H        4.39915840       0.70958279       0.14691087       0.01000102      -0.00360287      -0.00600446
H        5.60461772       0.50794755      -1.09680530       0.01639747      -0.01796826       0.00011487
H        1.55020674      -2.42707232      -3.32402505       0.00807244       0.00433475       0.00168638
O        2.96025800       1.32206240       1.53528402      -0.02693940      -0.02172883      -0.02572101
H        2.29184802       0.61265572       1.62154621      -0.05689711      -0.07773037      -0.05062885
H        2.99441695       1.78923864       2.37523084      -0.00102818      -0.02554709       0.02795114
44
Properties=species:S:1:pos:R:3:forces:R:3 product=T mapped+aligned=T onto=T reactant=T charge=0 spin=1 energy=-34183.27674688259 stress="-0.16693851254802705 0.0278143849501221 0.006919269149521859 0.0278143849501221 -0.26137163826953164 -0.07139209543478728 0.006919269149521859 -0.07139209543478728 -0.10589115665055078" free_energy=-34183.27674688259 pbc="F F F"
O       -3.10643272       0.13248528      -1.34458537      -0.01372560      -0.00369975      -0.01015436
O       -2.67803851       1.08905394       2.08785597       0.00032750       0.00040222       0.01295004
O       -1.63757772      -2.09314507      -0.12788535       0.00728340      -0.01421290       0.02252440
O       -5.04518322       2.48222070       1.63711110      -0.00539377       0.00664252      -0.00280505
O       -0.25283405      -0.49010168      -1.73620513       0.02655982       0.00231280      -0.01020515
O        0.84054180       1.94087297      -1.01440014       0.00052324       0.00761878      -0.00777118
C       -2.88207806      -0.13155501       0.02864143      -0.00474100      -0.00181294      -0.01269189
C       -3.22291806       1.15113026       0.77988480       0.00648781      -0.00404463       0.01615373
C       -1.50763900      -0.74413830       0.29654642      -0.00287506      -0.01519629      -0.00962873
C       -4.72805214       1.33093305       0.85810555      -0.00408289       0.01035689       0.00708882
C       -0.28624475      -0.09573490      -0.37623636       0.00341061      -0.00851183      -0.01583578
C       -0.29741093       1.42954410      -0.33851258       0.00916497       0.00571386      -0.01295281
H       -3.57556548      -0.90831431       0.38059145       0.00965099      -0.00246286      -0.00319430
H       -2.80934167       2.01103190       0.23945669       0.00235228      -0.01362150       0.00125196
H       -1.34338517      -0.69605836       1.37907091       0.00609601       0.00222055      -0.00471947
H       -5.15684412       1.38284217      -0.14475903      -0.00217484      -0.00074602       0.00219876
H       -5.16403786       0.48229789       1.38715545      -0.00529596      -0.00702641      -0.00819239
H       -2.70700485      -0.59231110      -1.84306632      -0.00635669       0.00486696      -0.00048768
H       -3.18446456       1.71563668       2.62149557       0.00125216       0.00782452      -0.00092954
H       -0.36283719       1.78335552       0.69386005       0.00982412       0.00957950      -0.01338818
H       -1.16623838       1.77110303      -0.89639250      -0.00987764       0.00572044       0.01262779
H       -0.79042438      -2.45404548      -0.43512829       0.00565572       0.00437560       0.01252415
H        1.55941230       2.03328052      -0.37010379      -0.01608662       0.00086407       0.00654673
H       -4.91767708       3.26686448       1.09475885      -0.00652017       0.00268008       0.00274693
O        2.35881624      -2.16163566      -2.52164903      -0.00783925      -0.00874749      -0.00494447
O        0.96721399      -3.09188823      -1.03214903      -0.01279420      -0.01985113      -0.01429303
O        5.24341791      -2.01417271      -0.74436856       0.02286707      -0.01607110      -0.01061702
N        0.91193603      -0.60866069       0.35667332       0.00046934      -0.00377270       0.00636424
N        4.90919764       0.15281934      -0.16716315       0.00813390       0.00973433      -0.00312122
C        2.04406109      -1.01399651      -0.46936318      -0.00647026      -0.01336847      -0.00404082
C        3.22129724      -1.45872777       0.42961077       0.00303980      -0.00202093      -0.00311188
C        1.69755662      -2.19002912      -1.36597599       0.00051740       0.01566796      -0.00900361
C        4.56328831      -1.15904837      -0.21718957      -0.01255616       0.00548498       0.01085042
H        2.34838099      -0.17221215      -1.08966052      -0.00062710      -0.01463558       0.00125463
H        3.15511838      -0.92397780       1.37632327      -0.00890261      -0.00889922       0.00300732
H        3.16889990      -2.52742417       0.63111073       0.00249758      -0.00138476       0.00669107
H        0.64264465      -1.40523063       0.92679465      -0.01575449       0.00112186      -0.00502964
H        0.20649592       0.21122938      -2.22036662       0.00401210       0.01857110       0.00864144
H        4.32806142       0.82774979       0.30656741       0.01356999      -0.00448610      -0.00260048
H        5.76616923       0.43932225      -0.60701402       0.00054343       0.00106330      -0.00118669
H        2.16280618      -2.98309443      -2.99798801      -0.00720531      -0.00300180       0.00471337
O        2.49221218       1.51955298       1.23940364       0.01244194       0.02192674       0.00986455
H        1.84036777       0.77720264       1.23411669       0.01377516       0.02296089       0.01156529
H        2.39433411       1.98497356       2.07502686      -0.02117684      -0.00013570       0.01133993
