44
Properties=species:S:1:pos:R:3:forces:R:3 reactant=T mapped=T (centered)=T charge=0 spin=1 energy=-34182.6683598355 pbc="F F F"
O       -3.43678996       0.54847350      -1.44214317       0.08261170       0.00042011      -0.01321564
O       -2.86215796       0.73333144       2.10664672       0.02332060      -0.02077067      -0.00053564
O       -2.00915432      -1.82702247      -1.12542244       0.02548446      -0.02699300       0.00169831
O       -5.04234705       2.39653764       2.04948993       0.02471085      -0.01974595      -0.01843269
O       -0.19060564      -0.04386064      -1.84091104       0.06858868      -0.05011014       0.01767629
O        1.03599147       1.51047426       0.60114739       0.01888682       0.04344094       0.01959782
C       -3.13680930       0.01084656      -0.15623403       0.05237313      -0.01055769      -0.00944290
C       -3.36409604       1.13900925       0.84682725       0.03787699      -0.01609178      -0.00489124
C       -1.80707955      -0.80200345      -0.16358304       0.04026340      -0.03900389       0.01603956
C       -4.84987200       1.46452494       0.98671812       0.03565909      -0.01823799      -0.01799238
C       -0.39724769      -0.17624550      -0.43907335       0.09274453      -0.08717615       0.05547201
C       -0.28990961       1.21681507       0.18751795       0.02680127      -0.03771942       0.00492054
H       -3.86774531      -0.76893715       0.09270046       0.03671728      -0.00337627      -0.02993541
H       -2.85367100       2.04511100       0.49269556       0.03850063      -0.01301924       0.00593336
H       -1.74858778      -1.27871141       0.81560817      -0.00199054      -0.05394493       0.01612847
H       -5.26210386       1.83617865       0.04759732       0.04257831      -0.01646121      -0.02024048
H       -5.39279480       0.56400357       1.28106844       0.03363094      -0.01860505      -0.02316019
H       -3.97481735      -0.08574404      -1.92426358       0.03486121       0.02194381       0.00109003
H       -3.28327290       1.30482020       2.76383016       0.01766738      -0.02103104      -0.00384904
H       -0.58630784       1.97515793      -0.53629936      -0.00726527      -0.07179206      -0.03004065
H       -0.93894712       1.26769682       1.06062755       0.02017228      -0.03143563       0.00015413
H       -2.00958558      -1.36751695      -1.97955128       0.02522492      -0.12007894       0.09974415
H        1.27412552       0.76322349       1.16692181       0.04550238       0.08015790       0.08317500
H       -4.93566484       3.29112531       1.71246186       0.02931719      -0.01899341      -0.01462007
O        3.29683621      -2.15163986      -2.04878250      -0.06453602       0.01766278       0.02510780
O        1.76560289      -3.42561744      -1.00936781      -0.10517976       0.09260869      -0.00609190
O        4.97716448      -2.41896536       0.44063546      -0.04048038      -0.00194486      -0.00242572
N        0.61386887      -1.07864678       0.15446416      -0.03825114       0.07359257       0.03491624
N        5.15511026      -0.19554215       0.05620495      -0.02809978      -0.00519147      -0.00981209
C        1.99492623      -1.10060757      -0.36919322      -0.04585423       0.04869342       0.02008513
C        3.01539971      -1.09000043       0.80187902      -0.02970487       0.01124340       0.00781036
C        2.30085517      -2.36241810      -1.17232905      -0.09164010       0.02647956       0.01336662
C        4.47562077      -1.30940705       0.40580043      -0.03292887      -0.00264225      -0.00356914
H        2.17246796      -0.24309544      -1.01569930      -0.02843208       0.04446181       0.02343883
H        2.93768573      -0.14023434       1.33111549      -0.00913203       0.00479628       0.02240331
H        2.75685693      -1.89593414       1.48741845      -0.03522826       0.00652910      -0.00058975
H        0.27586203      -2.03484942       0.21279547      -0.07663321       0.05947129      -0.02383837
H        0.10577373      -0.91740898      -2.13032787      -0.10278599       0.12623300      -0.22087418
H        4.68160806       0.68750583      -0.09589407      -0.02050448      -0.00109788      -0.00849279
H        6.09544335      -0.31860249      -0.28014212      -0.02892959      -0.01231615      -0.01079590
H        3.60486115      -3.01403468      -2.36941062      -0.08411346       0.01562250       0.02404061
O        3.47175818       2.16338700      -0.49091340       0.00377270       0.01461362      -0.00933005
H        2.54592748       2.04681841      -0.20452411       0.00471389       0.01882430      -0.00626910
H        3.68582133       3.08200496      -0.30810774       0.00970929       0.01154191      -0.00435335
