44
Properties=species:S:1:pos:R:3:forces:R:3 reactant=T mapped=T (centered)=T charge=0 spin=1 energy=-34182.72251109894 free_energy=-34182.72251109894 stress="3.178214740842958 -1.5721397490649993 -0.374767572719479 -1.5721397490649993 0.583920468371805 0.23933349601138143 -0.374767572719479 0.23933349601138143 -0.056324436411825246" pbc="F F F"
O       -3.38205176       0.46426431      -1.50627011       0.06401753       0.00177889      -0.00878936
O       -2.83502097       0.65139266       2.07659382       0.01187304      -0.01896477       0.00013420
O       -1.97293193      -1.82332385      -1.22075960       0.02245430      -0.02147608       0.00792562
O       -4.95649121       2.39433323       2.02856984       0.01266568      -0.01786808      -0.01762548
O       -0.13800655      -0.02244224      -1.84162018       0.04674909      -0.03161419       0.01529542
O        1.04499446       1.49366656       0.61915923       0.01220267       0.03766385       0.01201504
C       -3.11245063      -0.03152986      -0.19246817       0.03847501      -0.00860706      -0.00755887
C       -3.31720910       1.09264968       0.82148953       0.02573005      -0.01409839      -0.00359971
C       -1.78294807      -0.83494354      -0.22043283       0.03019325      -0.02620152       0.01518455
C       -4.79092732       1.46240235       0.96385803       0.02394260      -0.01588717      -0.01728912
C       -0.37365105      -0.18885389      -0.45731805       0.06462022      -0.05718387       0.04167705
C       -0.27555195       1.19165329       0.19509852       0.01730352      -0.02249840       0.00616180
H       -3.84125588      -0.81300546       0.05634017       0.02704597      -0.00426430      -0.02520127
H       -2.77850352       1.98668263       0.48102090       0.02713162      -0.01177251       0.00666199
H       -1.72912960      -1.34425731       0.74248539       0.00046895      -0.03194820       0.01770822
H       -5.19534166       1.85637311       0.02837763       0.03209479      -0.01382478      -0.01996667
H       -5.36148328       0.57782404       1.25440410       0.02178054      -0.01639457      -0.02373530
H       -4.29411225       0.26407262      -1.73660900       0.05869557       0.02401996      -0.00516894
H       -3.23105840       1.22920706       2.74345630       0.00524260      -0.02069843      -0.00270858
H       -0.57416966       1.95832566      -0.51866196      -0.01071721      -0.04727180      -0.01726457
H       -0.92368306       1.22019776       1.06846912       0.01526263      -0.02013664       0.00494092
H       -2.30305465      -1.33378420      -1.99202431       0.04648048      -0.12080114       0.09938778
H        1.28248402       0.75479684       1.19555575       0.03384485       0.06617799       0.05863111
H       -4.76722460       3.28177297       1.70806655       0.02013169      -0.01777649      -0.01302026
O        3.31211989      -2.21385140      -1.99636529      -0.05148332       0.01277038       0.01723430
O        1.77401298      -3.45304319      -0.92796701      -0.09763618       0.06959544      -0.01559515
O        5.01420428      -2.34984788       0.50174717      -0.02946398      -0.00641126      -0.00444080
N        0.61975594      -1.09718591       0.15618134      -0.02609554       0.05767940       0.02885933
N        5.12469187      -0.13641205       0.04153758      -0.02008671      -0.00857063      -0.01084634
C        2.00138339      -1.11424392      -0.35511907      -0.03299966       0.03670415       0.01514557
C        3.01500640      -1.06662147       0.82041937      -0.02072344       0.00526895       0.00462669
C        2.31108347      -2.39526427      -1.12043868      -0.06910837       0.03459670       0.00386731
C        4.47939993      -1.25759842       0.43116853      -0.02442903      -0.00463294      -0.00531867
H        2.17088425      -0.27437957      -1.02614829      -0.01970368       0.03634996       0.01981273
H        2.91991724      -0.11094397       1.33596220      -0.00431756      -0.00089860       0.01774875
H        2.76894546      -1.86605644       1.51789596      -0.02549725       0.00072076      -0.00318750
H        0.28146564      -2.05459210       0.18631441      -0.05236653       0.04830943      -0.00850414
H       -0.11086929      -0.92042345      -2.20093026      -0.08731372       0.09800974      -0.15499075
H        4.63200473       0.73427396      -0.12294713      -0.01419081      -0.00469210      -0.00849294
H        6.06779207      -0.24243574      -0.29220196      -0.02139748      -0.01379056      -0.01230935
H        3.61384213      -3.08721950      -2.29131208      -0.07342346       0.01311980       0.01042858
O        3.44347205       2.22727248      -0.50638022       0.00519488       0.01021720      -0.00557599
H        2.52746897       2.06316754      -0.21147100       0.00489241       0.01786756      -0.00585889
H        3.64219768       3.12793073      -0.23672754       0.01245966       0.00743446      -0.00639853
