44
Properties=species:S:1:pos:R:3 reactant=T mapped=T (centered)=T charge=0 spin=1 pbc="F F F"
O       -0.59105928      -0.31842754      -0.02516457
O       -3.95650390      -0.21961063       1.38391039
O        1.57098364     -11.80063392       7.51184535
O       -4.25156935       1.15692293      -1.36799956
O        0.27902025      -0.86581736      -4.10773077
O        1.67808895       3.68703954       2.13950129
C       -1.68317585      -0.65534081       0.76033136
C       -2.85341055       0.25746817       0.63967307
C       -0.26234911      -0.67542012       1.28518843
C       -3.10733644       0.31530110      -0.91857662
C        0.67913347       0.16580971       2.11324698
C        1.14225288       1.54219743       1.81630189
H       -2.03678881      -1.64530740       0.59053409
H       -2.61640225       1.29003981       0.89905751
H       -0.04933751      -1.73636944       1.46569388
H       -2.15017936       0.70809605      -1.34144785
H       -3.28919303      -0.68287231      -1.40624271
H        1.05267792      -0.84925625      -3.50820153
H       -4.71971262       0.31566071       1.11231996
H        1.13361160       1.94127423       0.79865013
H        2.10725754       1.65193253       2.32245155
H        1.92900960     -10.96762829       7.81281463
H        1.49835060       4.06494977       3.01683802
H       -3.87928264       2.05684105      -1.44607489
O       -1.67256289       0.16497683      -4.58725690
O       -0.41617676       1.01063911      -2.98024086
O        1.52394811      -3.63696544       0.85632650
N        0.86107800      -0.12768469       3.52577437
N        2.21904628      -1.75449786      -0.09109535
C        1.94840082      -0.55526366       2.66101055
C        2.37785251      -1.96184140       2.36744577
C       -0.58106814       0.15683618      -3.80612509
C        2.04243137      -2.54944735       1.00066275
H        2.82799860       0.07288824       2.75297694
H        3.46241476      -1.97429049       2.43259252
H        2.06399981      -2.69587748       3.11558697
H        0.23014909      -0.90362495       3.75786625
H      -11.61152145      18.96018070     -24.37275698
H        2.89070281      -0.99086244      -0.12956074
H        1.83724369      -2.17288593      -0.93454578
H       -2.22909063       0.87062305      -4.20053441
O        4.87250102       2.72774719      -0.97024347
H        4.39951656       3.30791515      -0.36313526
H        5.32905071       3.31458628      -1.58166882
