47
Properties=species:S:1:pos:R:3 pbc="F F F"
O       -2.99258186       0.79887043      -1.73577462
O       -2.95271202       1.49907400       1.79179138
O       -1.71480584      -1.64776556      -0.08075614
O       -5.29173240       2.86605945       1.23362812
O       -0.42534850      -0.10905544      -1.98893263
O        1.06278216       2.22155553      -0.96601700
C       -2.95793961       0.39897649      -0.38731241
C       -3.36182309       1.62774195       0.45183464
C       -1.63394026      -0.24986860       0.07479164
C       -4.88437845       1.81593227       0.38789609
C       -0.34508278       0.25598904      -0.61380183
C       -0.19462210       1.79030247      -0.51690596
H       -3.71438992      -0.38707038      -0.21775457
H       -2.88023830       2.51482825       0.00889536
H       -1.54662528      -0.07165460       1.15096665
H       -5.19307788       1.97467393      -0.64982875
H       -5.37518308       0.91990964       0.77609380
H       -2.32387936       0.29350574      -2.22180426
H       -3.64632097       1.91085517       2.32977589
H       -0.39298108       2.10395487       0.51198516
H       -0.93591647       2.24520739      -1.17915682
H       -1.52364814      -1.87114221      -1.00254477
H        1.69504776       2.13257281      -0.23317181
H       -4.99572105       3.70407528       0.86074371
O        1.75477527      -1.45884652      -3.10790250
O        0.73180577      -2.79211152      -1.64183262
O        5.20588748      -1.73126562      -0.72534012
N        0.78489610      -0.39790212       0.05458182
N        4.57900585       0.17977757       0.28705607
C        1.88375458      -0.83457155      -0.80858022
C        2.93490919      -1.56473529       0.05535861
C        1.37983699      -1.80070015      -1.87964786
C        4.35632339      -1.06414041      -0.17880541
H        2.31851910       0.03748979      -1.30682530
H        2.68237113      -1.42942778       1.10706840
H        2.91756372      -2.63428666      -0.15432673
H        0.46137315      -1.22915053       0.56504715
H        0.13980585       0.50281272      -2.48177720
H        3.87551867       0.70741630       0.78375533
H        5.50410310       0.56510785       0.19598699
H        1.43500756      -2.10268343      -3.76055541
O        2.20141495       1.42166860       1.51523610
H        1.64396318       0.68229830       1.18096359
H        1.83966203       1.68579774       2.36245889
O        0.33013823      -3.00250137       1.24010368
H        0.53361601      -3.31980448       0.34998558
H       -0.62909444      -2.91951599       1.26423412
