47
Properties=species:S:1:pos:R:3:energies:R:1:forces:R:3:charge:R:1 energy=-2290.6014756938225 free_energy=-2290.6014756938225 dipole="-0.03706905083322779 0.3558057172082989 0.07412015975557663" pbc="F F F"
O       -2.79088457       0.35998134      -1.07521600    -113.17581932       0.01033530      -0.00168137       0.00586534      -0.45394248
O       -3.03437719       2.29996747       1.93414352    -113.02989366      -0.00236552       0.00094117       0.00601027      -0.43885953
O       -1.30104556      -0.75504898       1.85808096    -113.26828656       0.00068084      -0.00136558       0.01594685      -0.46861262
O       -5.61880398       2.80001396       1.13945904    -112.87216802      -0.00501357      -0.00815786      -0.01746382      -0.43208415
O       -0.36146421      -0.60707820      -3.46682344    -114.43368012       0.00179469       0.01181570      -0.00795352      -0.58118274
O        1.30227523       1.87557501      -1.10430363    -113.18461828       0.00600631      -0.00091722       0.00223779      -0.45893634
C       -2.76309734       0.44234552       0.32642749     -59.02375645       0.00739447      -0.00114815       0.00642524       0.08384614
C       -3.44380174       1.78828722       0.69232705     -59.15261860       0.00678524       0.00180032       0.00353173       0.09014166
C       -1.34727850       0.32864147       0.97610080     -59.30895338       0.00595781      -0.00892946       0.01035175       0.08117421
C       -4.97335862       1.65652813       0.64040485     -59.27553853       0.00704020      -0.00461995      -0.00981491       0.06414813
C       -0.21554532       0.26354543      -0.03094544     -58.28943396       0.00961859       0.00231003       0.00833149       0.07117129
C       -0.04107534       1.49828049      -0.89151727     -59.37481648       0.00661659       0.00156609      -0.00048499       0.05618850
H       -3.35227545      -0.38115921       0.76648700     -13.17032202       0.00267462       0.00533787       0.00414781       0.02853909
H       -3.11712489       2.52640789      -0.04984678     -12.98218850       0.00534063       0.00451582       0.00467310       0.05687493
H       -1.20132130       1.23279411       1.58454898     -12.87554484       0.00189712      -0.00682382       0.01388434       0.06375783
H       -5.27999236       1.43892540      -0.39099713     -13.19852123       0.01636432      -0.00660241      -0.01217199       0.03800381
H       -5.29879902       0.83533543       1.28692124     -13.11826332       0.00295394      -0.00555601      -0.01268555       0.04786724
H       -2.28138451      -0.40515090      -1.37365920     -11.40569725       0.01869304       0.00372949       0.00566659       0.31579760
H       -3.42833011       1.76473315       2.63391388     -11.46216411      -0.01454278       0.00449803       0.00146818       0.30455397
H       -0.59921641       2.32695854      -0.43470808     -13.26237476      -0.00154922       0.00149534      -0.01268225       0.03021307
H       -0.47883301       1.30429346      -1.87550338     -12.78788809       0.01809242      -0.01055178      -0.00294635       0.08722728
H       -0.96979945      -1.51569642       1.33821959     -11.18357308       0.00644937      -0.00795488       0.03777131       0.34159301
H        1.72020481       1.97438317      -0.23377086     -11.50985039       0.00680727       0.00561352       0.00054385       0.31001696
H       -5.20285637       3.58264607       0.76096411     -11.59138035      -0.01203593      -0.00549581      -0.01956830       0.29550722
O        2.20506116      -1.97488030      -2.75826792    -112.60628665      -0.01896755      -0.00221988      -0.00965679      -0.38209110
O        1.10319688      -3.31313648      -1.35687942    -111.88474563      -0.00189409      -0.00807497       0.00973248      -0.37668669
O        4.81813851      -2.06496696      -0.66062521    -112.33918255       0.00734296       0.00493508      -0.00808590      -0.42884073
N        0.47538429      -0.78730716       0.03400998     -79.80085776       0.01355314       0.00501444       0.00463145      -0.21407712
N        4.51967824       0.08034909      -0.03488586     -80.86041625       0.00795348       0.00331738       0.00019352      -0.27239770
C        1.69142036      -1.04726681      -0.66760985     -58.94097251       0.00829996       0.00149454      -0.00376556       0.03467772
C        2.73979202      -1.45036574       0.40151174     -59.19197693       0.00774662       0.00136749      -0.00366620      -0.09813387
C        1.58631154      -2.24726534      -1.59901964     -58.88460000       0.00179995       0.01087294      -0.00304264       0.36729638
C        4.13285624      -1.20870013      -0.15027042     -59.20489274       0.00603021       0.00591162      -0.00320607       0.28592092
H        2.05268499      -0.19826386      -1.26151216     -13.03434749       0.01686389      -0.00246486      -0.00735032       0.05866363
H        2.58133765      -0.84585306       1.29300155     -13.00040552       0.00611151       0.00007274      -0.00243121       0.07001538
H        2.60284418      -2.50061941       0.65696243     -12.95159946       0.00729283       0.00103304      -0.00437954       0.08199799
H       -2.31545342      -2.79359540       0.13343640     -11.82386709      -0.10594326       0.16398508      -0.03551765       0.28275558
H        0.51779597      -0.24550829      -3.32463111     -11.77412927       0.01187950      -0.01701214       0.00380720       0.29652621
H        3.91342201       0.77217102       0.37248480     -12.14065360       0.00518181       0.00447017      -0.00635492       0.20161561
H        5.39894778       0.36916028      -0.42881004     -12.24777542       0.00926069       0.00237590       0.00255085       0.19075699
H        2.28671249      -2.78019982      -3.29333383     -11.02332768      -0.02738967      -0.00083451      -0.01245171       0.33246311
O        2.14683634       1.66326737       1.63178973    -114.73853814       0.00531596       0.00853339       0.00199999      -0.57935405
H        1.43812252       1.11722737       1.98770349     -11.60464538       0.00852760      -0.00524064      -0.01302075       0.30441761
H        2.28122212       2.38931261       2.24521626     -11.66922327      -0.01270805       0.00448683       0.01027517       0.29504159
O       -1.36775015      -2.94101646       0.09189673    -114.32482023      -0.41449532      -0.19723090       0.07943409      -0.56296410
H       -0.32283763      -1.10067370      -4.28892863     -11.88931684      -0.03171748       0.01431075       0.03283416       0.28308438
H       -1.27922811      -3.89602342       0.13343640     -11.72754399       0.38395953       0.02707746      -0.06361359       0.29630819
