47
Properties=species:S:1:pos:R:3 pbc="F F F"
O       -2.87954189       0.17805119      -1.42046948
O       -2.71223318       1.38656431       1.93669449
O       -1.71099438      -2.07643337       0.27441456
O       -5.14556876       2.59004687       1.43913409
O       -0.35440502      -0.94335155      -3.34243339
O        0.98451620       1.74195411      -1.02756059
C       -2.89261254      -0.05283860      -0.03345360
C       -3.26976683       1.27908879       0.64518842
C       -1.59202928      -0.69453415       0.49815674
C       -4.79591131       1.42186941       0.73129212
C       -0.27787524      -0.18839078      -0.09087717
C       -0.24337685       1.25018940      -0.54537263
H       -3.66846497      -0.79764856       0.20903185
H       -2.88234870       2.09814136       0.01745159
H       -1.56634855      -0.50447284       1.58520205
H       -5.22573970       1.40655873      -0.27506731
H       -5.20880119       0.59350486       1.31235220
H       -2.49840548      -0.60005467      -1.85091513
H       -3.37731930       1.82721308       2.48716399
H       -0.61142879       1.86653000       0.28763769
H       -0.95549704       1.34436352      -1.37198048
H       -0.82365004      -2.40469559       0.04240534
H        1.59366233       1.85274884      -0.28106965
H       -4.90759658       3.36023405       0.91042382
O        2.56755748      -1.97885916      -2.78448956
O        1.31235799      -3.28821887      -1.48826225
O        5.08643451      -1.99390812      -0.66696191
N        0.60680722      -1.08503470      -0.09903498
N        4.69011329       0.15293689      -0.11365563
C        1.90656001      -1.08467886      -0.68853518
C        2.97385293      -1.45118954       0.36835260
C        1.87417346      -2.24796599      -1.67815598
C        4.35865081      -1.15441099      -0.18981220
H        2.18549598      -0.16703617      -1.21935025
H        2.81489187      -0.87087314       1.27603223
H        2.88973477      -2.51083602       0.60998480
H       -2.31545342      -2.79359540       0.13343640
H        0.27950375      -0.22827631      -3.44014791
H        4.06835786       0.83529886       0.28715714
H        5.56951714       0.45700580      -0.49653096
H        2.60460541      -2.76817263      -3.34832804
O        2.33860365       1.60786434       1.46964464
H        1.68785762       0.94064306       1.70979882
H        2.35708108       2.25409905       2.17892092
O       -1.36775015      -2.94101646       0.09189673
H       -0.32283763      -1.10067370      -4.28892863
H       -1.27922811      -3.89602342       0.13343640
