47
Properties=species:S:1:pos:R:3:energies:R:1:forces:R:3:charge:R:1 energy=-2290.17321028506 free_energy=-2290.17321028506 dipole="-0.06359237595665342 0.79495458827577 0.4956868229831894" pbc="F F F"
O       -3.13214595       1.03323775      -1.79955584    -113.16969484       0.00263547       0.02619892      -0.01308615      -0.45303313
O       -2.59051916       1.20223383       1.72798040    -113.31358891       0.00539492       0.01158572      -0.01421158      -0.46125029
O       -2.01219813      -1.48575463      -1.27197392    -112.95857608       0.00898782       0.02216893      -0.01979036      -0.45400290
O       -5.03698398       2.73680769       1.65984477    -113.05379146       0.00392938      -0.00384694       0.01234693      -0.43918229
O       -0.10812194      -0.00568447      -2.10748351    -113.09615416       0.00459001       0.03746475      -0.01172735      -0.45307706
O        0.83426339       2.32021167      -1.08364429    -113.29623944      -0.00226472       0.03052488       0.00323169      -0.46146514
C       -3.03574137       0.43291565      -0.53488031     -59.11748842       0.00045582       0.01920602      -0.01633600       0.09687918
C       -3.26932088       1.51155187       0.53116576     -59.16147754      -0.00074184       0.01321210      -0.01030187       0.08827295
C       -1.74864755      -0.40518838      -0.40166375     -59.06237445       0.00193359       0.02165201      -0.01672731       0.08042735
C       -4.77515754       1.65745717       0.79367159     -59.26664518       0.00029386       0.00671395      -0.00169208       0.05863485
C       -0.38481614       0.26319641      -0.75720397     -58.94707206       0.00086099       0.02699113      -0.01073623       0.17884301
C       -0.37459638       1.79659887      -0.58808766     -59.27396296      -0.00133906       0.02603713      -0.00015491       0.04823328
H       -3.83071190      -0.32536622      -0.42466904     -12.94694572       0.00113577       0.01782241      -0.02229498       0.04582794
H       -2.90006876       2.47161589       0.13763127     -13.07743896      -0.00638649       0.01635168      -0.00771936       0.03721942
H       -1.71632456      -0.73373643       0.64898261     -12.93563264       0.00122747       0.01796457      -0.01792731       0.05678838
H       -5.30068236       1.76401965      -0.16103762     -13.19426674      -0.00518738       0.01684827       0.00254024       0.04108687
H       -5.14221645       0.76601299       1.30898243     -12.99616370       0.00425754       0.00059738      -0.00962055       0.06197733
H       -2.87721050       0.34737649      -2.43340578     -11.27958991       0.00503174       0.03082206      -0.01691806       0.32559086
H       -3.09669233       1.61029235       2.44502322     -11.28992323       0.00382429       0.00295159      -0.01030839       0.31744294
H       -0.54226383       2.05419313       0.45978135     -13.23402491      -0.00182861       0.01907016       0.00151007       0.03893693
H       -1.16538715       2.21253646      -1.21411003     -12.91332899      -0.00177661       0.02978672       0.00263838       0.07323516
H       -1.19918104      -1.94710075      -1.53444598     -11.37832701       0.01238648       0.03154966      -0.02077627       0.33109833
H        1.52443075       2.20842317      -0.40875225     -11.33720949      -0.00112488       0.02524659       0.00139106       0.32074284
H       -4.86309054       3.55995398       1.18942988     -11.55996103       0.00492713       0.00176269       0.02254370       0.29421217
O        2.52446788      -1.83283155      -2.57515844    -112.47192158      -0.01062809       0.01103203      -0.00898751      -0.36206504
O        0.65837427      -2.60138615      -1.62857697    -112.33487740      -0.03276287       0.01233555      -0.01618396      -0.41574343
O        5.00696191      -2.09755649      -0.44671619    -112.29102148      -0.01141733       0.00013605       0.00495613      -0.42167683
N        0.69843799      -0.27226403       0.11625462     -81.25442312      -0.00298297       0.02055020      -0.01160909      -0.32274501
N        4.69054371       0.08234714       0.03859590     -80.92955195      -0.00521529      -0.00083686       0.00718930      -0.27656182
C        1.87822513      -0.77951286      -0.57350414     -58.87978043      -0.00466609       0.01351202      -0.01150037       0.03209112
C        2.86152927      -1.41251333       0.43188721     -59.32089213      -0.01373346       0.00513127      -0.00932394      -0.10577505
C        1.58525212      -1.83090916      -1.64058437     -58.87512102       0.01246391       0.03763610      -0.01443930       0.36252569
C        4.29948564      -1.20621856      -0.04061313     -59.18026004      -0.00800170      -0.00202785       0.00050526       0.28635343
H        2.36705852       0.05804756      -1.08314368     -12.84306413       0.00278918       0.01310873      -0.00732383       0.07431366
H        2.74625142      -0.93683165       1.40575835     -12.94073471      -0.01695104      -0.00005899      -0.00709440       0.07411042
H        2.66464931      -2.47965438       0.54077813     -13.02881264      -0.01923550       0.00518928      -0.01618370       0.07553446
H        0.35545633      -0.96505999       0.77840228     -12.23111737      -0.00767851       0.02155593      -0.01462168       0.18944501
H        0.38374205       0.75595153      -2.45083802     -11.29847032       0.00232024       0.04233029      -0.00483693       0.32315255
H        4.08944868       0.79585967       0.42180216     -12.04491997      -0.00498678      -0.00005169       0.00530418       0.21157392
H        5.61470844       0.33240521      -0.26997203     -12.22818090      -0.00202681      -0.00424777       0.01475038       0.19224862
H        2.39298620      -2.56093164      -3.20341529     -10.90726426      -0.01138013       0.01477956      -0.01163222       0.34029302
O        2.33769741       1.66081791       1.25814227    -114.98600420      -0.00162738       0.01146908      -0.00351962      -0.60787692
H        1.66388827       0.96510323       1.11119277     -11.48449797      -0.00218273       0.01320840      -0.00964968       0.31399842
H        2.12302153       2.09829457       2.08347905     -11.84194770      -0.00573674       0.00933510      -0.00361869       0.28421723
O       -0.58139465      -2.83486624       0.78519737    -114.64514748       1.15728480       0.61573885       1.93699802      -0.73499357
H       -0.46547126      -2.19372102       0.08014803     -10.89133165      -0.77954878      -1.97642470       0.03629911       0.37960757
H       -0.81189752      -3.55212058       1.38018866     -11.40399003      -0.27531865       0.68791704      -1.68135078       0.33453355
