47
Properties=species:S:1:pos:R:3 pbc="F F F"
O       -3.13214595       1.03323775      -1.79955584
O       -2.59051916       1.20223383       1.72798040
O       -2.01219813      -1.48575463      -1.27197392
O       -5.03698398       2.73680769       1.65984477
O       -0.10812194      -0.00568447      -2.10748351
O        0.83426339       2.32021167      -1.08364429
C       -3.03574137       0.43291565      -0.53488031
C       -3.26932088       1.51155187       0.53116576
C       -1.74864755      -0.40518838      -0.40166375
C       -4.77515754       1.65745717       0.79367159
C       -0.38481614       0.26319641      -0.75720397
C       -0.37459638       1.79659887      -0.58808766
H       -3.83071190      -0.32536622      -0.42466904
H       -2.90006876       2.47161589       0.13763127
H       -1.71632456      -0.73373643       0.64898261
H       -5.30068236       1.76401965      -0.16103762
H       -5.14221645       0.76601299       1.30898243
H       -2.87721050       0.34737649      -2.43340578
H       -3.09669233       1.61029235       2.44502322
H       -0.54226383       2.05419313       0.45978135
H       -1.16538715       2.21253646      -1.21411003
H       -1.19918104      -1.94710075      -1.53444598
H        1.52443075       2.20842317      -0.40875225
H       -4.86309054       3.55995398       1.18942988
O        2.52446788      -1.83283155      -2.57515844
O        0.65837427      -2.60138615      -1.62857697
O        5.00696191      -2.09755649      -0.44671619
N        0.69843799      -0.27226403       0.11625462
N        4.69054371       0.08234714       0.03859590
C        1.87822513      -0.77951286      -0.57350414
C        2.86152927      -1.41251333       0.43188721
C        1.58525212      -1.83090916      -1.64058437
C        4.29948564      -1.20621856      -0.04061313
H        2.36705852       0.05804756      -1.08314368
H        2.74625142      -0.93683165       1.40575835
H        2.66464931      -2.47965438       0.54077813
H        0.35545633      -0.96505999       0.77840228
H        0.38374205       0.75595153      -2.45083802
H        4.08944868       0.79585967       0.42180216
H        5.61470844       0.33240521      -0.26997203
H        2.39298620      -2.56093164      -3.20341529
O        2.33769741       1.66081791       1.25814227
H        1.66388827       0.96510323       1.11119277
H        2.12302153       2.09829457       2.08347905
O       -0.58139465      -2.83486624       0.78519737
H       -0.46547126      -2.19372102       0.08014803
H       -0.81189752      -3.55212058       1.38018866
47
Properties=species:S:1:pos:R:3 pbc="F F F"
O       -3.10939519       0.98835399      -1.75126652
O       -2.62010970       1.27541607       1.74172461
O       -1.96478796      -1.43704092      -1.06330359
O       -5.07577198       2.74102144       1.62515239
O       -0.12404550      -0.04697837      -2.20389473
O        0.86546418       2.29056923      -1.08502158
C       -3.01756510       0.43354431      -0.47745979
C       -3.28095294       1.53000089       0.54190985
C       -1.72188961      -0.35626639      -0.30981278
C       -4.78837095       1.65739523       0.78345381
C       -0.37353142       0.26321968      -0.70878673
C       -0.35236164       1.77671098      -0.60831630
H       -3.79881614      -0.32908575      -0.34525864
H       -2.91453917       2.47526869       0.12513273
H       -1.68199101      -0.60263439       0.71135370
H       -5.29930303       1.74234670      -0.17636825
H       -5.15265529       0.77063449       1.30751168
H       -2.85526875       0.30466922      -2.38310502
H       -3.12475469       1.68224263       2.45660262
H       -0.54606067       2.07237749       0.40014872
H       -1.11961687       2.15198693      -1.25820292
H       -1.15674650      -1.89556362      -1.32416934
H        1.55083426       2.17955776      -0.41482064
H       -4.90167969       3.56510901       1.15419957
O        2.51891927      -1.85078876      -2.57515867
O        0.70377428      -2.65732347      -1.59825673
O        5.01011885      -2.10387115      -0.44876972
N        0.69931291      -0.31508753       0.12297872
N        4.69489785       0.07372664       0.04590419
C        1.88151665      -0.80585042      -0.56757078
C        2.86915862      -1.42352412       0.44206925
C        1.60106792      -1.86715353      -1.62560631
C        4.30412218      -1.21487129      -0.03571654
H        2.36184546       0.03247284      -1.08282784
H        2.75100234      -0.93925371       1.41044830
H        2.67627414      -2.48953934       0.56073082
H        0.25022410      -1.21429573       0.35770840
H        0.36554025       0.71112985      -2.54565888
H        4.09345874       0.78579313       0.43072141
H        5.61606957       0.32636825      -0.26835416
H        2.38820032      -2.57466513      -3.19977099
O        2.32497334       1.66098121       1.28305210
H        1.66121210       0.97564108       1.13829392
H        2.10883343       2.10144134       2.11401745
O       -0.57743959      -2.87152241       0.79031154
H       -0.45655576      -2.18481366       0.08960978
H       -0.80914300      -3.59251245       1.38840175
47
Properties=species:S:1:pos:R:3 pbc="F F F"
O       -3.08664443       0.94347023      -1.70297719
O       -2.64970023       1.34859832       1.75546882
O       -1.91737779      -1.38832721      -0.85463327
O       -5.11455998       2.74523519       1.59046001
O       -0.14056362      -0.08798909      -2.29861145
O        0.89666497       2.26092678      -1.08639887
C       -2.99938883       0.43417297      -0.42003927
C       -3.29258499       1.54844992       0.55265393
C       -1.69513168      -0.30734440      -0.21796181
C       -4.80158435       1.65733330       0.77323602
C       -0.36224670       0.26324295      -0.66036950
C       -0.33012691       1.75682309      -0.62854494
H       -3.76692037      -0.33280529      -0.26584823
H       -2.92900958       2.47892149       0.11263420
H       -1.64765746      -0.47153236       0.77372479
H       -5.29792369       1.72067375      -0.19169889
H       -5.16309413       0.77525598       1.30604094
H       -2.83251799       0.25978546      -2.33481569
H       -3.15434523       1.75542488       2.47034683
H       -0.54985751       2.09056185       0.34051609
H       -1.07384660       2.09143739      -1.30229581
H       -1.10933633      -1.84684991      -1.11549901
H        1.58203505       2.14991531      -0.41619793
H       -4.94046769       3.56932276       1.11950719
O        2.51160416      -1.86919088      -2.57749783
O        0.74740779      -2.71370569      -1.57027543
O        5.01150930      -2.11063072      -0.45316219
N        0.69842134      -0.35835595       0.12736387
N        4.69748549       0.06466123       0.05087354
C        1.88304167      -0.83263289      -0.56397636
C        2.87502148      -1.43497982       0.44991235
C        1.61511722      -1.90384282      -1.61296720
C        4.30699223      -1.22396894      -0.03315890
H        2.35486589       0.00645320      -1.08485094
H        2.75398676      -0.94212067       1.41279931
H        2.68613247      -2.49986922       0.57834457
H        0.23459428      -1.28707445       0.36979694
H        0.34902213       0.67011912      -2.64037559
H        4.09570230       0.77528168       0.43730172
H        5.61566419       0.31988639      -0.26907523
H        2.38088521      -2.59306726      -3.20211016
O        2.31224927       1.66114450       1.30796193
H        1.64848803       0.97580438       1.16320375
H        2.09610936       2.10160464       2.13892728
O       -0.57525103      -2.90862349       0.79308677
H       -0.41798691      -2.14417192       0.05701889
H       -0.80695444      -3.62961353       1.39117698
47
Properties=species:S:1:pos:R:3 pbc="F F F"
O       -3.06389367       0.89858647      -1.65468787
O       -2.67929077       1.42178056       1.76921302
O       -1.86996762      -1.33961350      -0.64596294
O       -5.15334798       2.74944894       1.55576762
O       -0.15741524      -0.12874850      -2.39199879
O        0.92786576       2.23128434      -1.08777616
C       -2.98121256       0.43480162      -0.36261875
C       -3.30421705       1.56689894       0.56339802
C       -1.66837374      -0.25842241      -0.12611084
C       -4.81479776       1.65727136       0.76301824
C       -0.35096198       0.26326621      -0.61195226
C       -0.30789217       1.73693519      -0.64877358
H       -3.73502461      -0.33652482      -0.18643783
H       -2.94347999       2.48257429       0.10013566
H       -1.61332391      -0.34043032       0.83609588
H       -5.29654436       1.69900080      -0.20702952
H       -5.17353296       0.77987748       1.30457019
H       -2.80976723       0.21490170      -2.28652637
H       -3.18393576       1.82860712       2.48409104
H       -0.55365435       2.10874621       0.28088346
H       -1.02807632       2.03088786      -1.34638870
H       -1.06192616      -1.79813620      -0.90682869
H        1.61323584       2.12027287      -0.41757522
H       -4.97925569       3.57353651       1.08481481
O        2.50231739      -1.88776107      -2.58221964
O        0.78906965      -2.77025598      -1.54467676
O        5.01092809      -2.11755835      -0.45993730
N        0.69555811      -0.40179242       0.12936639
N        4.69810147       0.05542776       0.05346024
C        1.88259503      -0.85958342      -0.56276459
C        2.87891268      -1.44660358       0.45537281
C        1.62719486      -1.94070016      -1.60271073
C        4.30789062      -1.23323464      -0.03298389
H        2.34591467      -0.01973449      -1.08925668
H        2.75499952      -0.94515570       1.41276769
H        2.69401914      -2.51036715       0.59357569
H        0.20921344      -1.37559780       0.38356895
H        0.33217051       0.62935972      -2.73376294
H        4.09597420       0.76460217       0.44149938
H        5.61328717       0.31323646      -0.27217894
H        2.37159844      -2.61163744      -3.20683196
O        2.29952520       1.66130780       1.33287176
H        1.63576395       0.97596768       1.18811359
H        2.08338529       2.10176793       2.16383711
O       -0.57503413      -2.94589263       0.79347937
H       -0.36336111      -2.05815675      -0.00180255
H       -0.80673754      -3.66688267       1.39156957
47
Properties=species:S:1:pos:R:3 pbc="F F F"
O       -3.04114292       0.85370271      -1.60639855
O       -2.70888130       1.49496280       1.78295723
O       -1.82255744      -1.29089979      -0.43729262
O       -5.19213598       2.75366270       1.52107524
O       -0.17444480      -0.16928958      -2.48433177
O        0.95906655       2.20164189      -1.08915345
C       -2.96303630       0.43543028      -0.30519823
C       -3.31584911       1.58534796       0.57414210
C       -1.64161580      -0.20950042      -0.03425987
C       -4.82801116       1.65720943       0.75280046
C       -0.33967725       0.26328948      -0.56353503
C       -0.28565744       1.71704730      -0.66900222
H       -3.70312885      -0.34024435      -0.10702743
H       -2.95795039       2.48622709       0.08763712
H       -1.57899036      -0.20932829       0.89846698
H       -5.29516503       1.67732785      -0.22236016
H       -5.18397180       0.78449897       1.30309945
H       -2.78701647       0.17001794      -2.23823705
H       -3.21352630       1.90178936       2.49783525
H       -0.55745118       2.12693057       0.22125084
H       -0.98230605       1.97033833      -1.39048159
H       -1.01451599      -1.74942249      -0.69815836
H        1.64443663       2.09063042      -0.41895251
H       -5.01804369       3.57775026       1.05012243
O        2.49086074      -1.90616881      -2.58932259
O        0.82856162      -2.82664383      -1.52145925
O        5.00817699      -2.12432354      -0.46909355
N        0.69052499      -0.44506646       0.12898776
N        4.69654757       0.04635674       0.05366581
C        1.87997851      -0.88637150      -0.56393395
C        2.88063399      -1.45806490       0.45845213
C        1.63710262      -1.97739507      -1.59483540
C        4.30661912      -1.24233790      -0.03519003
H        2.33479357      -0.04575974      -1.09604356
H        2.75384240      -0.94802828       1.41035491
H        2.69973593      -2.52070265       0.60642565
H        0.17550770      -1.47628289       0.39817693
H        0.31514095       0.58881863      -2.82609591
H        4.09407622       0.75408511       0.44331591
H        5.60874025       0.30674897      -0.27766379
H        2.36014179      -2.63004518      -3.21393491
O        2.28680112       1.66147110       1.35778159
H        1.62303988       0.97613098       1.21302342
H        2.07066121       2.10193123       2.18874694
O       -0.57698712      -2.98299933       0.79149082
H       -0.30273660      -1.94004417      -0.09422816
H       -0.80869052      -3.70398937       1.38958102
47
Properties=species:S:1:pos:R:3 pbc="F F F"
O       -3.01839216       0.80881895      -1.55810923
O       -2.73847184       1.56814504       1.79670144
O       -1.77514727      -1.24218608      -0.22862229
O       -5.23092398       2.75787645       1.48638286
O       -0.19155860      -0.20964267      -2.57581880
O        0.99026734       2.17199945      -1.09053074
C       -2.94486003       0.43605894      -0.24777771
C       -3.32748117       1.60379699       0.58488619
C       -1.61485787      -0.16057843       0.05759110
C       -4.84122457       1.65714749       0.74258268
C       -0.32839253       0.26331275      -0.51511779
C       -0.26342270       1.69715941      -0.68923086
H       -3.67123308      -0.34396388      -0.02761703
H       -2.97242080       2.48987989       0.07513859
H       -1.54465681      -0.07822625       0.96083807
H       -5.29378569       1.65565490      -0.23769079
H       -5.19441064       0.78912047       1.30162870
H       -2.76426571       0.12513418      -2.18994773
H       -3.24311683       1.97497160       2.51157946
H       -0.56124802       2.14511493       0.16161821
H       -0.93653577       1.90978879      -1.43457448
H       -0.96710582      -1.70070878      -0.48948803
H        1.67563742       2.06098798      -0.42032980
H       -5.05683169       3.58196402       1.01543004
O        2.47705322      -1.92403151      -2.59874923
O        0.86570272      -2.88248664      -1.50056542
O        5.00307502      -2.13054369      -0.48057349
N        0.68314100      -0.48779545       0.12628544
N        4.69264280       0.03783075       0.05154768
C        1.87501112      -0.91261455      -0.56742701
C        2.88000443      -1.46898118       0.45920776
C        1.64465950      -2.01354493      -1.58928376
C        4.30299675      -1.25089613      -0.03971986
H        2.32132159      -0.07123996      -1.10515414
H        2.75033441      -0.95035583       1.40561845
H        2.70310184      -2.53049310       0.61695193
H        0.13487659      -1.58558242       0.41285221
H        0.29802715       0.54846554      -2.91758294
H        4.08982737       0.74411308       0.44280874
H        5.60184246       0.30080652      -0.28547233
H        2.34633426      -2.64790788      -3.22336155
O        2.27407705       1.66163440       1.38269142
H        1.61031581       0.97629427       1.23793325
H        2.05793714       2.10209453       2.21365677
O       -0.58129097      -3.01956099       0.78717857
H       -0.24572315      -1.80321740      -0.22610129
H       -0.81299438      -3.74055103       1.38526878
47
Properties=species:S:1:pos:R:3 pbc="F F F"
O       -2.99564140       0.76393519      -1.50981990
O       -2.76806237       1.64132729       1.81044565
O       -1.72773710      -1.19347237      -0.01995197
O       -5.26971198       2.76209020       1.45169048
O       -0.20869997      -0.24983427      -2.66661941
O        1.02146813       2.14235701      -1.09190803
C       -2.92668376       0.43668760      -0.19035719
C       -3.33911322       1.62224601       0.59563028
C       -1.58809993      -0.11165644       0.14944207
C       -4.85443797       1.65708555       0.73236489
C       -0.31710781       0.26333602      -0.46670056
C       -0.24118796       1.67727152      -0.70945950
H       -3.63933732      -0.34768342       0.05179338
H       -2.98689121       2.49353269       0.06264005
H       -1.51032326       0.05287579       1.02320916
H       -5.29240636       1.63398195      -0.25302142
H       -5.20484948       0.79374197       1.30015795
H       -2.74151495       0.08025042      -2.14165840
H       -3.27270737       2.04815385       2.52532366
H       -0.56504486       2.16329929       0.10198558
H       -0.89076549       1.84923926      -1.47866737
H       -0.91969564      -1.65199507      -0.28081771
H        1.70683821       2.03134554      -0.42170708
H       -5.09561969       3.58617777       0.98073766
O        2.46074309      -1.94091993      -2.61037612
O        0.90034121      -2.93735517      -1.48187184
O        4.99547045      -2.13578956      -0.49425368
N        0.67325441      -0.52955017       0.12138288
N        4.68623542       0.03027904       0.04722931
C        1.86754112      -0.93788332      -0.57312031
C        2.87687227      -1.47892318       0.45776314
C        1.64971379      -2.04872052      -1.58593236
C        4.29687178      -1.25848007      -0.04644993
H        2.30534701      -0.09574589      -1.11646496
H        2.74432381      -0.95170910       1.39868174
H        2.70396516      -2.53930928       0.62527796
H        0.08870510      -1.69999019       0.42691503
H        0.28088578       0.50827394      -3.00838355
H        4.08307591       0.73511533       0.44010133
H        5.59244207       0.29583835      -0.29548112
H        2.33002414      -2.66479630      -3.23498844
O        2.26135298       1.66179769       1.40760125
H        1.59759174       0.97645757       1.26284308
H        2.04521307       2.10225782       2.23856660
O       -0.58809743      -3.05514837       0.78066609
H       -0.20045813      -1.66016273      -0.40068204
H       -0.81980084      -3.77613841       1.37875629
47
Properties=species:S:1:pos:R:3 pbc="F F F"
O       -2.97289064       0.71905143      -1.46153058
O       -2.79765291       1.71450953       1.82418986
O       -1.68032693      -1.14475866       0.18871836
O       -5.30849998       2.76630395       1.41699810
O       -0.22583477      -0.28988700      -2.75685700
O        1.05266892       2.11271456      -1.09328532
C       -2.90850749       0.43731626      -0.13293667
C       -3.35074528       1.64069503       0.60637436
C       -1.56134199      -0.06273445       0.24129304
C       -4.86765138       1.65702362       0.72214711
C       -0.30582309       0.26335929      -0.41828332
C       -0.21895323       1.65738363      -0.72968814
H       -3.60744156      -0.35140295       0.13120378
H       -3.00136162       2.49718549       0.05014151
H       -1.47598971       0.18397782       1.08558025
H       -5.29102703       1.61230900      -0.26835206
H       -5.21528832       0.79836346       1.29868721
H       -2.71876419       0.03536666      -2.09336908
H       -3.30229790       2.12133609       2.53906787
H       -0.56884170       2.18148365       0.04235295
H       -0.84499522       1.78868973      -1.52276026
H       -0.87228547      -1.60328136      -0.07214738
H        1.73803900       2.00170309      -0.42308437
H       -5.13440769       3.59039152       0.94604528
O        2.44182097      -1.95636827      -2.62400578
O        0.93236771      -2.99078361      -1.46518103
O        4.98525388      -2.13959535      -0.50993665
N        0.66075582      -0.56986480       0.11447754
N        4.67721605       0.02416741       0.04090816
C        1.85745913      -0.96171201      -0.58081639
C        2.87112811      -1.48742510       0.45431574
C        1.65215607      -2.08245602      -1.58458375
C        4.28813481      -1.26462393      -0.05518278
H        2.28676043      -0.11881174      -1.12977856
H        2.73570122      -0.95162228       1.38974226
H        2.70221647      -2.54668537       0.63160122
H        0.03837675      -1.81605115       0.43978254
H        0.26375098       0.46822121      -3.09862114
H        4.07371246       0.72755766       0.43539114
H        5.58042969       0.29231027      -0.30749269
H        2.31110201      -2.68024465      -3.24861811
O        2.24862891       1.66196099       1.43251108
H        1.58486767       0.97662087       1.28775291
H        2.03248900       2.10242112       2.26347643
O       -0.59751589      -3.08929567       0.77215082
H       -0.17285985      -1.52170511      -0.61788761
H       -0.82921930      -3.81028571       1.37024103
47
Properties=species:S:1:pos:R:3 pbc="F F F"
O       -2.95013988       0.67416766      -1.41324126
O       -2.82724344       1.78769177       1.83793406
O       -1.63291676      -1.09604495       0.39738868
O       -5.34728798       2.77051770       1.38230571
O       -0.24294277      -0.32982000      -2.84662808
O        1.08386970       2.08307212      -1.09466260
C       -2.89033122       0.43794491      -0.07551615
C       -3.36237734       1.65914406       0.61711845
C       -1.53458406      -0.01381246       0.33314401
C       -4.88086478       1.65696168       0.71192933
C       -0.29453837       0.26338255      -0.36986609
C       -0.19671849       1.63749573      -0.74991679
H       -3.57554579      -0.35512248       0.21061418
H       -3.01583203       2.50083829       0.03764298
H       -1.44165615       0.31507986       1.14795134
H       -5.28964769       1.59063605      -0.28368269
H       -5.22572715       0.80298496       1.29721646
H       -2.69601344      -0.00951710      -2.04507976
H       -3.33188844       2.19451833       2.55281208
H       -0.57263854       2.19966802      -0.01727968
H       -0.79922494       1.72814019      -1.56685315
H       -0.82487530      -1.55456765       0.13652294
H        1.76923979       1.97206065      -0.42446166
H       -5.17319569       3.59460527       0.91135290
O        2.42023280      -1.96988909      -2.63936213
O        0.96172816      -3.04228454      -1.45021691
O        4.97237127      -2.14147362      -0.52734630
N        0.64559119      -0.60825191       0.10584551
N        4.66553063       0.01998330       0.03286033
C        1.84471109      -0.98361318      -0.59023915
C        2.86271791      -1.49399949       0.44914166
C        1.65193231      -2.11426400      -1.58496181
C        4.27673180      -1.26884028      -0.06564232
H        2.26550781      -0.13995008      -1.14481884
H        2.72441258      -0.94960795       1.37907609
H        2.69780174      -2.55213394       0.63619779
H       -0.01471338      -1.93037630       0.45097342
H        0.24664298       0.42828821      -3.18839222
H        4.06168296       0.72192751       0.42895427
H        5.56575126       0.29070970      -0.32123093
H        2.28951385      -2.69376547      -3.26397445
O        2.23590484       1.66212429       1.45742092
H        1.57214360       0.97678416       1.31266274
H        2.01976493       2.10258442       2.28838627
O       -0.60960039      -3.12151545       0.76190887
H       -0.16615553      -1.39647789      -0.87382446
H       -0.84130380      -3.84250549       1.35999908
47
Properties=species:S:1:pos:R:3 pbc="F F F"
O       -2.92738912       0.62928390      -1.36495194
O       -2.85683398       1.86087401       1.85167827
O       -1.58550659      -1.04733124       0.60605901
O       -5.38607598       2.77473145       1.34761333
O       -0.26001244      -0.36964936      -2.93600900
O        1.11507049       2.05342967      -1.09603989
C       -2.87215495       0.43857357      -0.01809563
C       -3.37400940       1.67759308       0.62786253
C       -1.50782612       0.03510953       0.42499498
C       -4.89407819       1.65689975       0.70171155
C       -0.28325365       0.26340582      -0.32144885
C       -0.17448376       1.61760784      -0.77014543
H       -3.54365003      -0.35884201       0.29002458
H       -3.03030244       2.50449109       0.02514444
H       -1.40732260       0.44618189       1.21032243
H       -5.28826836       1.56896310      -0.29901333
H       -5.23616599       0.80760645       1.29574572
H       -2.67326268      -0.05440086      -1.99679043
H       -3.36147897       2.26770058       2.56655629
H       -0.57643538       2.21785238      -0.07691231
H       -0.75345467       1.66759066      -1.61094604
H       -0.77746513      -1.50585394       0.34519327
H        1.80044058       1.94241820      -0.42583895
H       -5.21198369       3.59881902       0.87666052
O        2.39599146      -1.98099271      -2.65609060
O        0.98843545      -3.09136826      -1.43662491
O        4.95683548      -2.14093468      -0.54612807
N        0.62777338      -0.64422182       0.09584137
N        4.65119204       0.01821640       0.02344037
C        1.82930988      -1.00309714      -0.60103404
C        2.85165453      -1.49815669       0.44259546
C        1.64905539      -2.14365478      -1.58671200
C        4.26267561      -1.27063941      -0.07747397
H        2.24160202      -0.15867120      -1.16123124
H        2.71047077      -0.94517641       1.36703780
H        2.69073385      -2.55516531       0.63942224
H       -0.06914714      -2.03966215       0.46010769
H        0.22957331       0.38845886      -3.27777314
H        4.04700029       0.71871457       0.42114527
H        5.54841966       0.29152634      -0.33634131
H        2.26527251      -2.70486908      -3.28070292
O        2.22318077       1.66228759       1.48233075
H        1.55941953       0.97694746       1.33757257
H        2.00704086       2.10274772       2.31329610
O       -0.62433806      -3.15131802       0.75029480
H       -0.18068098      -1.29062234      -1.16060530
H       -0.85604146      -3.87230806       1.34838501
47
Properties=species:S:1:pos:R:3 pbc="F F F"
O       -2.90463836       0.58440014      -1.31666261
O       -2.88642451       1.93405626       1.86542248
O       -1.53809642      -0.99861753       0.81472933
O       -5.42486398       2.77894520       1.31292095
O       -0.27703769      -0.40938863      -3.02506074
O        1.14627128       2.02378723      -1.09741718
C       -2.85397868       0.43920223       0.03932489
C       -3.38564145       1.69604210       0.63860662
C       -1.48106818       0.08403152       0.51684595
C       -4.90729159       1.65683781       0.69149376
C       -0.27196893       0.26342909      -0.27303162
C       -0.15224902       1.59771995      -0.79037407
H       -3.51175427      -0.36256155       0.36943499
H       -3.04477285       2.50814389       0.01264590
H       -1.37298905       0.57728393       1.27269352
H       -5.28688903       1.54729015      -0.31434396
H       -5.24660483       0.81222795       1.29427497
H       -2.65051192      -0.09928462      -1.94850111
H       -3.39106951       2.34088282       2.58030050
H       -0.58023222       2.23603674      -0.13654494
H       -0.70768439       1.60704113      -1.65503893
H       -0.73005496      -1.45714023       0.55386359
H        1.83164137       1.91277576      -0.42721624
H       -5.25077169       3.60303277       0.84196813
O        2.36918524      -1.98920993      -2.67376417
O        1.01257785      -3.13756558      -1.42397802
O        4.93873482      -2.13750935      -0.56585495
N        0.60739070      -0.67730533       0.08489211
N        4.63428857       0.01933589       0.01307531
C        1.81134379      -1.01969471      -0.61277403
C        2.83802628      -1.49942748       0.43510415
C        1.64361358      -2.17015916      -1.58940730
C        4.24605455      -1.26955215      -0.09025074
H        2.21513134      -0.17450593      -1.17858875
H        2.69396408      -0.93785847       1.35405440
H        2.68110107      -2.55531028       0.64170158
H       -0.12347473      -2.14071337       0.46690076
H        0.21254806       0.34871959      -3.36682488
H        4.02975274       0.71838802       0.41239117
H        5.52852318       0.29522938      -0.35239678
H        2.23846629      -2.71308630      -3.29837650
O        2.21045670       1.66245088       1.50724058
H        1.54669546       0.97711076       1.36248240
H        1.99431679       2.10291101       2.33820593
O       -0.64164061      -3.17823420       0.73773563
H       -0.21394721      -1.20771459      -1.46644049
H       -0.87334402      -3.89922424       1.33582583
47
Properties=species:S:1:pos:R:3 pbc="F F F"
O       -2.88188760       0.53951638      -1.26837329
O       -2.91601505       2.00723850       1.87916669
O       -1.49068625      -0.94990382       1.02339966
O       -5.46365198       2.78315895       1.27822857
O       -0.29401587      -0.44904924      -3.11383253
O        1.17747207       1.99414479      -1.09879447
C       -2.83580241       0.43983089       0.09674541
C       -3.39727351       1.71449113       0.64935071
C       -1.45431025       0.13295351       0.60869692
C       -4.92050500       1.65677587       0.68127598
C       -0.26068421       0.26345236      -0.22461438
C       -0.13001428       1.57783206      -0.81060271
H       -3.47985850      -0.36628108       0.44884539
H       -3.05924326       2.51179669       0.00014737
H       -1.33865550       0.70838597       1.33506461
H       -5.28550969       1.52561720      -0.32967459
H       -5.25704367       0.81684945       1.29280422
H       -2.62776116      -0.14416838      -1.90021179
H       -3.42066004       2.41406506       2.59404470
H       -0.58402906       2.25422110      -0.19617757
H       -0.66191411       1.54649159      -1.69913182
H       -0.68264479      -1.40842652       0.76253392
H        1.86284216       1.88313332      -0.42859353
H       -5.28955969       3.60724652       0.80727575
O        2.33998177      -1.99411620      -2.69189562
O        1.03432301      -3.18045196      -1.41178899
O        4.91823691      -2.13077307      -0.58603970
N        0.58461077      -0.70707789       0.07348499
N        4.61498785       0.02376634       0.00225238
C        1.79098045      -1.03298132      -0.62497189
C        2.82200078      -1.49738733       0.42715497
C        1.63577452      -2.19335259      -1.59256046
C        4.22703624      -1.26515394      -0.10348537
H        2.18626342      -0.18702971      -1.19640413
H        2.67506014      -0.92722958       1.34061314
H        2.66907104      -2.55214430       0.64352306
H       -0.17621084      -2.23046701       0.47115112
H        0.19556988       0.30905897      -3.45559668
H        4.01010794       0.72137243       0.40317920
H        5.50622944       0.30224336      -0.36891013
H        2.20926282      -2.71799257      -3.31650794
O        2.19773263       1.66261418       1.53215041
H        1.53397138       0.97727406       1.38739223
H        1.98159271       2.10307431       2.36311576
O       -0.66134041      -3.20183942       0.72471858
H       -0.26096741      -1.14892110      -1.77599100
H       -0.89304382      -3.92282947       1.32280878
47
Properties=species:S:1:pos:R:3 pbc="F F F"
O       -2.85913685       0.49463262      -1.22008397
O       -2.94560558       2.08042074       1.89291090
O       -1.44327607      -0.90119011       1.23206998
O       -5.50243998       2.78737271       1.24353619
O       -0.31094644      -0.48864087      -3.20236447
O        1.20867286       1.96450234      -1.10017176
C       -2.81762615       0.44045955       0.15416593
C       -3.40890557       1.73294015       0.66009479
C       -1.42755231       0.18187550       0.70054789
C       -4.93371840       1.65671394       0.67105820
C       -0.24939948       0.26347563      -0.17619715
C       -0.10777955       1.55794417      -0.83083135
H       -3.44796274      -0.37000061       0.52825579
H       -3.07371366       2.51544949      -0.01235117
H       -1.30432195       0.83948800       1.39743571
H       -5.28413036       1.50394425      -0.34500523
H       -5.26748251       0.82147094       1.29133348
H       -2.60501040      -0.18905215      -1.85192247
H       -3.45025058       2.48724730       2.60778891
H       -0.58782589       2.27240546      -0.25581019
H       -0.61614384       1.48594206      -1.74322471
H       -0.63523462      -1.35971281       0.97120424
H        1.89404295       1.85349087      -0.42997082
H       -5.32834769       3.61146027       0.77258337
O        2.30862628      -1.99535478      -2.70995557
O        1.05391614      -3.21967065      -1.39952848
O        4.89558697      -2.12036910      -0.60615295
N        0.55967881      -0.73318277       0.06214936
N        4.59353511       0.03186447      -0.00849906
C        1.76846509      -1.04260025      -0.63709826
C        2.80382325      -1.49167949       0.41927729
C        1.62578344      -2.21287834      -1.59564213
C        4.20586590      -1.25708805      -0.11664851
H        2.15524348      -0.19588581      -1.21414801
H        2.65400418      -0.91293301       1.32724336
H        2.65488899      -2.54531064       0.64541602
H       -0.22583634      -2.30601565       0.47272231
H        0.17863931       0.26946734      -3.54412861
H        3.98831112       0.72802452       0.39403872
H        5.48178369       0.31292503      -0.38535199
H        2.17790733      -2.71923115      -3.33456790
O        2.18500855       1.66277748       1.55706024
H        1.52124731       0.97743735       1.41230206
H        1.96886864       2.10323761       2.38802559
O       -0.68319223      -3.22177697       0.71177303
H       -0.31483605      -1.11338744      -2.07096965
H       -0.91489564      -3.94276701       1.30986323
47
Properties=species:S:1:pos:R:3 pbc="F F F"
O       -2.83638609       0.44974886      -1.17179465
O       -2.97519612       2.15360298       1.90665510
O       -1.39586590      -0.85247640       1.44074031
O       -5.54122798       2.79158646       1.20884380
O       -0.32783022      -0.52817174      -3.29068949
O        1.23987365       1.93485990      -1.10154905
C       -2.79944988       0.44108820       0.21158645
C       -3.42053763       1.75138917       0.67083888
C       -1.40079437       0.23079749       0.79239886
C       -4.94693181       1.65665200       0.66084042
C       -0.23811476       0.26349889      -0.12777991
C       -0.08554481       1.53805627      -0.85105999
H       -3.41606698      -0.37372014       0.60766619
H       -3.08818407       2.51910229      -0.02484971
H       -1.26998840       0.97059004       1.45980680
H       -5.28275103       1.48227130      -0.36033586
H       -5.27792134       0.82609244       1.28986273
H       -2.58225964      -0.23393591      -1.80363314
H       -3.47984112       2.56042955       2.62153312
H       -0.59162273       2.29058982      -0.31544282
H       -0.57037356       1.42539253      -1.78731760
H       -0.58782444      -1.31099910       1.17987457
H        1.92524374       1.82384843      -0.43134811
H       -5.36713569       3.61567403       0.73789099
O        2.27543376      -1.99265624      -2.72739507
O        1.07167223      -3.25495221      -1.38664751
O        4.87110000      -2.10602801      -0.62564576
N        0.53290982      -0.75535052       0.05143418
N        4.57024534       0.04389972      -0.01863004
C        1.74411270      -1.04828206      -0.64860417
C        2.78380869      -1.48203453       0.41202005
C        1.61395532      -2.22846696      -1.59810335
C        4.18285853      -1.24508503      -0.12919120
H        2.12238649      -0.20080478      -1.23127145
H        2.63111119      -0.89469931       1.31449404
H        2.63886990      -2.53453985       0.64792944
H       -0.27080619      -2.36462688       0.47152035
H        0.16175552       0.22993648      -3.63245364
H        3.96467727       0.73861373       0.38551870
H        5.45550090       0.32754383      -0.40117339
H        2.14471480      -2.71653261      -3.35200740
O        2.17228448       1.66294078       1.58197007
H        1.50852324       0.97760065       1.43721189
H        1.95614457       2.10340091       2.41293542
O       -0.70688109      -3.23777738       0.69944793
H       -0.36755185      -1.09886853      -2.33097971
H       -0.93858450      -3.95876742       1.29753813
47
Properties=species:S:1:pos:R:3 pbc="F F F"
O       -2.81363533       0.40486510      -1.12350532
O       -3.00478665       2.22678523       1.92039931
O       -1.34845573      -0.80376269       1.64941063
O       -5.58001598       2.79580021       1.17415142
O       -0.34466880      -0.56764885      -3.37883489
O        1.27107444       1.90521745      -1.10292634
C       -2.78127361       0.44171686       0.26900697
C       -3.43216968       1.76983820       0.68158296
C       -1.37403644       0.27971948       0.88424983
C       -4.96014521       1.65659007       0.65062263
C       -0.22683004       0.26352216      -0.07936268
C       -0.06331008       1.51816838      -0.87128863
H       -3.38417121      -0.37743968       0.68707660
H       -3.10265448       2.52275509      -0.03734824
H       -1.23565485       1.10169207       1.52217789
H       -5.28137169       1.46059835      -0.37566650
H       -5.28836018       0.83071393       1.28839199
H       -2.55950888      -0.27881967      -1.75534382
H       -3.50943165       2.63361179       2.63527733
H       -0.59541957       2.30877418      -0.37507545
H       -0.52460329       1.36484299      -1.83141049
H       -0.54041427      -1.26228539       1.38854489
H        1.95644452       1.79420598      -0.43272540
H       -5.40592369       3.61988778       0.70319861
O        2.24077546      -1.98585198      -2.74367044
O        1.08796256      -3.28612806      -1.37260241
O        4.84514725      -2.08758120      -0.64397443
N        0.50467505      -0.77341255       0.04188313
N        4.54548979       0.06004069      -0.02759690
C        1.71829453      -1.04985815      -0.65894596
C        2.76232835      -1.46828385       0.40592695
C        1.60066143      -2.23994986      -1.59940044
C        4.15838538      -1.22897629      -0.14056976
H        2.08806374      -0.20161803      -1.24723075
H        2.60675242      -0.87235990       1.30290885
H        2.62138504      -2.51966334       0.65160699
H       -0.30956284      -2.40375683       0.46746888
H        0.14491695       0.19045937      -3.72059904
H        3.93957764       0.75330866       0.37816280
H        5.42775234       0.34626834      -0.41583066
H        2.11005651      -2.70972835      -3.36828277
O        2.15956041       1.66310407       1.60687990
H        1.49579917       0.97776395       1.46212172
H        1.94342050       2.10356420       2.43784525
O       -0.73203572      -3.24967208       0.68828695
H       -0.41107707      -1.10261091      -2.53458420
H       -0.96373913      -3.97066212       1.28637716
47
Properties=species:S:1:pos:R:3 pbc="F F F"
O       -2.79088457       0.35998134      -1.07521600
O       -3.03437719       2.29996747       1.93414352
O       -1.30104556      -0.75504898       1.85808096
O       -5.61880398       2.80001396       1.13945904
O       -0.36146421      -0.60707820      -3.46682344
O        1.30227523       1.87557501      -1.10430363
C       -2.76309734       0.44234552       0.32642749
C       -3.44380174       1.78828722       0.69232705
C       -1.34727850       0.32864147       0.97610080
C       -4.97335862       1.65652813       0.64040485
C       -0.21554532       0.26354543      -0.03094544
C       -0.04107534       1.49828049      -0.89151727
H       -3.35227545      -0.38115921       0.76648700
H       -3.11712489       2.52640789      -0.04984678
H       -1.20132130       1.23279411       1.58454898
H       -5.27999236       1.43892540      -0.39099713
H       -5.29879902       0.83533543       1.28692124
H       -2.28138451      -0.40515090      -1.37365920
H       -3.42833011       1.76473315       2.63391388
H       -0.59921641       2.32695854      -0.43470808
H       -0.47883301       1.30429346      -1.87550338
H       -0.96979945      -1.51569642       1.33821959
H        1.72020481       1.97438317      -0.23377086
H       -5.20285637       3.58264607       0.76096411
O        2.20506116      -1.97488030      -2.75826792
O        1.10319688      -3.31313648      -1.35687942
O        4.81813851      -2.06496696      -0.66062521
N        0.47538429      -0.78730716       0.03400998
N        4.51967824       0.08034909      -0.03488586
C        1.69142036      -1.04726681      -0.66760985
C        2.73979202      -1.45036574       0.40151174
C        1.58631154      -2.24726534      -1.59901964
C        4.13285624      -1.20870013      -0.15027042
H        2.05268499      -0.19826386      -1.26151216
H        2.58133765      -0.84585306       1.29300155
H        2.60284418      -2.50061941       0.65696243
H       -2.31545342      -2.79359540       0.13343640
H        0.51779597      -0.24550829      -3.32463111
H        3.91342201       0.77217102       0.37248480
H        5.39894778       0.36916028      -0.42881004
H        2.28671249      -2.78019982      -3.29333383
O        2.14683634       1.66326737       1.63178973
H        1.43812252       1.11722737       1.98770349
H        2.28122212       2.38931261       2.24521626
O       -1.36775015      -2.94101646       0.09189673
H       -0.32283763      -1.10067370      -4.28892863
H       -1.27922811      -3.89602342       0.13343640
