47
Properties=species:S:1:pos:R:3 pbc="F F F"
O       -2.88383970       0.29971950      -1.48034793
O       -2.97115074       1.05975782       1.99874708
O       -1.61383607      -2.13470011       0.09167777
O       -5.46128193       2.17547480       1.44273260
O       -0.23609405      -0.32384664      -1.51396782
O        1.50608324       1.64645017      -2.49111979
C       -2.94070318      -0.14322839      -0.14695523
C       -3.45837130       1.05669217       0.67617804
C       -1.62213391      -0.75948121       0.38377374
C       -4.99202211       1.07688541       0.69279307
C       -0.32273500      -0.08749564      -0.12540815
C       -0.37933110       1.41825585       0.19292995
H       -3.67166738      -0.96457653      -0.06076371
H       -3.11698045       1.97318275       0.16542072
H       -1.64593050      -0.65806688       1.47698517
H       -5.37265254       1.08846375      -0.33313768
H       -5.36375699       0.18800311       1.20775124
H       -2.25944871      -0.26753805      -1.95517761
H       -3.67808100       1.42758498       2.55022871
H       -0.82958873       1.53708360       1.18050235
H       -1.00419261       1.89991063      -0.56586545
H       -0.90286147      -2.35557340      -0.53324544
H        2.40020741       1.46220621      -2.78508409
H       -5.26278045       2.98784012       0.96303980
O        2.35670938      -1.78221816      -2.40419986
O        0.88639581      -2.91825115      -1.16672275
O        5.00518797      -2.24510285      -0.61645077
N        0.79161972      -0.69531013       0.61039373
N        4.87520502      -0.10246052       0.07676143
C        1.96107978      -0.98264491      -0.20136578
C        3.07920185      -1.57217499       0.67460247
C        1.65195397      -1.99626843      -1.30001738
C        4.42524630      -1.37030229      -0.01459468
H        2.31085258      -0.05673125      -0.66352251
H        3.07330130      -1.05881115       1.63477777
H        2.90798010      -2.63718670       0.83377124
H        0.47656888      -1.57019719       1.02323804
H        0.31535512       0.35870284      -1.94894485
H        4.41830947       0.57658292       0.67297983
H        5.77145572       0.12070486      -0.32247767
H        2.20441349      -2.49070529      -3.05019127
O        3.16562115       1.52032309       1.78601688
H        2.33541595       1.42993005       1.29241202
H        2.95697778       1.35195590       2.70645107
O        0.92147420       2.00025450       0.18270376
H        1.55883340       1.96534845      -1.57684659
H        0.83671972       2.91137967       0.48456177
47
Properties=species:S:1:pos:R:3 pbc="F F F"
O       -2.87803652       0.28137590      -1.47552242
O       -2.95301434       1.07631379       1.99030452
O       -1.63852554      -2.14891909       0.11586149
O       -5.43700587       2.19980171       1.44153181
O       -0.24404208      -0.34964426      -1.64286668
O        1.51460109       1.77395827      -2.44218194
C       -2.94239647      -0.14884376      -0.13934429
C       -3.44799868       1.06227626       0.67167610
C       -1.63153422      -0.77357926       0.39863838
C       -4.98057168       1.09410021       0.69625615
C       -0.32875295      -0.12017237      -0.11419632
C       -0.36884040       1.38439861       0.16851491
H       -3.68140653      -0.96098228      -0.04857517
H       -3.10385986       1.96938073       0.14906099
H       -1.65336717      -0.66149934       1.49051848
H       -5.36715648       1.10289080      -0.32717296
H       -5.35548406       0.21166410       1.21859203
H       -2.25560868      -0.28409813      -1.94885919
H       -3.65694463       1.44258001       2.53944585
H       -0.83032830       1.53044792       1.13943236
H       -0.97687069       1.84914791      -0.60727421
H       -0.93267669      -2.36820000      -0.50455635
H        2.41425193       1.58857548      -2.73796326
H       -5.23831445       3.01294436       0.96138001
O        2.36568384      -1.80639168      -2.43658879
O        0.93481269      -2.97312731      -1.19464043
O        4.98952929      -2.22558688      -0.63423744
N        0.76195440      -0.75272707       0.55128354
N        4.84453793      -0.08788593       0.06802895
C        1.94202758      -1.01223339      -0.24118519
C        3.05583695      -1.57131113       0.65185941
C        1.66884945      -2.03582770      -1.33130826
C        4.40290868      -1.35778105      -0.02959894
H        2.28066667      -0.08630729      -0.71021726
H        3.03255486      -1.04829518       1.60336349
H        2.89700964      -2.63447911       0.82321247
H        0.82587803       0.26655742       0.40888491
H        0.29931318       0.32288708      -2.07145932
H        4.38784298       0.58300487       0.67209450
H        5.74135977       0.14059668      -0.32630215
H        2.21429786      -2.51064587      -3.07872065
O        3.14569191       1.51870310       1.80369519
H        2.31983516       1.42878352       1.31267573
H        2.93567437       1.34922701       2.73019154
O        0.93218487       1.96165690       0.17207189
H        0.56871140       1.24742682      -0.38877399
H        0.84730386       2.87414234       0.47438056
47
Properties=species:S:1:pos:R:3 pbc="F F F"
O       -2.87223335       0.26303231      -1.47069691
O       -2.93487795       1.09286975       1.98186196
O       -1.66321500      -2.16313807       0.14004521
O       -5.41272981       2.22412862       1.44033102
O       -0.25199010      -0.37544188      -1.77176554
O        1.52311894       1.90146637      -2.39324409
C       -2.94408975      -0.15445912      -0.13173334
C       -3.43762607       1.06786036       0.66717416
C       -1.64093452      -0.78767731       0.41350302
C       -4.96912124       1.11131501       0.69971922
C       -0.33477089      -0.15284909      -0.10298449
C       -0.35834970       1.35054137       0.14409987
H       -3.69114569      -0.95738804      -0.03638663
H       -3.09073926       1.96557871       0.13270127
H       -1.66080384      -0.66493179       1.50405178
H       -5.36166042       1.11731785      -0.32120824
H       -5.34721114       0.23532509       1.22943283
H       -2.24980550      -0.30244173      -1.94403368
H       -3.63880823       1.45913598       2.53100329
H       -0.83106788       1.52381224       1.09836238
H       -0.94954877       1.79838519      -0.64868298
H       -0.95736616      -2.38241898      -0.48037263
H        2.42276978       1.71608358      -2.68902541
H       -5.21403839       3.03727127       0.96017922
O        2.37465830      -1.83056520      -2.46897772
O        0.98322957      -3.02800347      -1.22255812
O        4.97387061      -2.20607092      -0.65202411
N        0.73228909      -0.81014401       0.49217335
N        4.81387084      -0.07331134       0.05929647
C        1.92297539      -1.04182187      -0.28100461
C        3.03247205      -1.57044728       0.62911635
C        1.68574493      -2.07538698      -1.36259914
C        4.38057106      -1.34525982      -0.04460320
H        2.25048076      -0.11588333      -0.75691201
H        2.99180843      -1.03777922       1.57194920
H        2.88603918      -2.63177153       0.81265371
H        0.81338909       0.24235364       0.36481507
H        0.29136516       0.29708946      -2.20035819
H        4.35737648       0.58942683       0.67120918
H        5.71126381       0.16048850      -0.33012663
H        2.22327232      -2.53481939      -3.11110958
O        3.12576267       1.51708310       1.82137349
H        2.29990593       1.42716352       1.33035404
H        2.91574513       1.34760701       2.74786985
O        0.94289555       1.92305931       0.16144001
H        0.56114524       1.18871830      -0.45619382
H        0.85801453       2.83554475       0.46374869
47
Properties=species:S:1:pos:R:3 pbc="F F F"
O       -2.86643017       0.24468871      -1.46587140
O       -2.91674155       1.10942572       1.97341939
O       -1.68790447      -2.17735706       0.16422893
O       -5.38845375       2.24845554       1.43913023
O       -0.25993813      -0.40123950      -1.90066440
O        1.53163679       2.02897447      -2.34430624
C       -2.94578304      -0.16007449      -0.12412240
C       -3.42725345       1.07344445       0.66267222
C       -1.65033483      -0.80177536       0.42836765
C       -4.95767081       1.12852981       0.70318230
C       -0.34078884      -0.18552582      -0.09177266
C       -0.34785901       1.31668412       0.11968483
H       -3.70088484      -0.95379379      -0.02419809
H       -3.07761867       1.96177669       0.11634154
H       -1.66824051      -0.66836425       1.51758508
H       -5.35616436       1.13174490      -0.31524352
H       -5.33893821       0.25898608       1.24027362
H       -2.24400233      -0.32078532      -1.93920817
H       -3.62067184       1.47569194       2.52256072
H       -0.83180745       1.51717656       1.05729239
H       -0.92222685       1.74762247      -0.69009174
H       -0.98205562      -2.39663796      -0.45618891
H        2.43128763       1.84359168      -2.64008756
H       -5.18976233       3.06159818       0.95897842
O        2.38363277      -1.85473872      -2.50136665
O        1.03164645      -3.08287963      -1.25047580
O        4.95821194      -2.18655495      -0.66981078
N        0.70262377      -0.86756096       0.43306316
N        4.78320375      -0.05873675       0.05056399
C        1.90392319      -1.07141036      -0.32082402
C        3.00910715      -1.56958342       0.60637329
C        1.70264041      -2.11494625      -1.39389002
C        4.35823343      -1.33273858      -0.05960747
H        2.22029486      -0.14545937      -0.80360676
H        2.95106199      -1.02726325       1.54053492
H        2.87506871      -2.62906394       0.80209494
H        0.80329458       0.23629454       0.31984870
H        0.28341713       0.27129184      -2.32925705
H        4.32690999       0.59584878       0.67032385
H        5.68116786       0.18038033      -0.33395111
H        2.23224679      -2.55899291      -3.14349851
O        3.10583343       1.51546311       1.83905180
H        2.27997669       1.42554353       1.34803235
H        2.89581590       1.34598702       2.76554815
O        0.95360622       1.88446171       0.15080814
H        0.54084745       1.10703381      -0.54695234
H        0.86872521       2.79694715       0.45311681
47
Properties=species:S:1:pos:R:3 pbc="F F F"
O       -2.86062699       0.22634512      -1.46104589
O       -2.89860515       1.12598168       1.96497683
O       -1.71259393      -2.19157604       0.18841265
O       -5.36417769       2.27278245       1.43792944
O       -0.26788616      -0.42703712      -2.02956327
O        1.54015465       2.15648257      -2.29536839
C       -2.94747632      -0.16568985      -0.11651146
C       -3.41688083       1.07902855       0.65817028
C       -1.65973513      -0.81587341       0.44323229
C       -4.94622038       1.14574461       0.70664537
C       -0.34680678      -0.21820254      -0.08056082
C       -0.33736831       1.28282688       0.09526979
H       -3.71062399      -0.95019955      -0.01200955
H       -3.06449808       1.95797468       0.09998181
H       -1.67567718      -0.67179671       1.53111839
H       -5.35066830       1.14617195      -0.30927880
H       -5.33066529       0.28264707       1.25111441
H       -2.23819915      -0.33912892      -1.93438266
H       -3.60253544       1.49224791       2.51411816
H       -0.83254702       1.51054088       1.01622240
H       -0.89490493       1.69685974      -0.73150051
H       -1.00674509      -2.41085695      -0.43200519
H        2.43980548       1.97109978      -2.59114971
H       -5.16548627       3.08592510       0.95777763
O        2.39260723      -1.87891225      -2.53375558
O        1.08006333      -3.13775579      -1.27839349
O        4.94255326      -2.16703899      -0.68759744
N        0.67295845      -0.92497790       0.37395297
N        4.75253667      -0.04416216       0.04183151
C        1.88487100      -1.10099884      -0.36064344
C        2.98574225      -1.56871956       0.58363023
C        1.71953589      -2.15450553      -1.42518091
C        4.33589581      -1.32021734      -0.07461173
H        2.19010895      -0.17503541      -0.85030151
H        2.91031556      -1.01674728       1.50912064
H        2.86409825      -2.62635636       0.79153617
H        0.79610773       0.24618154       0.27514193
H        0.27546910       0.24549422      -2.45815591
H        4.29644350       0.60227074       0.66943852
H        5.65107191       0.20027215      -0.33777559
H        2.24122125      -2.58316643      -3.17588744
O        3.08590419       1.51384312       1.85673011
H        2.26004745       1.42392354       1.36571065
H        2.87588666       1.34436703       2.78322646
O        0.96431689       1.84586411       0.14017627
H        0.50852392       1.00511598      -0.66241226
H        0.87943588       2.75834956       0.44248494
47
Properties=species:S:1:pos:R:3 pbc="F F F"
O       -2.85482381       0.20800152      -1.45622038
O       -2.88046875       1.14253765       1.95653427
O       -1.73728340      -2.20579502       0.21259637
O       -5.33990163       2.29710936       1.43672865
O       -0.27583418      -0.45283474      -2.15846213
O        1.54867250       2.28399067      -2.24643054
C       -2.94916961      -0.17130522      -0.10890051
C       -3.40650822       1.08461264       0.65366834
C       -1.66913543      -0.82997146       0.45809693
C       -4.93476994       1.16295941       0.71010845
C       -0.35282472      -0.25087927      -0.06934899
C       -0.32687761       1.24896964       0.07085475
H       -3.72036314      -0.94660530       0.00017899
H       -3.05137749       1.95417266       0.08362208
H       -1.68311385      -0.67522917       1.54465169
H       -5.34517224       1.16059900      -0.30331408
H       -5.32239236       0.30630806       1.26195521
H       -2.23239597      -0.35747251      -1.92955715
H       -3.58439904       1.50880388       2.50567560
H       -0.83328660       1.50390520       0.97515241
H       -0.86758301       1.64609702      -0.77290927
H       -1.03143456      -2.42507593      -0.40782146
H        2.44832334       2.09860788      -2.54221186
H       -5.14121021       3.11025201       0.95657684
O        2.40158169      -1.90308577      -2.56614451
O        1.12848021      -3.19263195      -1.30631117
O        4.92689458      -2.14752302      -0.70538411
N        0.64329314      -0.98239484       0.31484278
N        4.72186958      -0.02958757       0.03309903
C        1.86581880      -1.13058732      -0.40046285
C        2.96237735      -1.56785570       0.56088717
C        1.73643137      -2.19406481      -1.45647179
C        4.31355819      -1.30769611      -0.08961599
H        2.15992304      -0.20461145      -0.89699626
H        2.86956912      -1.00623131       1.47770635
H        2.85312779      -2.62364877       0.78097741
H        0.79217579       0.26960723       0.23168073
H        0.26752108       0.21969660      -2.58705477
H        4.26597701       0.60869269       0.66855320
H        5.62097595       0.22016397      -0.34160007
H        2.25019571      -2.60733996      -3.20827637
O        3.06597495       1.51222312       1.87440842
H        2.24011821       1.42230354       1.38338896
H        2.85595742       1.34274703       2.80090477
O        0.97502757       1.80726652       0.12954440
H        0.46526444       0.88620846      -0.80288588
H        0.89014655       2.71975196       0.43185307
47
Properties=species:S:1:pos:R:3 pbc="F F F"
O       -2.84902064       0.18965793      -1.45139487
O       -2.86233236       1.15909361       1.94809171
O       -1.76197286      -2.22001400       0.23678009
O       -5.31562557       2.32143627       1.43552786
O       -0.28378221      -0.47863236      -2.28736099
O        1.55719035       2.41149877      -2.19749269
C       -2.95086289      -0.17692058      -0.10128957
C       -3.39613560       1.09019674       0.64916640
C       -1.67853574      -0.84406951       0.47296157
C       -4.92331951       1.18017421       0.71357152
C       -0.35884267      -0.28355599      -0.05813716
C       -0.31638691       1.21511240       0.04643971
H       -3.73010230      -0.94301106       0.01236753
H       -3.03825689       1.95037064       0.06726236
H       -1.69055052      -0.67866162       1.55818500
H       -5.33967618       1.17502605      -0.29734936
H       -5.31411944       0.32996905       1.27279600
H       -2.22659279      -0.37581611      -1.92473164
H       -3.56626265       1.52535984       2.49723304
H       -0.83402617       1.49726952       0.93408243
H       -0.84026109       1.59533430      -0.81431804
H       -1.05612402      -2.43929491      -0.38363774
H        2.45684119       2.22611598      -2.49327401
H       -5.11693415       3.13457892       0.95537605
O        2.41055615      -1.92725929      -2.59853344
O        1.17689709      -3.24750811      -1.33422886
O        4.91123590      -2.12800706      -0.72317078
N        0.61362782      -1.03981178       0.25573259
N        4.69120249      -0.01501298       0.02436655
C        1.84676661      -1.16017580      -0.44028227
C        2.93901245      -1.56699185       0.53814411
C        1.75332685      -2.23362408      -1.48776267
C        4.29122057      -1.29517487      -0.10462025
H        2.12973713      -0.23418749      -0.94369101
H        2.82882269      -0.99571535       1.44629207
H        2.84215733      -2.62094119       0.77041864
H        0.79166375       0.30390352       0.19027114
H        0.25957305       0.19389898      -2.71595363
H        4.23551051       0.61511465       0.66766787
H        5.59088000       0.24005579      -0.34542455
H        2.25917017      -2.63151348      -3.24066530
O        3.04604571       1.51060313       1.89208672
H        2.22018897       1.42068355       1.40106727
H        2.83602818       1.34112704       2.81858307
O        0.98573824       1.76866892       0.11891252
H        0.41256779       0.75404432      -0.96748578
H        0.90085723       2.68115436       0.42122119
47
Properties=species:S:1:pos:R:3 pbc="F F F"
O       -2.84321746       0.17131433      -1.44656936
O       -2.84419596       1.17564958       1.93964914
O       -1.78666233      -2.23423299       0.26096381
O       -5.29134951       2.34576319       1.43432707
O       -0.29173024      -0.50442999      -2.41625985
O        1.56570820       2.53900688      -2.14855484
C       -2.95255618      -0.18253595      -0.09367862
C       -3.38576298       1.09578083       0.64466446
C       -1.68793605      -0.85816756       0.48782621
C       -4.91186908       1.19738902       0.71703460
C       -0.36486061      -0.31623272      -0.04692533
C       -0.30589621       1.18125516       0.02202467
H       -3.73984145      -0.93941681       0.02455607
H       -3.02513630       1.94656862       0.05090263
H       -1.69798719      -0.68209408       1.57171831
H       -5.33418012       1.18945310      -0.29138464
H       -5.30584651       0.35363005       1.28363680
H       -2.22078962      -0.39415971      -1.91990613
H       -3.54812625       1.54191581       2.48879047
H       -0.83476575       1.49063385       0.89301244
H       -0.81293918       1.54457158      -0.85572680
H       -1.08081349      -2.45351389      -0.35945402
H        2.46535904       2.35362409      -2.44433616
H       -5.09265809       3.15890583       0.95417526
O        2.41953062      -1.95143281      -2.63092237
O        1.22531398      -3.30238428      -1.36214654
O        4.89557723      -2.10849109      -0.74095745
N        0.58396251      -1.09722872       0.19662239
N        4.66053540      -0.00043839       0.01563407
C        1.82771441      -1.18976429      -0.48010168
C        2.91564755      -1.56612799       0.51540105
C        1.77022234      -2.27318336      -1.51905355
C        4.26888294      -1.28265363      -0.11962452
H        2.09955122      -0.26376352      -0.99038576
H        2.78807625      -0.98519938       1.41487778
H        2.83118687      -2.61823360       0.75985988
H        0.79453461       0.34609285       0.15152441
H        0.25162503       0.16810136      -2.84485249
H        4.20504402       0.62153660       0.66678255
H        5.56078405       0.25994762      -0.34924902
H        2.26814463      -2.65568700      -3.27305423
O        3.02611648       1.50898314       1.90976503
H        2.20025973       1.41906356       1.41874558
H        2.81609894       1.33950705       2.83626138
O        0.99644891       1.73007132       0.10828065
H        0.35235934       0.61282067      -1.15398960
H        0.91156790       2.64255677       0.41058932
47
Properties=species:S:1:pos:R:3 pbc="F F F"
O       -2.83741428       0.15297073      -1.44174386
O       -2.82605956       1.19220555       1.93120658
O       -1.81135180      -2.24845197       0.28514754
O       -5.26707345       2.37009010       1.43312627
O       -0.29967826      -0.53022761      -2.54515871
O        1.57422605       2.66651498      -2.09961699
C       -2.95424947      -0.18815132      -0.08606768
C       -3.37539037       1.10136492       0.64016253
C       -1.69733635      -0.87226560       0.50269084
C       -4.90041864       1.21460382       0.72049768
C       -0.37087856      -0.34890945      -0.03571350
C       -0.29540552       1.14739791      -0.00239036
H       -3.74958060      -0.93582256       0.03674461
H       -3.01201571       1.94276660       0.03454290
H       -1.70542386      -0.68552654       1.58525161
H       -5.32868405       1.20388014      -0.28541992
H       -5.29757358       0.37729104       1.29447759
H       -2.21498644      -0.41250330      -1.91508062
H       -3.52998985       1.55847177       2.48034791
H       -0.83550532       1.48399817       0.85194245
H       -0.78561726       1.49380886      -0.89713557
H       -1.10550295      -2.46773288      -0.33527030
H        2.47387689       2.48113219      -2.39539831
H       -5.06838203       3.18323274       0.95297447
O        2.42850508      -1.97560633      -2.66331131
O        1.27373086      -3.35726044      -1.39006423
O        4.87991855      -2.08897512      -0.75874412
N        0.55429719      -1.15464567       0.13751220
N        4.62986831       0.01413620       0.00690158
C        1.80866221      -1.21935277      -0.51992109
C        2.89228264      -1.56526413       0.49265799
C        1.78711782      -2.31274263      -1.55034443
C        4.24654532      -1.27013240      -0.13462878
H        2.06936532      -0.29333956      -1.03708051
H        2.74732981      -0.97468341       1.38346350
H        2.82021640      -2.61552602       0.74930111
H        0.80052704       0.39284325       0.11583771
H        0.24367700       0.14230374      -2.97375135
H        4.17457753       0.62795855       0.66589722
H        5.53068809       0.27983944      -0.35307350
H        2.27711910      -2.67986052      -3.30544316
O        3.00618724       1.50736314       1.92744334
H        2.18033049       1.41744356       1.43642388
H        2.79616970       1.33788705       2.85393969
O        1.00715959       1.69147373       0.09764878
H        0.28700212       0.46716361      -1.35871977
H        0.92227857       2.60395917       0.39995745
47
Properties=species:S:1:pos:R:3 pbc="F F F"
O       -2.83161111       0.13462714      -1.43691835
O       -2.80792317       1.20876151       1.92276402
O       -1.83604126      -2.26267095       0.30933126
O       -5.24279739       2.39441701       1.43192548
O       -0.30762629      -0.55602523      -2.67405757
O        1.58274390       2.79402308      -2.05067914
C       -2.95594275      -0.19376668      -0.07845674
C       -3.36501775       1.10694902       0.63566059
C       -1.70673666      -0.88636365       0.51755548
C       -4.88896821       1.23181862       0.72396075
C       -0.37689650      -0.38158617      -0.02450167
C       -0.28491482       1.11354067      -0.02680540
H       -3.75931976      -0.93222832       0.04893315
H       -2.99889511       1.93896458       0.01818318
H       -1.71286053      -0.68895899       1.59878491
H       -5.32318799       1.21830719      -0.27945520
H       -5.28930066       0.40095203       1.30531838
H       -2.20918326      -0.43084690      -1.91025511
H       -3.51185345       1.57502774       2.47190535
H       -0.83624489       1.47736249       0.81087247
H       -0.75829534       1.44304614      -0.93854434
H       -1.13019242      -2.48195186      -0.31108658
H        2.48239474       2.60864029      -2.34646046
H       -5.04410597       3.20755966       0.95177368
O        2.43747954      -1.99977985      -2.69570024
O        1.32214774      -3.41213660      -1.41798192
O        4.86425987      -2.06945916      -0.77653079
N        0.52463187      -1.21206261       0.07840201
N        4.59920122       0.02871079      -0.00183090
C        1.78961002      -1.24894125      -0.55974051
C        2.86891774      -1.56440028       0.46991493
C        1.80401330      -2.35230191      -1.58163531
C        4.22420770      -1.25761116      -0.14963304
H        2.03917941      -0.32291560      -1.08377526
H        2.70658338      -0.96416745       1.35204922
H        2.80924594      -2.61281843       0.73874234
H        0.80913062       0.44042737       0.08337106
H        0.23572897       0.11650612      -3.10265022
H        4.14411103       0.63438051       0.66501189
H        5.50059214       0.29973126      -0.35689798
H        2.28609356      -2.70403404      -3.33783209
O        2.98625800       1.50574315       1.94512164
H        2.16040125       1.41582357       1.45410219
H        2.77624046       1.33626706       2.87161800
O        1.01787026       1.65287613       0.08701690
H        0.21930290       0.32208690      -1.57643817
H        0.93298925       2.56536157       0.38932558
47
Properties=species:S:1:pos:R:3 pbc="F F F"
O       -2.82580793       0.11628354      -1.43209284
O       -2.78978677       1.22531748       1.91432146
O       -1.86073073      -2.27688993       0.33351498
O       -5.21852133       2.41874392       1.43072469
O       -0.31557431      -0.58182285      -2.80295643
O        1.59126175       2.92153118      -2.00174129
C       -2.95763604      -0.19938205      -0.07084579
C       -3.35464514       1.11253311       0.63115865
C       -1.71613696      -0.90046170       0.53242012
C       -4.87751777       1.24903342       0.72742383
C       -0.38291445      -0.41426290      -0.01328984
C       -0.27442412       1.07968343      -0.05122044
H       -3.76905891      -0.92863407       0.06112169
H       -2.98577452       1.93516256       0.00182345
H       -1.72029720      -0.69239145       1.61231822
H       -5.31769193       1.23273424      -0.27349048
H       -5.28102773       0.42461302       1.31615918
H       -2.20338009      -0.44919049      -1.90542961
H       -3.49371706       1.59158370       2.46346279
H       -0.83698447       1.47072681       0.76980248
H       -0.73097342       1.39228342      -0.97995310
H       -1.15488188      -2.49617084      -0.28690286
H        2.49091259       2.73614839      -2.29752261
H       -5.01982991       3.23188657       0.95057289
O        2.44645400      -2.02395337      -2.72808917
O        1.37056462      -3.46701276      -1.44589960
O        4.84860119      -2.04994319      -0.79431746
N        0.49496656      -1.26947955       0.01929182
N        4.56853413       0.04328538      -0.01056338
C        1.77055782      -1.27852973      -0.59955992
C        2.84555284      -1.56353642       0.44717187
C        1.82090878      -2.39186118      -1.61292619
C        4.20187008      -1.24508993      -0.16463730
H        2.00899350      -0.35249164      -1.13047001
H        2.66583694      -0.95365148       1.32063493
H        2.79827548      -2.61011085       0.72818358
H        0.81955966       0.48468603       0.05402114
H        0.22778095       0.09070850      -3.23154908
H        4.11364454       0.64080246       0.66412657
H        5.47049618       0.31962308      -0.36072246
H        2.29506802      -2.72820756      -3.37022102
O        2.96632876       1.50412315       1.96279995
H        2.14047201       1.41420358       1.47178050
H        2.75631122       1.33464706       2.88929630
O        1.02858094       1.61427854       0.07638503
H        0.15251413       0.18294721      -1.80025494
H        0.94369992       2.52676398       0.37869370
47
Properties=species:S:1:pos:R:3 pbc="F F F"
O       -2.82000475       0.09793995      -1.42726733
O       -2.77165037       1.24187344       1.90587890
O       -1.88542019      -2.29110891       0.35769870
O       -5.19424527       2.44307083       1.42952390
O       -0.32352234      -0.60762047      -2.93185530
O        1.59977961       3.04903928      -1.95280344
C       -2.95932932      -0.20499741      -0.06323485
C       -3.34427252       1.11811721       0.62665671
C       -1.72553727      -0.91455975       0.54728476
C       -4.86606734       1.26624822       0.73088690
C       -0.38893239      -0.44693962      -0.00207800
C       -0.26393342       1.04582619      -0.07563548
H       -3.77879806      -0.92503983       0.07331023
H       -2.97265393       1.93136055      -0.01453628
H       -1.72773387      -0.69582391       1.62585153
H       -5.31219587       1.24716129      -0.26752576
H       -5.27275481       0.44827401       1.32699997
H       -2.19757691      -0.46753409      -1.90060410
H       -3.47558066       1.60813967       2.45502023
H       -0.83772404       1.46409113       0.72873249
H       -0.70365150       1.34152069      -1.02136187
H       -1.17957135      -2.51038982      -0.26271914
H        2.49943044       2.86365649      -2.24858476
H       -4.99555385       3.25621348       0.94937210
O        2.45542846      -2.04812690      -2.76047810
O        1.41898150      -3.52188892      -1.47381728
O        4.83294251      -2.03042723      -0.81210412
N        0.46530124      -1.32689649      -0.03981837
N        4.53786705       0.05785997      -0.01929586
C        1.75150563      -1.30811821      -0.63937934
C        2.82218794      -1.56267256       0.42442881
C        1.83780426      -2.43142045      -1.64421708
C        4.17953246      -1.23256869      -0.17964156
H        1.97880759      -0.38206768      -1.17716476
H        2.62509051      -0.94313551       1.28922065
H        2.78730502      -2.60740326       0.71762481
H        0.83072562       0.52099611       0.02739253
H        0.21983292       0.06491087      -3.36044794
H        4.08317805       0.64722442       0.66324124
H        5.44040023       0.33951490      -0.36454694
H        2.30404248      -2.75238108      -3.40260996
O        2.94639952       1.50250316       1.98047826
H        2.12054277       1.41258358       1.48945880
H        2.73638198       1.33302707       2.90697461
O        1.03929161       1.57568094       0.06575316
H        0.09033293       0.05539798      -2.02155052
H        0.95441059       2.48816638       0.36806183
47
Properties=species:S:1:pos:R:3 pbc="F F F"
O       -2.81420157       0.07959635      -1.42244182
O       -2.75351397       1.25842941       1.89743633
O       -1.91010966      -2.30532790       0.38188242
O       -5.16996921       2.46739775       1.42832311
O       -0.33147037      -0.63341809      -3.06075416
O        1.60829746       3.17654738      -1.90386559
C       -2.96102261      -0.21061278      -0.05562391
C       -3.33389990       1.12370130       0.62215477
C       -1.73493757      -0.92865780       0.56214939
C       -4.85461691       1.28346302       0.73434998
C       -0.39495034      -0.47961635       0.00913383
C       -0.25344273       1.01196894      -0.10005052
H       -3.78853721      -0.92144558       0.08549877
H       -2.95953334       1.92755853      -0.03089601
H       -1.73517054      -0.69925637       1.63938483
H       -5.30669981       1.26158834      -0.26156104
H       -5.26448188       0.47193500       1.33784076
H       -2.19177373      -0.48587768      -1.89577859
H       -3.45744426       1.62469564       2.44657766
H       -0.83846361       1.45745545       0.68766250
H       -0.67632958       1.29075797      -1.06277063
H       -1.20426082      -2.52460880      -0.23853542
H        2.50794830       2.99116459      -2.19964691
H       -4.97127779       3.28054039       0.94817131
O        2.46440293      -2.07230042      -2.79286703
O        1.46739838      -3.57676508      -1.50173497
O        4.81728384      -2.01091126      -0.82989079
N        0.43563592      -1.38431344      -0.09892856
N        4.50719996       0.07243456      -0.02802834
C        1.73245343      -1.33770670      -0.67919875
C        2.79882304      -1.56180870       0.40168575
C        1.85469974      -2.47097973      -1.67550796
C        4.15719483      -1.22004745      -0.19464583
H        1.94862169      -0.41164372      -1.22385951
H        2.58434407      -0.93261954       1.25780637
H        2.77633455      -2.60469568       0.70706604
H        0.84120913       0.54424312       0.00276726
H        0.21188489       0.03911325      -3.48934680
H        4.05271156       0.65364637       0.66235591
H        5.41030428       0.35940673      -0.36837142
H        2.31301695      -2.77655461      -3.43499889
O        2.92647028       1.50088317       1.99815657
H        2.10061353       1.41096359       1.50713711
H        2.71645274       1.33140708       2.92465292
O        1.05000228       1.53708334       0.05512129
H        0.03689769      -0.05465643      -2.22990963
H        0.96512127       2.44956878       0.35742996
47
Properties=species:S:1:pos:R:3 pbc="F F F"
O       -2.80839840       0.06125276      -1.41761631
O       -2.73537758       1.27498537       1.88899377
O       -1.93479912      -2.31954688       0.40606614
O       -5.14569315       2.49172466       1.42712232
O       -0.33941839      -0.65921571      -3.18965302
O        1.61681531       3.30405548      -1.85492774
C       -2.96271589      -0.21622814      -0.04801296
C       -3.32352729       1.12928540       0.61765283
C       -1.74433788      -0.94275585       0.57701403
C       -4.84316647       1.30067782       0.73781305
C       -0.40096828      -0.51229307       0.02034566
C       -0.24295203       0.97811170      -0.12446556
H       -3.79827637      -0.91785134       0.09768731
H       -2.94641274       1.92375651      -0.04725573
H       -1.74260721      -0.70268882       1.65291813
H       -5.30120375       1.27601539      -0.25559632
H       -5.25620896       0.49559599       1.34868156
H       -2.18597055      -0.50422128      -1.89095308
H       -3.43930787       1.64125160       2.43813510
H       -0.83920319       1.45081977       0.64659252
H       -0.64900766       1.23999525      -1.10417940
H       -1.22895028      -2.53882779      -0.21435170
H        2.51646615       3.11867269      -2.15070906
H       -4.94700173       3.30486731       0.94697052
O        2.47337739      -2.09647394      -2.82525596
O        1.51581526      -3.63164124      -1.52965266
O        4.80162516      -1.99139530      -0.84767746
N        0.40597061      -1.44173038      -0.15803875
N        4.47653287       0.08700915      -0.03676082
C        1.71340124      -1.36729518      -0.71901817
C        2.77545814      -1.56094485       0.37894269
C        1.87159522      -2.51053901      -1.70679884
C        4.13485721      -1.20752622      -0.20965009
H        1.91843578      -0.44121976      -1.27055426
H        2.54359764      -0.92210358       1.22639208
H        2.76536409      -2.60198809       0.69650728
H        0.84923166       0.54879809      -0.02092704
H        0.20393687       0.01331563      -3.61824566
H        4.02224506       0.66006833       0.66147059
H        5.38020832       0.37929855      -0.37219590
H        2.32199141      -2.80072813      -3.46738782
O        2.90654104       1.49926317       2.01583487
H        2.08068429       1.40934359       1.52481542
H        2.69652350       1.32978708       2.94233122
O        1.06071296       1.49848575       0.04448941
H       -0.00321669      -0.14110510      -2.41306574
H        0.97583194       2.41097119       0.34679808
47
Properties=species:S:1:pos:R:3 pbc="F F F"
O       -2.80259522       0.04290916      -1.41279080
O       -2.71724118       1.29154134       1.88055121
O       -1.95948859      -2.33376586       0.43024986
O       -5.12141709       2.51605157       1.42592153
O       -0.34736642      -0.68501333      -3.31855188
O        1.62533316       3.43156358      -1.80598989
C       -2.96440918      -0.22184351      -0.04040202
C       -3.31315467       1.13486949       0.61315089
C       -1.75373818      -0.95685390       0.59187867
C       -4.83171604       1.31789262       0.74127613
C       -0.40698623      -0.54496980       0.03155749
C       -0.23246133       0.94425446      -0.14888060
H       -3.80801552      -0.91425709       0.10987585
H       -2.93329215       1.91995449      -0.06361546
H       -1.75004388      -0.70612128       1.66645144
H       -5.29570769       1.29044244      -0.24963160
H       -5.24793603       0.51925698       1.35952235
H       -2.43856809      -0.74165845      -1.84250911
H       -3.35368202       1.77353814       2.43060238
H       -0.83994276       1.44418409       0.60552253
H       -0.62168574       1.18923253      -1.14558816
H       -1.09310178      -2.71697787       0.20564641
H        1.88835125       3.56360010      -0.89144078
H       -4.87185100       3.26453765       0.87162497
O        2.48235185      -2.12064746      -2.85764489
O        1.56423214      -3.68651740      -1.55757034
O        4.78596648      -1.97187933      -0.86546413
N        0.37630529      -1.49914732      -0.21714894
N        4.44586578       0.10158374      -0.04549330
C        1.69434904      -1.39688366      -0.75883758
C        2.75209324      -1.56008099       0.35619963
C        1.88849070      -2.55009828      -1.73808972
C        4.11251959      -1.19500498      -0.22465435
H        1.88824987      -0.47079580      -1.31724901
H        2.50285120      -0.91158761       1.19497780
H        2.75439363      -2.59928051       0.68594851
H        1.60505470       1.32608221      -0.76022555
H        0.48959762      -0.27328221      -3.54648793
H        3.99177857       0.66649028       0.66058526
H        5.35011237       0.39919037      -0.37602038
H        2.72700654      -2.87380247      -3.41839404
O        2.88661180       1.49764318       2.03351318
H        2.07808418       1.44363080       1.49683404
H        2.80747850       2.28999471       2.56637882
O        1.07142363       1.45988815       0.03385754
H       -0.55303883      -1.29289377      -4.03183553
H        0.67188581       3.53742582      -1.83121711
