47
Properties=species:S:1:pos:R:3 pbc="F F F"
O       -3.05259512       0.72318990      -1.88068985
O       -2.73464632       1.47728085       1.58852468
O       -1.61465107      -1.71482273      -0.34389295
O       -5.25446280       2.57688161       1.42225890
O       -0.38222544       0.09316267      -2.15683608
O        0.96457933       2.33794641      -0.94738577
C       -2.97683428       0.29001896      -0.54489425
C       -3.38699067       1.49025652       0.34028381
C       -1.62330802      -0.31849076      -0.12487611
C       -4.90482483       1.51060503       0.56876824
C       -0.35357711       0.29757932      -0.75268225
C       -0.25343196       1.81358389      -0.48525109
H       -3.70754074      -0.52214223      -0.38522041
H       -3.10802821       2.40673063      -0.20580514
H       -1.54538751      -0.18259844       0.95907511
H       -5.42935365       1.56253573      -0.39017263
H       -5.20536024       0.60282108       1.09788193
H       -2.38738105       0.24450671      -2.39614942
H       -3.34148113       1.90005340       2.21589230
H       -0.41473480       2.00726738       0.57866083
H       -1.03944842       2.30886287      -1.06072501
H       -1.28310928      -1.89670587      -1.23692635
H        1.64784960       2.15911668      -0.27961413
H       -5.10426476       3.40959959       0.96002798
O        2.44523459      -1.10312213      -3.17152655
O        0.86245570      -2.41572082      -2.28789569
O        5.02489606      -2.18727551      -0.91403411
N        0.76170965      -0.40631794      -0.10884542
N        4.76020868      -0.22588396       0.16808355
C        1.93771924      -0.73223826      -0.90389995
C        2.84225060      -1.64020605      -0.04286412
C        1.64792103      -1.51123576      -2.18458840
C        4.31985824      -1.40073279      -0.32465801
H        2.45827617       0.18935799      -1.18480638
H        2.64670654      -1.43420039       1.00989755
H        2.60501257      -2.68694956      -0.23849431
H       -0.97430649      -2.43273490       3.20225377
H        0.14146885       0.80091070      -2.55739241
H        4.13580590       0.42329977       0.62399300
H        5.72041718       0.03449925       0.01980108
H        2.36176452      -1.66965065      -3.95455510
O        2.40409479       1.33737899       1.31525978
H        1.73552907       0.65513811       1.10295465
H        2.21134235       1.65491035       2.19901122
O       -0.53838985      -2.05038588       2.43850620
H        0.40506207      -1.27593633       0.28204480
H       -1.08379063      -2.26189011       1.67238638
